22
Coordinates from ORCA-job Phenanthroline_C2v_r2SCAN3c_Opt E -571.496898812575
  C       0.000000      3.470990      0.348120
  C       0.000000      2.699560      1.523050
  N       0.000000      1.378530      1.540430
  C       0.000000      0.726370      0.359540
  C       0.000000      1.410800     -0.887500
  C       0.000000      2.818040     -0.861810
  C       0.000000      0.678960     -2.114330
  C       0.000000     -0.678960     -2.114330
  C       0.000000     -1.410800     -0.887500
  C       0.000000     -2.818040     -0.861810
  C       0.000000     -3.470990      0.348120
  C       0.000000     -2.699560      1.523050
  N       0.000000     -1.378530      1.540430
  C       0.000000     -0.726370      0.359540
  H       0.000000      4.555240      0.405670
  H       0.000000      3.193360      2.495440
  H       0.000000      3.369300     -1.799220
  H       0.000000      1.233040     -3.049950
  H       0.000000     -1.233040     -3.049950
  H       0.000000     -3.369300     -1.799220
  H       0.000000     -4.555240      0.405670
  H       0.000000     -3.193360      2.495440
22
Coordinates from ORCA-job Phenanthroline_C2v_r2SCAN3c_Opt E -571.496982102900
  C      -0.000000      3.474768      0.346263
  C       0.000000      2.707744      1.522993
  N       0.000000      1.383767      1.541352
  C       0.000000      0.726473      0.360160
  C       0.000000      1.410755     -0.886513
  C      -0.000000      2.818906     -0.862718
  C       0.000000      0.679254     -2.113642
  C       0.000000     -0.679254     -2.113642
  C      -0.000000     -1.410755     -0.886513
  C       0.000000     -2.818906     -0.862718
  C       0.000000     -3.474768      0.346263
  C       0.000000     -2.707744      1.522993
  N       0.000000     -1.383767      1.541352
  C      -0.000000     -0.726473      0.360160
  H       0.000000      4.558940      0.401852
  H       0.000000      3.205589      2.493087
  H       0.000000      3.368155     -1.801112
  H       0.000000      1.234382     -3.048457
  H      -0.000000     -1.234382     -3.048457
  H       0.000000     -3.368155     -1.801112
  H       0.000000     -4.558940      0.401852
  H       0.000000     -3.205589      2.493087
22
Coordinates from ORCA-job Phenanthroline_C2v_r2SCAN3c_Opt E -571.496989340707
  C       0.000000      3.474663      0.345611
  C       0.000000      2.709289      1.522963
  N       0.000000      1.384485      1.541819
  C       0.000000      0.726008      0.360454
  C       0.000000      1.410164     -0.886008
  C       0.000000      2.818363     -0.863129
  C       0.000000      0.679321     -2.113708
  C      -0.000000     -0.679321     -2.113708
  C       0.000000     -1.410164     -0.886008
  C       0.000000     -2.818363     -0.863129
  C      -0.000000     -3.474663      0.345611
  C       0.000000     -2.709289      1.522963
  N      -0.000000     -1.384485      1.541819
  C       0.000000     -0.726008      0.360454
  H       0.000000      4.558905      0.400997
  H       0.000000      3.208707      2.491959
  H       0.000000      3.366796     -1.801927
  H       0.000000      1.235501     -3.047863
  H       0.000000     -1.235501     -3.047863
  H       0.000000     -3.366796     -1.801927
  H       0.000000     -4.558905      0.400997
  H       0.000000     -3.208707      2.491959
22
Coordinates from ORCA-job Phenanthroline_C2v_r2SCAN3c_Opt E -571.496990315254
  C      -0.000000      3.474262      0.345335
  C      -0.000000      2.709297      1.522879
  N       0.000000      1.384453      1.542061
  C       0.000000      0.725803      0.360674
  C       0.000000      1.409864     -0.885776
  C       0.000000      2.818043     -0.863372
  C       0.000000      0.679323     -2.113793
  C       0.000000     -0.679323     -2.113793
  C       0.000000     -1.409864     -0.885776
  C      -0.000000     -2.818043     -0.863372
  C       0.000000     -3.474262      0.345335
  C       0.000000     -2.709297      1.522879
  N       0.000000     -1.384453      1.542061
  C       0.000000     -0.725803      0.360674
  H       0.000000      4.558535      0.400951
  H       0.000000      3.209261      2.491555
  H       0.000000      3.366124     -1.802352
  H       0.000000      1.236175     -3.047535
  H       0.000000     -1.236175     -3.047535
  H      -0.000000     -3.366124     -1.802352
  H       0.000000     -4.558535      0.400951
  H       0.000000     -3.209261      2.491555
