6
Coordinates from ORCA-job Apixaban_COSMORS_methanol_Opt_KeepDens.solvent_cpcm E -115.783953139047
  C          -0.36734347121101     -0.00735361147734      0.04181374772808
  O           1.01312497554746     -0.06796166100438      0.44368593253030
  H          -0.96967916219535     -0.15091883659631      0.94768551505161
  H          -0.61899166798251      0.97034477037282     -0.40064578059147
  H          -0.61557538617133     -0.80305805113087     -0.67945374429802
  H           1.55846471201275      0.05894638983608     -0.35308567042049
