60
Coordinates from ORCA-job 10MeOH_XTB E -82.345838248380
  H          -6.29838132419101      1.67486259957533     -2.85771429817636
  O          -6.63189977936230      1.44161882831936     -3.73659908005580
  C          -5.57201000128050      0.90558872371362     -4.50223827373740
  H          -4.79045155837655      1.64852334710324     -4.68074099939548
  H          -5.13894461196993      0.02695030371029     -4.01631687676574
  H          -6.00062532335390      0.60510489517958     -5.45724807048758
  H          -7.62949661170484      3.00599821197694     -0.92473977430001
  O          -8.57781478024375      3.00585149285128     -0.69498167516118
  C          -8.70360924746657      3.24808084044065      0.68061705294136
  H          -8.25987619067889      4.20914752189639      0.96622341719591
  H          -9.76977968298920      3.27814207589537      0.90410563465388
  H          -8.23869994982139      2.45399278847857      1.27612491936432
  H          -6.98962781863653      3.21298657256681     -4.13558145964186
  O          -7.04535048776809      4.17106695718520     -3.94549514749548
  C          -8.40500303182693      4.49977799604466     -3.72796381111045
  H          -8.43760157954542      5.56736086504118     -3.51334583294771
  H          -9.00197288104583      4.29827038825627     -4.62041265491924
  H          -8.81497736701252      3.94522162902512     -2.88117797169295
  H          -6.21209333860695      3.83178478512010     -2.37207053524906
  O          -5.92845623878681      3.31238750577167     -1.58791505671106
  C          -5.07600555286745      4.11144302140355     -0.79433508997735
  H          -5.56264569149056      5.04820388913583     -0.50831442267965
  H          -4.84818768904808      3.54045714494688      0.10551576065191
  H          -4.14338764790512      4.33522023634732     -1.31711643362109
  H          -0.75036960249141      3.34777670828199     -2.97596801230020
  O           0.13997501784944      3.39417103933408     -3.39358224483608
  C           0.86529556074902      2.25541639969450     -2.99302206610249
  H           0.86201166098427      2.14822907392696     -1.90665069528469
  H           0.45164286416237      1.34178542059134     -3.43578967296602
  H           1.89061514447462      2.38360828314774     -3.34010468382131
  H          -2.90302684489303      3.21427351593934     -3.38647189195595
  O          -2.42064290820267      3.06060603593742     -2.54297007936130
  C          -2.68503093634119      1.74788041573869     -2.09909019712425
  H          -2.06143530335805      1.57849094705150     -1.22281567234123
  H          -3.73594596688266      1.63300256882715     -1.82466445550761
  H          -2.43646067550374      1.00962656106020     -2.86844412039907
  H         -13.68165414997686      6.62626381622648      5.34619040770135
  O         -12.76857274340070      6.39924034669152      5.55182350162593
  C         -12.53098617009416      5.06423923246416      5.17862340156078
  H         -12.69089558989008      4.90708345196444      4.10647391951248
  H         -11.48827463484836      4.85770900129768      5.41278278614044
  H         -13.16528209357023      4.36866210739167      5.73922741575867
  H           0.36660700953028      1.40728537784387      0.86787319812681
  O          -0.15854376170436      1.01895473668628      0.16037275906322
  C           0.21211619773047     -0.32953874305992     -0.00416872233120
  H          -0.41061143251637     -0.72741166230804     -0.80311371051319
  H           1.26456697776596     -0.42526103920766     -0.29137944215402
  H           0.03621830400105     -0.91084041554581      0.90652795276899
  H          -0.35119643930492      3.58711752688907     -5.07937838574296
  O          -0.79807123356967      3.53499418860241     -5.95465000682610
  C          -0.29184102624765      2.42316435866899     -6.65102347344404
  H          -0.78001587597888      2.40129282305044     -7.62492214671346
  H           0.78871250931586      2.50453222524903     -6.79803685310825
  H          -0.50907728302592      1.48668813194972     -6.12573084845911
  H          -2.49327454615275      3.45440401308584     -5.48773497006607
  O          -3.37976575613360      3.43785309871373     -5.06307450425169
  C          -4.00336744638838      4.68034348113602     -5.31507992422908
  H          -4.99208536952469      4.64864401643305     -4.85925904334640
  H          -3.42717375625946      5.50158730970540     -4.87966867779600
  H          -4.11059131432442      4.85128302655552     -6.38872016195885
