118
d_D9_D1b
C     25.91324538    25.25440179    43.40885425
H     26.60741581    24.63773178    43.12551465
H     26.34412664    26.08701012    43.65726804
C     25.24561490    24.69863746    44.59239886
H     24.80614842    25.41981608    45.07160620
H     25.91560690    24.31936118    45.18173265
C     24.24908706    23.66185668    44.27256021
H     23.79152110    23.39608644    45.08576532
H     24.70268061    22.88115660    43.91685180
C     23.24636503    24.14467262    43.27827576
H     22.59275716    24.68894792    43.74379596
H     22.77910140    23.37532314    42.91784765
C     23.79585209    24.94239860    42.13453400
C     26.63255542    25.84380267    40.46895023
H     27.04445199    25.04053980    40.69486676
C     25.54542216    26.28564569    41.19153701
C     24.95768419    27.48493390    40.86052839
C     27.11189049    26.59017409    39.41189371
H     27.85495023    26.29602734    38.93599015
H     26.76903533    26.89677882    36.68626427
N     25.01577806    25.50729878    42.27502387
O     23.14108628    25.08386589    41.10548106
H     24.24247238    27.80205870    41.36349158
C     25.42008065    28.21732470    39.79293120
H     25.00584134    29.01878808    39.56685734
C     26.49181645    27.76925269    39.05964642
C     26.70312007    27.85991910    36.59013962
H     25.80622611    28.06921316    36.28666261
C     27.16532686    29.83838474    38.01297325
C     27.37709298    30.48426179    36.70781759
C     27.70702117    29.81429931    35.56439047
C     27.70212606    28.32570913    35.54818615
H     28.58681789    27.98615996    35.75648245
H     27.44648784    28.00138638    34.67095038
C     27.98966607    30.81342931    34.63209148
C     28.46068506    30.63984812    33.23993593
C     27.16049444    32.93779174    37.27591270
C     26.06154869    32.89003615    38.10359158
H     25.50717959    32.14297262    38.09745596
C     25.78234755    33.94896445    38.94055254
H     25.04192637    33.91615844    39.50078148
C     26.59873206    35.05371044    38.94558689
C     27.67807229    35.11295505    38.08156629
H     28.21235087    35.87344552    38.06284479
C     27.96542454    34.06011732    37.25310080
H     28.69699997    34.10025970    36.67997133
C     25.42716093    36.02197233    40.76188656
H     25.44464661    36.80364136    41.31944100
H     25.58469521    35.24224120    41.29898895
H     24.56773413    35.95096184    40.33931567
H     28.68662279    31.69033268    31.64561970
H     28.04756836    32.40043754    32.75003059
N     26.93156476    28.49458397    37.90127357
N     27.46659002    31.82044936    36.44068230
N     27.82756186    32.03306555    35.15786658
N     28.42064811    31.72590713    32.47377054
O     27.27845798    30.40882180    39.07868256
O     28.88367393    29.55628071    32.87510276
O     26.43449692    36.12523514    39.77090591
C     17.73376538    51.98742738    51.14445018
H     17.08015751    51.44315208    51.60997038
H     17.26650175    52.75677686    50.78402207
O     17.62848663    51.04823411    48.97165548
C     21.08613240    41.07838956    46.81176131
C     22.16547264    41.01914495    45.94774071
H     22.69975122    40.25865448    45.92901922
C     19.91456127    40.11012767    48.62806098
H     19.93204696    39.32845864    49.18561543
H     20.07209556    40.88985880    49.16516337
H     19.05513448    40.18113816    48.20549009
O     20.92189726    40.00686486    47.63708033
C     20.97921680    48.36284731    46.92582084
H     22.34235057    49.83607266    46.80216458
C     21.19052041    48.27218090    44.45631404
H     20.29362646    48.06288684    44.15283703
H     21.25643568    49.23532118    44.55243869
C     21.65272721    46.29371526    45.87914767
C     21.86449333    45.64783821    44.57399201
C     22.19442152    46.31780069    43.43056490
C     22.18952640    47.80639087    43.41436058
H     23.07421823    48.14594004    43.62265688
H     21.93388819    48.13071362    42.53712481
C     22.47706641    45.31867069    42.49826590
C     22.94808540    45.49225188    41.10611035
C     21.64789479    43.19430826    45.14208713
C     20.54894904    43.24206385    45.96976600
H     19.99457994    43.98912738    45.96363038
C     20.26974789    42.18313555    46.80672696
C     22.45282488    42.07198268    45.11927522
H     23.18440032    42.03184030    44.54614575
H     23.17402313    44.44176732    39.51179412
H     22.53496870    43.73166246    40.61620501
N     21.41896510    47.63751603    45.76744799
N     21.95399036    44.31165064    44.30685673
N     22.31496220    44.09903445    43.02404100
N     22.90804845    44.40619287    40.33994497
O     21.76585832    45.72327820    46.94485698
O     23.37107427    46.57581929    40.74127718
C     20.40064573    50.87769821    51.27502868
H     21.09481616    51.49436822    50.99168907
H     20.83152698    50.04508988    51.52344247
C     19.73301525    51.43346254    52.45857328
H     19.29354876    50.71228392    52.93778063
H     20.40300725    51.81273882    53.04790707
C     18.73648740    52.47024332    52.13873463
H     18.27892144    52.73601356    52.95193974
H     19.19008095    53.25094340    51.78302622
C     18.28325244    51.18970140    50.00070842
C     21.11995576    50.28829733    48.33512465
H     21.53185233    51.09156020    48.56104118
C     20.03282250    49.84645431    49.05771143
C     19.44508453    48.64716610    48.72670281
H     18.72987272    48.33004130    49.22966600
C     19.90748099    47.91477530    47.65910562
H     19.49324168    47.11331192    47.43303177
C     21.59929084    49.54192591    47.27806813
H     19.52932672    42.21594156    47.36695590
N     19.50317840    50.62480122    50.14119830
