89
# ORCA AIMD Position Step 0, t=0.00 fs, E_Pot=-6055166.11882280 kJ mol^-1, Unit is Angstrom
 C     23.9096391071    -17.5230760785     -0.1253050006
 C     24.1856101083    -18.6094540833      0.9078100041
 C     25.4921771142    -19.3487370867      0.7388550033
 N     26.4684571185    -18.7798870841     -0.0160310001
 C     26.2888911177    -17.5496530786     -0.8264970037
 C     25.1641481127    -16.6804540747     -0.3007580013
 C     27.7235911242    -19.4516400871     -0.1689730008
 C     28.5411391278    -19.6722590881      0.9398380042
 C     29.7669601333    -20.3018380909      0.7883390035
 C     30.1973551352    -20.7003570927     -0.4798370021
 C     29.3848901316    -20.4709500917     -1.5892520071
 C     28.1483541261    -19.8535350889     -1.4320010064
 N     31.4469871408    -21.3699140957     -0.6305330028
 C     31.5218341412    -22.4786811007     -1.6176400072
 C     32.5276791457    -23.5498321055     -1.2108350054
 C     33.8039471514    -22.8798131025     -0.8412120038
 C     33.7923011513    -21.5805810967     -0.3676390016
 C     32.5916001460    -20.7659920930     -0.1660160007
 O     25.6630761149    -20.4412300915      1.3127010059
 O     32.6049041460    -19.6596920880      0.3883510017
 C     35.1599741575    -23.2437771041     -0.8388010038
 N     35.9294371609    -22.2275850995     -0.4002720018
 N     35.0918901572    -21.2299100951     -0.1105630005
 C     35.6153011595    -20.0003640896      0.4050220018
 C     35.7503551601    -24.5363821099     -1.2348100055
 N     37.0918521661    -24.5992411102     -1.2664440057
 O     35.0181371568    -25.5014381142     -1.5180900068
 C     35.3761401584    -19.6500220880      1.7323020078
 C     35.9065561608    -18.4747300827      2.2313530100
 C     36.6835151643    -17.6499820790      1.4069140063
 C     36.9308541654    -18.0111700807      0.0803730004
 C     36.3897321630    -19.1945340860     -0.4156870019
 O     37.1583841664    -16.5126670740      1.9938600089
 C     37.9649521700    -15.6374410700      1.1883280053
 H     23.6375491059    -17.9801640805     -1.0857400049
 H     23.0610381033    -16.9111950757      0.1977210009
 H     24.2251931085    -18.1697340814      1.9148680086
 H     23.3961291048    -19.3672280867      0.9305990042
 H     27.2424531220    -17.0117150762     -0.8078050036
 H     26.0855021168    -17.8339900799     -1.8678520084
 H     25.4526021140    -16.2340960727      0.6599280030
 H     25.0047411120    -15.8636760710     -1.0128490045
 H     28.2107511263    -19.3596820867      1.9254130086
 H     30.3897771361    -20.4906310918      1.6562540074
 H     29.7087601331    -20.7707360930     -2.5807800116
 H     27.5181601232    -19.6880950882     -2.3005090103
 H     30.5230391367    -22.9128201026     -1.6927730076
 H     31.7964851424    -22.0708680988     -2.5998460116
 H     32.1507261440    -24.1338001081     -0.3602420016
 H     32.6589151463    -24.2394171086     -2.0483860092
 H     37.6567461687    -23.8011811066     -1.0183870046
 H     37.5388761681    -25.4717481141     -1.5063050067
 H     34.7756521557    -20.2953740909      2.3657060106
 H     35.7333501600    -18.1819130814      3.2623280146
 H     37.5302251681    -17.3897530779     -0.5738960026
 H     36.5690001638    -19.4818640873     -1.4473640065
 H     37.3985701675    -15.2654840684      0.3268840015
 H     38.2323331712    -14.8034570663      1.8385060082
 H     38.8748131741    -16.1455620723      0.8486840038
 O     37.1076091662    -19.8645930890     11.3938050510
 H     37.6546481686    -19.9040830891     12.1782930545
 H     37.4107901675    -19.0845410855     10.9292290489
 O     24.8065141111    -26.0299441166      8.8376720396
 H     24.1700761082    -26.4741781186      9.3978810421
 H     25.5503961144    -26.6309371193      8.7967000394
 O     32.5043061456     -8.8385900396      6.2815380281
 H     32.8394631471     -9.4272760422      6.9578140312
 H     31.7140791420     -8.4582140379      6.6650590299
 O     38.9547191745    -29.5401591323      3.7254040167
 H     38.6471861731    -29.0141541299      2.9871800134
 H     38.9361781744    -28.9404321296      4.4712030200
 O     19.0144320852    -17.6495900790      1.1692700052
 H     18.4289680825    -18.4018450824      1.0822280048
 H     19.6562100880    -17.9200940803      1.8259130082
 O     42.2663471893    -13.0392350584     -1.3868630062
 H     41.7251171869    -12.2885580550     -1.6313780073
 H     42.3385021896    -12.9824630581     -0.4340770019
 O     28.3715531271    -31.6385731417     -3.9429970177
 H     27.6690971239    -32.2028601442     -3.6199370162
 H     28.4071621272    -30.9169181385     -3.3151620148
 O     26.4351481184    -10.0419730450     -6.4991310291
 H     25.8855771159     -9.3942050421     -6.0579980271
 H     25.9244211161    -10.3089540462     -7.2634020325
 O     40.1100391796    -22.9955831030     -9.0552650406
 H     40.9888471836    -22.7984831021     -9.3794240420
 H     40.0908061796    -23.9496091073     -8.9797910402
 O     26.3871481182    -21.9902300985    -11.6113980520
 H     27.1072761214    -21.7600420975    -12.1984760546
 H     26.0232531165    -22.7941611021    -11.9822200537
89
# ORCA AIMD Position Step 10, t=5.00 fs, E_Pot=-6055052.33483121 kJ mol^-1, Unit is Angstrom
 C     23.9277858893    -17.5230696567     -0.1064313570
 C     24.1733839547    -18.5647330029      0.9502836830
 C     25.5168445848    -19.3583727896      0.7486820654
 N     26.5040510161    -18.8090503982      0.0013777712
 C     26.2694792308    -17.5286949549     -0.8339355498
 C     25.1356920010    -16.6602259142     -0.3088817785
 C     27.7354140786    -19.4750543485     -0.1800237517
 C     28.5539098553    -19.6898282251      0.9364240414
 C     29.7324192896    -20.2960260752      0.7827261367
 C     30.2027185112    -20.7559586067     -0.4907518356
 C     29.3996862901    -20.4837186052     -1.6115928180
 C     28.1510655182    -19.8766865841     -1.4286888099
 N     31.4714852740    -21.3901837467     -0.6291295714
 C     31.4893447668    -22.4892265941     -1.6226365355
 C     32.5290684559    -23.5627891941     -1.1923951610
 C     33.8132871345    -22.8980976637     -0.8425070427
 C     33.7962364428    -21.5904548895     -0.3633371039
 C     32.5883451642    -20.7415570247     -0.2023267377
 O     25.6527136451    -20.3957098470      1.3419618776
 O     32.6140085993    -19.6701942740      0.3785511057
 C     35.1269736151    -23.2693264019     -0.8491693413
 N     35.9046947875    -22.2377435113     -0.3969180214
 N     35.0949429701    -21.2143534005     -0.1139822721
 C     35.6300763076    -19.9851390566      0.4271548650
 C     35.7405044728    -24.5617561795     -1.2455643389
 N     37.0957873114    -24.5692681194     -1.2596242475
 O     35.0100792810    -25.5109062065     -1.5181842996
 C     35.3685277585    -19.6585044163      1.7505870743
 C     35.8744910453    -18.4644981820      2.2324107178
 C     36.6914118204    -17.6170563286      1.4264240239
 C     36.9022785113    -18.0073390119      0.0908119826
 C     36.3905733087    -19.1744496433     -0.4344348831
 O     37.1767256211    -16.4938455337      1.9621217588
 C     37.9533805661    -15.5929004723      1.2119167567
 H     23.6640493765    -18.0365114672     -1.0365603882
 H     23.0397398842    -16.9678709207      0.2598354081
 H     24.1519455087    -18.1308088185      1.9643663075
 H     23.3954653735    -19.3562591728      0.8871089879
 H     27.2874524329    -17.0710217420     -0.8172218330
 H     26.1279929674    -17.8387905779     -1.8784494312
 H     25.3177421923    -16.2628258080      0.7057767278
 H     24.9600156808    -15.8690864931     -1.0420584889
 H     28.1382882794    -19.4049485809      1.9009753939
 H     30.2697111239    -20.4350999044      1.7149010144
 H     29.7593493398    -20.7340007337     -2.6053281145
 H     27.4736938733    -19.6827396797     -2.2630038410
 H     30.5152535994    -22.9724820761     -1.7164991286
 H     31.8057625394    -22.1689172608     -2.6257189261
 H     32.2371078304    -24.2303543926     -0.3687268177
 H     32.6896227018    -24.2876605190     -2.0163804128
 H     37.6769329646    -23.7569780598     -0.9814757027
 H     37.5002252384    -25.4406242246     -1.5141442425
 H     34.7620674066    -20.3107674733      2.3754683408
 H     35.7573690362    -18.1843016653      3.2736638724
 H     37.4970150925    -17.4263655036     -0.6051621557
 H     36.5912262086    -19.4605118092     -1.4712904037
 H     37.3544243269    -15.1976136299      0.3636750445
 H     38.2078372810    -14.7206881485      1.8177908579
 H     38.8490913669    -16.1061445584      0.8051387439
 O     37.0981707417    -19.8590758060     11.4091576111
 H     37.6645455128    -20.0440154123     12.1637771871
 H     37.4574062487    -19.0607902359     10.9673307523
 O     24.8231978808    -26.0376371168      8.8111244590
 H     24.1456448837    -26.5229843534      9.3363481117
 H     25.5532402646    -26.6669046347      8.7644913885
 O     32.5108044505     -8.8278686061      6.2183998963
 H     32.8905863430     -9.4043582453      6.9066987545
 H     31.7496049233     -8.4282033758      6.6305462735
 O     38.9477365247    -29.5522187505      3.7014642205
 H     38.6601667015    -29.0151556549      2.9505751906
 H     38.8607625313    -28.9382591369      4.4416415903
 O     19.0628542924    -17.6546333969      1.1584435102
 H     18.4114254760    -18.3565961398      1.0801619377
 H     19.6450471261    -18.0447501351      1.8282083802
 O     42.2630229773    -13.0811878437     -1.3795217030
 H     41.7191008044    -12.3185324943     -1.6541298050
 H     42.3784275008    -12.8289623892     -0.4373013051
 O     28.3730605135    -31.6295005966     -3.9287449022
 H     27.6506065086    -32.2264825937     -3.6580509919
 H     28.3880352851    -30.9467189414     -3.2641204998
 O     26.4080930031    -10.0253809585     -6.4673486072
 H     25.8167907221     -9.3876991110     -5.9309779751
 H     25.9856664726    -10.2384414505     -7.3135517557
 O     40.1249213254    -22.9942664816     -9.0325819848
 H     41.0105196078    -22.8314188260     -9.3614311140
 H     40.1363069068    -23.9423282876     -8.8242574976
 O     26.4117375245    -21.9734320119    -11.6263004461
 H     27.1330815901    -21.7730678631    -12.2503676745
 H     25.9621000644    -22.7775585380    -11.9334696802
89
# ORCA AIMD Position Step 20, t=10.00 fs, E_Pot=-6055042.90494208 kJ mol^-1, Unit is Angstrom
 C     23.9222379478    -17.5265132536     -0.0886285199
 C     24.1794273066    -18.5402520825      0.9789039402
 C     25.5188392998    -19.3453704552      0.7722443108
 N     26.5240157429    -18.8084785284     -0.0010560366
 C     26.2749098347    -17.5287852529     -0.8267276753
 C     25.1131399898    -16.6462665383     -0.3119041308
 C     27.7480621352    -19.4983591538     -0.1843495011
 C     28.5294114722    -19.6952256946      0.9251634011
 C     29.7345300419    -20.3149376603      0.7734452874
 C     30.1953153948    -20.7894640669     -0.4912871673
 C     29.4172239588    -20.4991486535     -1.6220041319
 C     28.1557147603    -19.8995193434     -1.4348547340
 N     31.4632299394    -21.4134311555     -0.6410740673
 C     31.4834345989    -22.5213134405     -1.6168603577
 C     32.5318345756    -23.5862300374     -1.1848343945
 C     33.7949933562    -22.9009098484     -0.8407589531
 C     33.7958919494    -21.5901815944     -0.3641779233
 C     32.6119905420    -20.7307172946     -0.2266253154
 O     25.6461282392    -20.3718034676      1.3819040263
 O     32.6194577382    -19.6751848559      0.3679008283
 C     35.1256448900    -23.2815617147     -0.8504262144
 N     35.8888718198    -22.2534538384     -0.3969449142
 N     35.0923334243    -21.2137253308     -0.1192608672
 C     35.6418502277    -19.9808318106      0.4286661116
 C     35.7190291975    -24.5732023948     -1.2500175482
 N     37.0992810195    -24.5429680736     -1.2541388466
 O     35.0082686285    -25.5227129623     -1.5200798424
 C     35.3659431169    -19.6567585900      1.7615603079
 C     35.8594460597    -18.4412807646      2.2373204676
 C     36.6832179473    -17.6085099487      1.4290219825
 C     36.8842222843    -17.9915877199      0.0962899367
 C     36.3792994580    -19.1667147654     -0.4315220834
 O     37.1922236130    -16.4705861985      1.9508542413
 C     37.9389850267    -15.5477599021      1.2124404943
 H     23.6520704180    -18.0702952240     -1.0204079011
 H     23.0458028075    -16.9656713112      0.2022619260
 H     24.1284474527    -18.1062693063      2.0429662161
 H     23.4240099584    -19.3037484562      0.9031203831
 H     27.2326904405    -17.0464394433     -0.8193792630
 H     26.0827827675    -17.8191010772     -1.8858884114
 H     25.3193386709    -16.2098025678      0.6667710103
 H     24.9171730210    -15.8318443657     -1.0350843431
 H     28.1309276768    -19.4471525393      1.8954117027
 H     30.2855278226    -20.4477645041      1.7044441211
 H     29.7810252054    -20.7107220402     -2.6296460131
 H     27.4833778458    -19.7082056714     -2.2560301759
 H     30.4740645677    -22.9607472482     -1.6861327447
 H     31.7911065240    -22.1839341878     -2.6407857129
 H     32.2397677275    -24.2416831155     -0.3453110689
 H     32.7190831369    -24.2765050919     -1.9911812305
 H     37.6108107767    -23.7674415362     -0.9664442497
 H     37.5515849855    -25.4405420384     -1.5282528510
 H     34.7595488441    -20.3124673359      2.3714176524
 H     35.7387060095    -18.1778416788      3.2895069369
 H     37.4811931300    -17.3916834907     -0.5858870383
 H     36.5825264173    -19.4473330330     -1.4515174198
 H     37.3423137292    -15.1547662563      0.3981008569
 H     38.2020486560    -14.7121928047      1.8713648107
 H     38.8264276044    -15.9995795827      0.7897988993
 O     37.0869829002    -19.8523014670     11.4226519981
 H     37.6925793475    -20.1481983869     12.1203735761
 H     37.5113792461    -19.0935428526     11.0706158354
 O     24.8373998041    -26.0498058621      8.7868977482
 H     24.1678551191    -26.5226244965      9.2338979399
 H     25.5547953946    -26.6863464828      8.7236961460
 O     32.5205955267     -8.8192800481      6.1536661716
 H     32.9155683844     -9.3520661172      6.8280509611
 H     31.7639641973     -8.3880410609      6.6211674214
 O     38.9397330842    -29.5611588530      3.6767855876
 H     38.6794594238    -29.0445416118      2.9113292439
 H     38.7899001970    -28.9618997055      4.4150323082
 O     19.1140281385    -17.6659567653      1.1515799120
 H     18.3532833883    -18.2734197076      1.0304092453
 H     19.6539718276    -18.1125859489      1.8112847453
 O     42.2552496414    -13.1133834694     -1.3630800004
 H     41.7358174030    -12.4186111268     -1.7545031801
 H     42.4643073084    -12.7740865034     -0.5038774081
 O     28.3731067564    -31.6235700024     -3.9162477461
 H     27.6663529247    -32.2118727998     -3.6985152800
 H     28.3576032487    -30.9625296632     -3.1769299742
 O     26.3806739022    -10.0055477146     -6.4280623312
 H     25.7972146444     -9.4931466693     -5.9800854353
 H     25.9922226631    -10.0988910670     -7.2917943192
 O     40.1403500064    -22.9963922979     -9.0085285641
 H     41.0427685638    -22.8529355481     -9.3504370938
 H     40.1702075970    -23.8918802499     -8.6698570106
 O     26.4365288618    -21.9544475166    -11.6394725908
 H     27.1031507551    -21.8476620842    -12.3003169284
 H     25.9625686185    -22.7271214667    -11.9199707770
89
# ORCA AIMD Position Step 30, t=15.00 fs, E_Pot=-6055035.89465042 kJ mol^-1, Unit is Angstrom
 C     23.8973258083    -17.5302260315     -0.0824351763
 C     24.2076257600    -18.5280267046      1.0056063779
 C     25.5072096596    -19.3021879318      0.8057945266
 N     26.5136408760    -18.7810514295     -0.0176612600
 C     26.2845643061    -17.5462049823     -0.8128391825
 C     25.1046170120    -16.6412599461     -0.3133432104
 C     27.7444382720    -19.5125014678     -0.1911401934
 C     28.5037488840    -19.7067491592      0.9158874852
 C     29.7578695402    -20.3531958530      0.7646997455
 C     30.1809633812    -20.7966239466     -0.4840418531
 C     29.4242935408    -20.5138447191     -1.6214358076
 C     28.1717166889    -19.9251285251     -1.4517534897
 N     31.4402327120    -21.4310435532     -0.6574550739
 C     31.4990722201    -22.5691526005     -1.6069118988
 C     32.5290255140    -23.6123312736     -1.1825869602
 C     33.7660002984    -22.8881905112     -0.8333997522
 C     33.7913839765    -21.5819108665     -0.3748945271
 C     32.6368165629    -20.7483747998     -0.2394484799
 O     25.6445150225    -20.3700809428      1.4321075476
 O     32.6217350538    -19.6696260445      0.3559849747
 C     35.1343601420    -23.2738451222     -0.8406167726
 N     35.8901460806    -22.2697539663     -0.3988785359
 N     35.0881873552    -21.2316666759     -0.1259478144
 C     35.6411200706    -19.9939503688      0.4179053086
 C     35.7114076349    -24.5638278797     -1.2446653072
 N     37.0873899149    -24.5455819302     -1.2592783675
 O     35.0090212684    -25.5417711387     -1.5258146484
 C     35.3738420797    -19.6372018821      1.7573903359
 C     35.8595728618    -18.4149945270      2.2481013040
 C     36.6624350234    -17.6126242044      1.4165389466
 C     36.8775911284    -17.9657664466      0.0939992514
 C     36.3608623599    -19.1640986484     -0.4049421965
 O     37.1986108310    -16.4536916706      1.9631208940
 C     37.9234646532    -15.4985639398      1.1981022328
 H     23.6501974094    -18.0616651982     -0.9921352576
 H     22.9960854004    -16.8841861686      0.1146816654
 H     24.1824342235    -18.1438912650      1.9826675472
 H     23.3991741123    -19.3177532479      0.9913387685
 H     27.2307012032    -16.9136503502     -0.8198048069
 H     26.0059473765    -17.7877633693     -1.8323876544
 H     25.4322914492    -16.1035209991      0.6085561518
 H     24.9021651175    -15.8362356414     -1.0093069856
 H     28.1619201733    -19.4443901113      1.9216048080
 H     30.4080015541    -20.5265270654      1.6119234792
 H     29.7768631059    -20.7173795646     -2.6211992682
 H     27.5218362518    -19.7457411531     -2.3193225514
 H     30.4735744772    -22.9154051156     -1.6250788776
 H     31.7325149243    -22.1725135000     -2.5826814580
 H     32.1674238098    -24.1751065303     -0.3179639644
 H     32.7355237457    -24.3007563455     -2.0422828891
 H     37.5800898391    -23.6659517713     -0.9117941585
 H     37.6120089438    -25.3236938762     -1.4962226956
 H     34.7623574612    -20.3023911488      2.3750923722
 H     35.6830591448    -18.1494487368      3.2795040106
 H     37.4726741286    -17.3071625769     -0.5252125337
 H     36.5497128750    -19.4555358000     -1.4503126822
 H     37.3032247891    -15.0719813512      0.3686358584
 H     38.1959425181    -14.7600399399      1.9521097275
 H     38.8828292097    -15.9035352960      0.7698876821
 O     37.0754619276    -19.8499354061     11.4401695550
 H     37.6913567227    -20.2491235002     12.0527225207
 H     37.5968715077    -19.0606076256     11.1432697071
 O     24.8564997234    -26.0600676961      8.7594446595
 H     24.1073905212    -26.5645477633      9.1753082135
 H     25.5692258836    -26.7008163420      8.6734143706
 O     32.5248928434     -8.8059708277      6.0881611008
 H     32.9718404424     -9.3342076479      6.7790578639
 H     31.8407297551     -8.3808687523      6.5577961191
 O     38.9315030592    -29.5697786649      3.6518957757
 H     38.6951238070    -29.0768318915      2.8604712989
 H     38.7194973541    -28.9939398482      4.3883022690
 O     19.1629951205    -17.6812889635      1.1441982517
 H     18.3579223096    -18.1396294635      0.9852789925
 H     19.6647331269    -18.1735282922      1.7924223327
 O     42.2463817710    -13.1477870230     -1.3467132705
 H     41.7438208521    -12.5092345179     -1.8847446001
 H     42.5738053667    -12.7120668040     -0.5351500342
 O     28.3751206358    -31.6111681463     -3.8987607153
 H     27.6409351969    -32.2363535870     -3.7321731288
 H     28.3367184703    -31.0388606127     -3.1678797794
 O     26.3636931797     -9.9938620304     -6.3937639496
 H     25.6042195573     -9.4605577600     -5.8968506231
 H     25.9917121419     -9.9567461178     -7.3035894978
 O     40.1596125379    -22.9986730600     -8.9845997534
 H     41.0316625228    -22.8737407724     -9.3242414980
 H     40.1967175991    -23.8397578907     -8.5107596386
 O     26.4612990495    -21.9330760996    -11.6503687441
 H     27.1145041200    -21.9136973742    -12.3875750215
 H     25.9340599692    -22.7139675613    -11.9130897183
89
# ORCA AIMD Position Step 40, t=20.00 fs, E_Pot=-6055012.53456500 kJ mol^-1, Unit is Angstrom
 C     23.8643579583    -17.5127352292     -0.0747027404
 C     24.2244030439    -18.5377809228      1.0092977998
 C     25.5069790647    -19.2764764235      0.8544778085
 N     26.4793085517    -18.7502772218     -0.0312125946
 C     26.2929339683    -17.5440332063     -0.7970892444
 C     25.1171743216    -16.6477107535     -0.3040921274
 C     27.7171030161    -19.5122090899     -0.2081406742
 C     28.5172355492    -19.7398360012      0.9218133039
 C     29.7694047651    -20.3923476392      0.7606206686
 C     30.1762178146    -20.7911954119     -0.4848413725
 C     29.4141050440    -20.5264482391     -1.6136258030
 C     28.1857778614    -19.9463365086     -1.4767846211
 N     31.4353774752    -21.4376763166     -0.6640386337
 C     31.5117785698    -22.6063730838     -1.5888078482
 C     32.5208119693    -23.6366550777     -1.1916176647
 C     33.7572495165    -22.8775913021     -0.8237138552
 C     33.7894049534    -21.5780681953     -0.3963302890
 C     32.6224444138    -20.7664024108     -0.2324098496
 O     25.6453346154    -20.3530163207      1.4721635739
 O     32.6235763563    -19.6691142360      0.3347657442
 C     35.1223719216    -23.2577076489     -0.8258390349
 N     35.9076108275    -22.2772623861     -0.3991908137
 N     35.0909903240    -21.2538326013     -0.1292459056
 C     35.6238574844    -20.0179281618      0.4159834728
 C     35.7131834330    -24.5655477436     -1.2390729552
 N     37.0675770312    -24.5313814563     -1.2588489751
 O     35.0176141322    -25.5521313459     -1.5308343597
 C     35.3865728646    -19.6079030926      1.7429176605
 C     35.8642684829    -18.4030714487      2.2532110505
 C     36.6442405077    -17.5995785605      1.4065835606
 C     36.8735496835    -17.9423443074      0.0882797175
 C     36.3500538553    -19.1568711797     -0.3849553015
 O     37.1948547248    -16.4508820536      1.9815604634
 C     37.9113696896    -15.4558463765      1.1767621609
 H     23.6618912209    -18.0762576891     -1.0305585129
 H     23.0109971412    -16.8961675233      0.0817693181
 H     24.2816168510    -18.0572041119      2.1022317041
 H     23.4776774516    -19.2831703347      1.1225640469
 H     27.1365441791    -16.9113827372     -0.8337235233
 H     25.9977555830    -17.8103261737     -1.8527778052
 H     25.4877508160    -16.0820541664      0.5419720114
 H     24.9151422130    -15.8694861520     -1.0867058907
 H     28.2007898475    -19.4052334812      1.8932803433
 H     30.5087229736    -20.6037856050      1.5441427560
 H     29.7841910567    -20.7723593672     -2.6147738729
 H     27.6024952253    -19.7798801547     -2.3610187126
 H     30.4691902883    -22.9896990338     -1.5969159050
 H     31.7149034210    -22.1812559359     -2.6219185017
 H     32.0986961417    -24.1501333437     -0.3050772570
 H     32.7084992080    -24.3173632371     -1.9869731116
 H     37.4626416086    -23.7264239049     -0.9323426969
 H     37.7111180518    -25.3315025753     -1.4902401724
 H     34.7907006192    -20.2473563644      2.3709878950
 H     35.6268816867    -18.0832530037      3.2742542911
 H     37.4621880168    -17.2470810295     -0.5066973793
 H     36.4966883856    -19.4459497361     -1.4039053466
 H     37.3067934897    -14.9938747819      0.4187076400
 H     38.1718594253    -14.7448070793      1.9728505924
 H     38.8391030757    -15.8130908494      0.7780979755
 O     37.0709415588    -19.8407501793     11.4572659199
 H     37.6626498134    -20.3936083907     11.9968640624
 H     37.5958489247    -19.0933173457     11.2193914829
 O     24.8710190187    -26.0729972169      8.7339135071
 H     24.1417201514    -26.5636980166      9.0652294957
 H     25.5691486506    -26.7224743235      8.6280754489
 O     32.5354232191     -8.7972222957      6.0211418937
 H     33.0175904869     -9.2937687605      6.6801482830
 H     31.8352808735     -8.3166950459      6.5333869142
 O     38.9243008667    -29.5809910531      3.6259751326
 H     38.7016272932    -29.0935667372      2.8251672041
 H     38.6353654768    -29.0063933905      4.3479198362
 O     19.2187925777    -17.6894808138      1.1341166603
 H     18.3262257524    -18.0724891211      0.9680440540
 H     19.6322443111    -18.2867860702      1.7829259876
 O     42.2378825368    -13.1868142271     -1.3292750480
 H     41.8043587651    -12.5841503118     -1.9237641982
 H     42.6220940696    -12.6102768571     -0.6705168983
 O     28.3739502752    -31.6052539293     -3.8850075546
 H     27.6594832541    -32.2329844491     -3.7892610029
 H     28.3220219493    -31.0371024012     -3.0686524691
 O     26.3247498905     -9.9689320813     -6.3571068645
 H     25.6559528316     -9.5872407756     -5.8859016638
 H     26.0808917542     -9.8547122731     -7.2617566183
 O     40.1750203095    -23.0025482041     -8.9579482987
 H     41.0810310666    -22.8973343272     -9.3149255568
 H     40.2335789610    -23.7596102391     -8.3609000600
 O     26.4887743226    -21.9173530754    -11.6710523989
 H     27.0995903620    -21.9348928658    -12.3929028795
 H     25.9003269188    -22.6472429457    -11.8402374259
89
# ORCA AIMD Position Step 50, t=25.00 fs, E_Pot=-6055006.67658208 kJ mol^-1, Unit is Angstrom
 C     23.8578164380    -17.4999692054     -0.0742298004
 C     24.2289076079    -18.5219197252      1.0401729259
 C     25.5246597148    -19.2751729984      0.8986763595
 N     26.4459970794    -18.7455013074     -0.0249139498
 C     26.2655802056    -17.5308980478     -0.8033173393
 C     25.1353023257    -16.6590607359     -0.3089966375
 C     27.6913569964    -19.5063415437     -0.2227195646
 C     28.5509136712    -19.7821652305      0.9169817350
 C     29.7666946691    -20.4258992655      0.7673762748
 C     30.1876470322    -20.7883462736     -0.5035612065
 C     29.4056181316    -20.5461109854     -1.6100352803
 C     28.1764761437    -19.9494881908     -1.4895552088
 N     31.4511452689    -21.4375529454     -0.6593847068
 C     31.5004818263    -22.6169537261     -1.5875250883
 C     32.5139951009    -23.6449927865     -1.1830715865
 C     33.7679287516    -22.8890659443     -0.8201117781
 C     33.7901957110    -21.5785773585     -0.4197058606
 C     32.5752247903    -20.7744447752     -0.2117787890
 O     25.6513354869    -20.3139327121      1.4998102694
 O     32.6228564480    -19.6764893749      0.3056897932
 C     35.1018554137    -23.2587321950     -0.8147731496
 N     35.9281203188    -22.2756622666     -0.3970224466
 N     35.0998156755    -21.2617696203     -0.1243353537
 C     35.6055101238    -20.0286834191      0.4244059355
 C     35.7060316486    -24.5847568573     -1.2368313561
 N     37.0534128063    -24.5297174148     -1.2632326799
 O     35.0331998634    -25.5497914200     -1.5332961037
 C     35.3940201938    -19.5844753062      1.7283034654
 C     35.8707174137    -18.3982126260      2.2468656362
 C     36.6372123860    -17.5615760314      1.4096246709
 C     36.8653027912    -17.9287308780      0.0834193009
 C     36.3445557113    -19.1457673690     -0.3754544875
 O     37.1854676198    -16.4544540569      1.9908473226
 C     37.8924544867    -15.4229703694      1.1835978234
 H     23.6924661030    -18.0339832304     -0.9872957549
 H     22.9281722287    -16.9004837424      0.1743872790
 H     24.3712570095    -18.0229960490      1.9164633428
 H     23.4652594453    -19.3412593916      1.2483066231
 H     27.2425234172    -16.9225618064     -0.8337371624
 H     26.0928691665    -17.8284300669     -1.8235317463
 H     25.4482406002    -16.0910340676      0.5977129395
 H     24.9701944771    -15.9939874129     -1.1340664660
 H     28.2231052245    -19.3657580132      1.8836567416
 H     30.4721473089    -20.6222668456      1.5506426952
 H     29.7768632455    -20.8434455641     -2.5721164381
 H     27.6196514593    -19.7780662601     -2.4286608352
 H     30.5415170132    -23.1099967812     -1.6008427316
 H     31.7081588839    -22.2954887036     -2.5826053342
 H     32.1209966050    -24.1838244571     -0.3241454438
 H     32.6904699658    -24.4323303760     -1.9755087607
 H     37.4782966763    -23.6164392180     -0.8976505971
 H     37.6190355422    -25.2867559722     -1.4599966024
 H     34.7879113567    -20.2066648346      2.4016189346
 H     35.6043522481    -18.0371517836      3.2228457643
 H     37.4309693240    -17.2700359778     -0.5615129384
 H     36.4804253160    -19.4306440430     -1.4418506111
 H     37.2374432012    -14.9164619245      0.4265749284
 H     38.1387362171    -14.6641023595      1.9157186570
 H     38.8375381389    -15.8242834562      0.7236993297
 O     37.0655818449    -19.8366547742     11.4780281626
 H     37.6035323809    -20.5041583824     11.9049568021
 H     37.6361300963    -19.0799984920     11.2806057338
 O     24.8893595297    -26.0827931840      8.7057577361
 H     24.1166204523    -26.6085810007      8.9852228781
 H     25.5741915252    -26.7538461402      8.5809097068
 O     32.5413714246     -8.7843813943      5.9538400161
 H     33.0642799419     -9.2598725653      6.6001794875
 H     31.9068414383     -8.3048690102      6.4650581758
 O     38.9169127537    -29.5920909192      3.6001886854
 H     38.7038050740    -29.1086558327      2.8004151573
 H     38.5527557351    -29.0273438075      4.2826582706
 O     19.2733063281    -17.7010022742      1.1245806443
 H     18.3805164554    -17.9820387335      0.9777454851
 H     19.5596223313    -18.3750821159      1.7329548340
 O     42.2305357769    -13.2264859024     -1.3102057087
 H     41.8423288650    -12.6475015635     -1.9913118400
 H     42.6715178059    -12.5251172151     -0.7995620899
 O     28.3739367807    -31.5941325751     -3.8662618389
 H     27.6629481662    -32.2337598730     -3.8299223334
 H     28.3037029561    -31.1113586732     -3.0588365798
 O     26.2972731979     -9.9512584417     -6.3233280787
 H     25.5317335039     -9.6007654598     -5.7601305398
 H     26.1520780014     -9.7415506658     -7.2732350377
 O     40.1937256603    -23.0067498920     -8.9308239852
 H     41.0766514936    -22.9391784700     -9.2756807282
 H     40.2799479122    -23.6560632107     -8.2341677860
 O     26.5153155796    -21.8997970314    -11.6888561477
 H     27.1216182460    -21.9584958966    -12.4432486096
 H     25.8541088788    -22.5998309305    -11.7743084879
89
# ORCA AIMD Position Step 60, t=30.00 fs, E_Pot=-6055016.92269778 kJ mol^-1, Unit is Angstrom
 C     23.8677486460    -17.4931180899     -0.0598915911
 C     24.2157387713    -18.5091739121      1.0564463992
 C     25.5367276585    -19.2598365314      0.9097150306
 N     26.4352539425    -18.7722885920     -0.0030135560
 C     26.2536149396    -17.5140176995     -0.8113330115
 C     25.1434424592    -16.6707741311     -0.3133591523
 C     27.6878505767    -19.5059539621     -0.2265484358
 C     28.5609033837    -19.8073553078      0.8947204438
 C     29.7589115252    -20.4549932877      0.7687950375
 C     30.2081234219    -20.7930653226     -0.5221601962
 C     29.4007389900    -20.5715960037     -1.6085779003
 C     28.1373785427    -19.9315975132     -1.4916874314
 N     31.4574770625    -21.4414262470     -0.6568130615
 C     31.4836785028    -22.6219000551     -1.5847197309
 C     32.5232400595    -23.6526893978     -1.1681177405
 C     33.7790531663    -22.9171642984     -0.8257625390
 C     33.7883665456    -21.5799178032     -0.4331512583
 C     32.5475236309    -20.7915756307     -0.1975332587
 O     25.6698606502    -20.2825633510      1.5332808630
 O     32.6131835015    -19.6761456157      0.2804128637
 C     35.1070826816    -23.2851630953     -0.8086221191
 N     35.9344619212    -22.2742766143     -0.3943571853
 N     35.1033592430    -21.2525574748     -0.1133726140
 C     35.6030353212    -20.0107697280      0.4285324354
 C     35.6973429540    -24.5849008958     -1.2290223169
 N     37.0469374913    -24.5041361046     -1.2591876978
 O     35.0420118207    -25.5552007866     -1.5381989371
 C     35.3828955563    -19.5823205429      1.7305282981
 C     35.8828554927    -18.3844704890      2.2208239220
 C     36.6393646091    -17.5205580755      1.4132935437
 C     36.8501161864    -17.9253074558      0.0820647933
 C     36.3383204405    -19.1417451795     -0.3853815479
 O     37.1785696838    -16.4446183370      1.9917621566
 C     37.8633130240    -15.4049967717      1.1975618093
 H     23.6384165663    -18.0378010873     -1.0228592375
 H     22.9998409218    -16.9711415376      0.2581673067
 H     24.4188756463    -17.8124215008      2.0224590912
 H     23.5110576965    -19.2441636547      1.3135536713
 H     27.2061617744    -17.0575594384     -0.7800821847
 H     26.1418313103    -17.8346446296     -1.8918961347
 H     25.3572891586    -16.1341264586      0.6005430171
 H     24.9872626251    -15.9690954819     -1.1784128127
 H     28.2708452824    -19.4090399112      1.8418423616
 H     30.3814906330    -20.6122634736      1.6718763315
 H     29.7561194362    -20.9086410846     -2.5949329144
 H     27.6072379342    -19.7629173120     -2.4039977148
 H     30.5127655101    -23.1648772265     -1.5843159317
 H     31.7274959083    -22.3322699453     -2.6579477915
 H     32.1924442958    -24.2447184370     -0.2801506062
 H     32.6666641893    -24.4101745786     -1.8943767358
 H     37.4762410207    -23.7038149721     -0.9460416308
 H     37.5716894970    -25.3833974776     -1.4625851858
 H     34.7869379760    -20.1617011465      2.4049205213
 H     35.6021096748    -18.0372295800      3.2259128612
 H     37.3957139750    -17.3289284364     -0.6532903407
 H     36.4890301342    -19.3786396433     -1.4091059895
 H     37.1900402030    -14.9784512111      0.4745634823
 H     38.1412678432    -14.5867612935      1.8897547775
 H     38.7142351856    -15.8234763255      0.7023991330
 O     37.0555558470    -19.8318885694     11.4975240802
 H     37.5833860579    -20.5746931887     11.8048432542
 H     37.7093552691    -19.1180609654     11.3765095741
 O     24.9066617158    -26.0965369419      8.6782912727
 H     24.1152509927    -26.6192448024      8.8859604917
 H     25.5775475880    -26.7618274213      8.5303102407
 O     32.5496858125     -8.7726220706      5.8815917813
 H     33.1180281224     -9.2298649941      6.5355822782
 H     31.9384002349     -8.2666567054      6.4339175144
 O     38.9087635712    -29.6019271279      3.5738128943
 H     38.7124250146    -29.1374302004      2.7472477813
 H     38.4706097456    -29.0590509546      4.2443416794
 O     19.3284873702    -17.7149901167      1.1164936942
 H     18.3795881362    -17.8581330256      0.9370374416
 H     19.5551872135    -18.4615007807      1.7059640510
 O     42.2229561756    -13.2525332718     -1.2919207276
 H     41.8554023703    -12.8349217287     -2.0828416892
 H     42.7462082833    -12.5457538994     -0.8888611714
 O     28.3756193318    -31.5843537505     -3.8512876064
 H     27.6493441549    -32.2442748289     -3.8643145567
 H     28.2751855432    -31.1523838009     -2.9899316749
 O     26.2698897432     -9.9331309767     -6.2853850508
 H     25.4698353327     -9.6443196995     -5.8125894834
 H     26.1489261324     -9.5975568663     -7.1586289327
 O     40.2113424769    -23.0118019415     -8.9021876100
 H     41.1087712426    -22.9689259332     -9.2606942697
 H     40.3141892860    -23.5511008717     -8.0946212614
 O     26.5431894136    -21.8785815463    -11.7040998896
 H     27.0838587920    -22.0370269257    -12.4891843320
 H     25.8550079671    -22.5490859986    -11.7588668946
89
# ORCA AIMD Position Step 70, t=35.00 fs, E_Pot=-6055028.93996297 kJ mol^-1, Unit is Angstrom
 C     23.8935253045    -17.5170953271     -0.0546236349
 C     24.2290502521    -18.4530834220      1.0909465270
 C     25.5267632355    -19.2328160576      0.9026931131
 N     26.4494191755    -18.8073958418      0.0110542646
 C     26.2551263155    -17.5379025206     -0.8200728692
 C     25.1250217253    -16.6692266121     -0.3326851949
 C     27.7004082776    -19.5131379938     -0.2180282487
 C     28.5417814775    -19.8135105919      0.8554224419
 C     29.7548143643    -20.4778228069      0.7643763658
 C     30.2219134398    -20.8034120648     -0.5224571803
 C     29.3809922245    -20.5905462887     -1.6168148735
 C     28.1071988147    -19.9133510058     -1.4794013352
 N     31.4404208822    -21.4597202813     -0.6675314412
 C     31.4738619127    -22.6348896058     -1.5871278477
 C     32.5375913403    -23.6548030306     -1.1318691596
 C     33.7884798418    -22.9355811156     -0.8347605106
 C     33.7860764767    -21.5922625144     -0.4317427140
 C     32.5695441434    -20.8139826571     -0.1971601139
 O     25.6995546097    -20.2653361270      1.5767667312
 O     32.5920322920    -19.6678621227      0.2626118860
 C     35.1352538742    -23.3120049738     -0.8008630012
 N     35.9221329686    -22.2755008959     -0.3899954496
 N     35.0943604008    -21.2407530437     -0.1051275793
 C     35.6122352945    -19.9774354134      0.4232649709
 C     35.6974290255    -24.5620362662     -1.2162687194
 N     37.0462991566    -24.5055372335     -1.2636287732
 O     35.0426848611    -25.5705980854     -1.5451544474
 C     35.3656722132    -19.5838900509      1.7419236890
 C     35.8902322584    -18.3632098322      2.1945470096
 C     36.6458744886    -17.4993515924      1.3992469510
 C     36.8332490564    -17.9250138130      0.0764133858
 C     36.3290331528    -19.1365267513     -0.3920919780
 O     37.1775023936    -16.4123857058      1.9962737171
 C     37.8173043513    -15.4004262476      1.2220828622
 H     23.5488836520    -18.0049654841     -0.9467437988
 H     23.0209165383    -16.8962855149      0.3128836895
 H     24.3498624185    -17.8477972007      1.9086082587
 H     23.4100008190    -19.1980373675      1.3829050955
 H     27.2701794967    -17.0398844094     -0.7047478264
 H     26.1079623190    -17.7803925243     -1.8509155206
 H     25.3596574728    -16.1250360802      0.6082387769
 H     24.9575227268    -15.8982831784     -1.0612325589
 H     28.2672935477    -19.4879635897      1.8782203814
 H     30.2560659779    -20.6081405462      1.6945392995
 H     29.6846438980    -20.9177720914     -2.5906155545
 H     27.5033456146    -19.7296953843     -2.3925960913
 H     30.4819720411    -23.0552827451     -1.5468633801
 H     31.6939636364    -22.3225453513     -2.5869578196
 H     32.2650442533    -24.2178618927     -0.2484179231
 H     32.6873496708    -24.4159650042     -1.9590997431
 H     37.5902697904    -23.6650006101     -0.9353662903
 H     37.4964913518    -25.3727139913     -1.4404452734
 H     34.7408408353    -20.1840894013      2.4245543537
 H     35.6536881456    -18.0926665241      3.2040123465
 H     37.3593021911    -17.3657705060     -0.6795616347
 H     36.5199987658    -19.3777942021     -1.4653586676
 H     37.0791457218    -15.0519857566      0.4582621838
 H     38.1514156275    -14.6191676068      1.8771906493
 H     38.6802934577    -15.8430588568      0.6594990206
 O     37.0485021642    -19.8255694921     11.5178999178
 H     37.5535189486    -20.6373618322     11.6944714341
 H     37.7430053512    -19.1893235603     11.4749986795
 O     24.9218148512    -26.1117050381      8.6506220941
 H     24.1315186405    -26.6073143600      8.7860731337
 H     25.6028633642    -26.7747867703      8.4720345947
 O     32.5598166243     -8.7618150320      5.8116537499
 H     33.1401647858     -9.1774824222      6.4223880869
 H     31.9772770950     -8.2304593748      6.3891657204
 O     38.8992196448    -29.6095336507      3.5466172199
 H     38.7274798944    -29.1854374114      2.7081718848
 H     38.3990764281    -29.1112155590      4.1942714028
 O     19.3813866807    -17.7341564687      1.1102638765
 H     18.4425640835    -17.7035178356      0.8977808545
 H     19.5467572030    -18.5002964558      1.6438357604
 O     42.2148277201    -13.2757192409     -1.2754125361
 H     41.8832332579    -13.0498597195     -2.1426284758
 H     42.8114367815    -12.5977427292     -0.9786028725
 O     28.3738349350    -31.5763481967     -3.8349056911
 H     27.6864460382    -32.2104890856     -3.8997517436
 H     28.2506079792    -31.2074147121     -2.9369219798
 O     26.2420836442     -9.9162355708     -6.2444356899
 H     25.4129057679     -9.6771681534     -5.8471288930
 H     26.1371240453     -9.4368408244     -7.0959213066
 O     40.2313999545    -23.0193206619     -8.8695496145
 H     41.1224070573    -22.9981674307     -9.2431201781
 H     40.3351527677    -23.4074595269     -8.0088245424
 O     26.5719163743    -21.8575982661    -11.7209552049
 H     27.0386056881    -22.1066006728    -12.5151731494
 H     25.8582003721    -22.4972286882    -11.7431403545
89
# ORCA AIMD Position Step 80, t=40.00 fs, E_Pot=-6055004.28505472 kJ mol^-1, Unit is Angstrom
 C     23.9016519027    -17.5293984716     -0.0414194885
 C     24.2413475890    -18.4146419040      1.1077542049
 C     25.5102044582    -19.2387253118      0.9179040728
 N     26.4704317209    -18.8255677852      0.0022352533
 C     26.2851010356    -17.5730068517     -0.8051301369
 C     25.1024514130    -16.6640724947     -0.3402239621
 C     27.7058817866    -19.5209375071     -0.2043551435
 C     28.5189990234    -19.8124349744      0.8404373919
 C     29.7338855761    -20.4828189706      0.7426506639
 C     30.2099352352    -20.8159021025     -0.5139708134
 C     29.3352000283    -20.5898937418     -1.6192005513
 C     28.1023261350    -19.9099845515     -1.4750016327
 N     31.4288015103    -21.4835380941     -0.6808653406
 C     31.4747584705    -22.6504387311     -1.5671178476
 C     32.5488569528    -23.6625025840     -1.1142931499
 C     33.8063368115    -22.9308904331     -0.8397775919
 C     33.7903830563    -21.6177807890     -0.4160162191
 C     32.6067725275    -20.8208833067     -0.2099861143
 O     25.7294762468    -20.2377575583      1.6151837256
 O     32.5653418609    -19.6702308498      0.2466402442
 C     35.1497472168    -23.3057510133     -0.7854576799
 N     35.9029690781    -22.2724393500     -0.3797116182
 N     35.0787983156    -21.2386540267     -0.1055155250
 C     35.6115351819    -19.9574145315      0.4193337037
 C     35.7055870750    -24.5609244869     -1.2134045528
 N     37.0579847276    -24.5115583230     -1.2682802405
 O     35.0485619774    -25.5719495131     -1.5458565979
 C     35.3519574909    -19.5763775291      1.7515173603
 C     35.8853026740    -18.3543811357      2.1765995020
 C     36.6531060405    -17.4979478884      1.3736888918
 C     36.8215267219    -17.9185094980      0.0617658431
 C     36.3246317202    -19.1275780996     -0.4118813701
 O     37.1736034970    -16.3780383083      2.0105088803
 C     37.7647828298    -15.4145995144      1.2194535946
 H     23.4572221823    -18.0574367807     -0.9253919012
 H     23.1418090715    -16.8345603800      0.2651864497
 H     24.3417104098    -17.7501819060      2.0796800995
 H     23.4469671613    -19.0535198300      1.3475599044
 H     27.1872902349    -17.0032552253     -0.7131210265
 H     26.0617560414    -17.7875478021     -1.8940956355
 H     25.4261724709    -16.1650947242      0.5755767275
 H     24.8862606863    -15.7926960148     -1.0151265627
 H     28.2002439046    -19.6004688404      1.8289548439
 H     30.2731622577    -20.6721721825      1.6946673869
 H     29.6256937985    -20.9102463279     -2.6376847322
 H     27.4379806869    -19.7266922381     -2.2879922523
 H     30.4150950836    -22.9884378773     -1.5338339028
 H     31.6826667769    -22.2711796177     -2.6120189489
 H     32.2532647186    -24.2019956640     -0.1837409468
 H     32.7058700713    -24.3358825331     -1.9151713361
 H     37.6065746282    -23.7492769347     -0.9563319725
 H     37.5154465104    -25.3976248598     -1.4413377233
 H     34.7441026391    -20.1855245479      2.3845553052
 H     35.7337648278    -18.1005816646      3.2401499074
 H     37.3709429790    -17.3092029126     -0.6599148538
 H     36.5154883462    -19.4021030689     -1.4109625550
 H     37.0407193502    -15.0554537586      0.4962073651
 H     38.1432451099    -14.6282291112      1.9146270678
 H     38.6220550094    -15.8032064912      0.6779771172
 O     37.0440921416    -19.8251303884     11.5395961535
 H     37.4571500835    -20.6864190105     11.5756986275
 H     37.7990812943    -19.1815431739     11.5672664577
 O     24.9418904073    -26.1246905598      8.6221255062
 H     24.0946161625    -26.6400772116      8.6862374014
 H     25.6087727799    -26.7827344827      8.4152653423
 O     32.5654731994     -8.7466457248      5.7404255953
 H     33.2205947378     -9.1681406938      6.3463296321
 H     32.0334219634     -8.2151483704      6.3020082374
 O     38.8914268881    -29.6198587366      3.5201332288
 H     38.7224912990    -29.2110991117      2.6609030792
 H     38.3146416034    -29.1469948033      4.1302869965
 O     19.4386820728    -17.7468904924      1.1002409788
 H     18.5185066877    -17.6132272158      0.8984709408
 H     19.4795544511    -18.5808371200      1.5976269345
 O     42.2032433942    -13.3059202688     -1.2547543226
 H     41.9602939805    -13.2147428273     -2.1982035449
 H     42.8790721744    -12.6020943462     -1.1354729787
 O     28.3744696322    -31.5639693422     -3.8137481925
 H     27.6649495873    -32.2383565088     -3.9554982227
 H     28.2458241243    -31.2680363200     -2.9339890826
 O     26.2123881155     -9.8932313468     -6.2115110582
 H     25.2853972554     -9.7495824796     -5.7822007335
 H     26.2153900954     -9.3255527500     -6.9914720798
 O     40.2514124611    -23.0258699396     -8.8385715744
 H     41.1278586938    -23.0331201647     -9.2065083691
 H     40.3720797045    -23.2734925195     -7.9032689299
 O     26.5998055755    -21.8395782454    -11.7409207418
 H     27.0521091855    -22.1411075769    -12.5575881833
 H     25.8243364416    -22.4269709423    -11.6670270306
89
# ORCA AIMD Position Step 90, t=45.00 fs, E_Pot=-6055009.73974424 kJ mol^-1, Unit is Angstrom
 C     23.8956417037    -17.5191599577     -0.0353126657
 C     24.2664345491    -18.3684184479      1.1405485347
 C     25.5126740481    -19.2624095340      0.9496178700
 N     26.4735149079    -18.8229456927     -0.0156961170
 C     26.2993139631    -17.6014501762     -0.7992582724
 C     25.0990832046    -16.6667592792     -0.3474282925
 C     27.6958377481    -19.5241118623     -0.2016277582
 C     28.5093856952    -19.8202984658      0.8607355584
 C     29.7089075284    -20.4759458830      0.7252452224
 C     30.1700496743    -20.8303280084     -0.5219906566
 C     29.2889002413    -20.5804758327     -1.6233388173
 C     28.1141691601    -19.9195580835     -1.4666000014
 N     31.4393668096    -21.4954236735     -0.6798518367
 C     31.4739506834    -22.6567430884     -1.5471257238
 C     32.5479957875    -23.6614563050     -1.0988726496
 C     33.8188217158    -22.9174376326     -0.8378385223
 C     33.7984477185    -21.6350098901     -0.3877374942
 C     32.6128946751    -20.8112663357     -0.2351099747
 O     25.7527521944    -20.2029231513      1.6495638214
 O     32.5422939047    -19.6889017267      0.2296762608
 C     35.1429004526    -23.2778251139     -0.7698328307
 N     35.8953978185    -22.2585125468     -0.3604903845
 N     35.0692593414    -21.2421817382     -0.1101039349
 C     35.5924939035    -19.9577457228      0.4193020534
 C     35.7228983350    -24.5853947643     -1.2206212830
 N     37.0771430938    -24.5391961061     -1.2786486856
 O     35.0615171725    -25.5540660009     -1.5387077470
 C     35.3512088599    -19.5550810250      1.7389336963
 C     35.8738987084    -18.3549443714      2.1818804847
 C     36.6530231079    -17.5080531089      1.3616847485
 C     36.8250826889    -17.8932792510      0.0331105092
 C     36.3200983958    -19.1170186090     -0.4244272984
 O     37.1534110918    -16.3729600581      2.0285677261
 C     37.7248510260    -15.4147330764      1.2059766202
 H     23.4966347757    -18.1065951797     -0.8515574745
 H     23.1219183235    -16.7645723613      0.2448702375
 H     24.3975314667    -17.8042434064      2.0419889528
 H     23.3947356965    -19.0865796134      1.3382805801
 H     27.2080401892    -16.9431104073     -0.7850907731
 H     26.1165235310    -17.8474851069     -1.8284500421
 H     25.4663485786    -16.2280410659      0.6008041321
 H     24.8761745784    -15.8616102428     -1.0242323668
 H     28.0695284036    -19.6510705989      1.8650331549
 H     30.3114511034    -20.7483250386      1.5570273477
 H     29.5724894406    -20.8735182228     -2.6086625420
 H     27.3874489041    -19.7466856638     -2.2854889627
 H     30.4701960396    -23.0583135640     -1.5680776684
 H     31.6861692349    -22.3262542100     -2.5673979546
 H     32.2186890201    -24.1823296741     -0.2095562689
 H     32.7290518069    -24.4158174707     -1.9174822394
 H     37.6075719644    -23.7407907050     -0.9306644379
 H     37.5752715524    -25.4244460478     -1.4638987303
 H     34.7390787235    -20.2037462004      2.3918703314
 H     35.8197838263    -18.0707203722      3.2112658435
 H     37.3907654901    -17.2420474257     -0.6120035856
 H     36.5164323612    -19.4632536713     -1.4735971204
 H     37.0008610711    -14.9433849810      0.5066388869
 H     38.0603213605    -14.6532507614      1.8723428635
 H     38.6197892956    -15.7814850178      0.6635042336
 O     37.0435283292    -19.8201528558     11.5620724970
 H     37.3703678891    -20.7254954965     11.4552163117
 H     37.7823000238    -19.2564789278     11.6555521539
 O     24.9561752661    -26.1404893097      8.5936120794
 H     24.1590553625    -26.6237204426      8.5765005119
 H     25.6111406051    -26.8004597326      8.3563988486
 O     32.5776221073     -8.7364852148      5.6671323164
 H     33.2428151230     -9.1187271581      6.2213101528
 H     32.0494942144     -8.1547726284      6.2693899574
 O     38.8834864623    -29.6300292301      3.4929272828
 H     38.7127561915    -29.2404898867      2.6314883983
 H     38.2318608285    -29.1862247999      4.0484825743
 O     19.5016885460    -17.7618013042      1.0915939799
 H     18.5636449817    -17.5325007668      0.9059178357
 H     19.3776723682    -18.6215582600      1.5180632629
 O     42.1953803376    -13.3315514495     -1.2393054699
 H     42.0420205020    -13.3968792510     -2.1768015266
 H     42.8799404313    -12.6762274090     -1.2837391763
 O     28.3721808473    -31.5566650357     -3.7987043956
 H     27.7079829623    -32.2014048798     -3.9919558500
 H     28.2224730164    -31.3106698566     -2.8476045756
 O     26.1713812581     -9.8686584228     -6.1723937340
 H     25.3545828490     -9.8225040606     -5.8194359170
 H     26.2654034884     -9.2301736623     -6.8685697664
 O     40.2691167381    -23.0333645051     -8.8028147836
 H     41.1728042184    -23.0749318180     -9.1726712842
 H     40.4136862969    -23.1176943505     -7.8576701535
 O     26.6271817140    -21.8244148792    -11.7642336393
 H     27.0320647690    -22.1568570390    -12.5434424125
 H     25.8410306039    -22.3233457158    -11.6001238134
89
# ORCA AIMD Position Step 100, t=50.00 fs, E_Pot=-6055033.43063055 kJ mol^-1, Unit is Angstrom
 C     23.8828617247    -17.4788775028     -0.0197475988
 C     24.2742741023    -18.3625216359      1.1656823113
 C     25.5348161204    -19.2494751154      0.9627759846
 N     26.4544990027    -18.8154562461     -0.0207314775
 C     26.2993319430    -17.5997228488     -0.8042835788
 C     25.1270381255    -16.6969379001     -0.3474824649
 C     27.6826347462    -19.5242748251     -0.2026095802
 C     28.4870917790    -19.8297168217      0.9153422944
 C     29.6923315665    -20.4709782883      0.7078340873
 C     30.1201253979    -20.8452449516     -0.5543672027
 C     29.2781024655    -20.5804780407     -1.6256392601
 C     28.0967671625    -19.9218130389     -1.4591472290
 N     31.4464274808    -21.4890752347     -0.6656778167
 C     31.4824960839    -22.6647639261     -1.5336853449
 C     32.5465812651    -23.6620332637     -1.1034330030
 C     33.8070002386    -22.9146900200     -0.8282802774
 C     33.7944084494    -21.6228842516     -0.3537744217
 C     32.5828593425    -20.8094586976     -0.2699614928
 O     25.7723886485    -20.1855012197      1.6953572908
 O     32.5260048707    -19.7052181060      0.2162327987
 C     35.1442738873    -23.2666722305     -0.7659020728
 N     35.9077936999    -22.2390259994     -0.3358989438
 N     35.0714033300    -21.2354827001     -0.1074906330
 C     35.5675351321    -19.9621838066      0.4091658732
 C     35.7537450310    -24.5912918652     -1.2219448819
 N     37.1087538902    -24.5781751180     -1.2914216777
 O     35.0679010359    -25.5388344487     -1.5313330968
 C     35.3475239069    -19.5412244871      1.7190142409
 C     35.8741195761    -18.3531737425      2.1911299251
 C     36.6397726041    -17.5249952055      1.3694845279
 C     36.8361839074    -17.8603167575      0.0061732710
 C     36.3153160091    -19.1145921334     -0.4426930531
 O     37.1170208586    -16.3997206218      2.0346582602
 C     37.6965429624    -15.3959134231      1.1801224500
 H     23.5860082197    -18.1665727613     -0.8445414886
 H     23.0417670815    -16.8312046026      0.2366887285
 H     24.5098620612    -17.7797823000      2.1098059381
 H     23.5062135259    -19.0548432602      1.3651502490
 H     27.2277841462    -17.0144822907     -0.8265721297
 H     26.1826847368    -17.9466367065     -1.8710527374
 H     25.4275127362    -16.2411082351      0.6008608232
 H     24.9426545055    -15.9361053008     -1.1446543286
 H     28.0466639326    -19.6680843110      1.8610801326
 H     30.3695455579    -20.7997888200      1.5241192787
 H     29.5681046953    -20.8732493660     -2.6517285220
 H     27.4607556063    -19.7981696934     -2.3016658709
 H     30.5194223141    -23.2182428602     -1.5753297348
 H     31.7246878356    -22.4019718646     -2.5819210446
 H     32.1924063075    -24.2022022931     -0.1944546073
 H     32.7033043317    -24.4474338689     -1.8138920249
 H     37.5571166136    -23.7396195141     -0.8978115359
 H     37.6073422535    -25.3913841427     -1.4830246616
 H     34.7886488141    -20.1597300984      2.3819987456
 H     35.8242939008    -18.0315865653      3.2461982747
 H     37.4210380800    -17.1996605249     -0.6390123852
 H     36.4916020641    -19.4480335732     -1.4255443998
 H     36.9820228552    -14.8964054423      0.5157873504
 H     38.0208751412    -14.5776598819      1.8787105278
 H     38.5709409787    -15.7687238093      0.6353477457
 O     37.0338737913    -19.8193886515     11.5846280947
 H     37.3220571034    -20.7042385809     11.3377826990
 H     37.8689509549    -19.3256089915     11.7467008077
 O     24.9756488706    -26.1547175121      8.5644423129
 H     24.1217348360    -26.6444980800      8.4688098943
 H     25.6392350072    -26.8116267370      8.2927197654
 O     32.5843841407     -8.7211175490      5.5925062293
 H     33.2952890319     -9.0857670768      6.1373155401
 H     32.1259024897     -8.1545536849      6.1878142417
 O     38.8730509305    -29.6382132699      3.4651563118
 H     38.7209799262    -29.2850243234      2.5836980226
 H     38.1649416202    -29.2468446301      3.9817919516
 O     19.5559458425    -17.7804771995      1.0835487858
 H     18.7021231931    -17.4161550731      0.9010326679
 H     19.3479552894    -18.6424983422      1.4359663527
 O     42.1897175489    -13.3546043107     -1.2310171264
 H     42.0383462671    -13.6681504289     -2.1542085143
 H     42.9282347421    -12.7176958800     -1.3166288948
 O     28.3724084400    -31.5444775016     -3.7770909956
 H     27.7056997608    -32.2010453500     -4.0208031172
 H     28.2040156405    -31.3918132385     -2.8669791392
 O     26.1509995786     -9.8522795143     -6.1350357836
 H     25.1575329003     -9.8228883557     -5.8099707120
 H     26.2424376464     -9.0681862101     -6.7488801625
 O     40.2913416448    -23.0407810092     -8.7664339719
 H     41.1658252127    -23.1148621616     -9.1267247860
 H     40.4435764225    -22.9650723417     -7.8200579495
 O     26.6578781237    -21.8008885587    -11.7813327161
 H     26.9969797182    -22.2408158806    -12.5936798238
 H     25.8295375749    -22.2770079291    -11.5736879403
89
# ORCA AIMD Position Step 110, t=55.00 fs, E_Pot=-6055011.04483159 kJ mol^-1, Unit is Angstrom
 C     23.8786560103    -17.4538093400      0.0001863715
 C     24.2953464884    -18.3664636193      1.1868497611
 C     25.5673306689    -19.2057014867      0.9661663591
 N     26.4274248498    -18.8161184881     -0.0075087578
 C     26.2861567342    -17.5966140401     -0.8309700492
 C     25.1666841461    -16.7281429003     -0.3582539127
 C     27.6695400062    -19.5240286766     -0.1860384057
 C     28.4574330540    -19.8425170819      0.9535891843
 C     29.6866012963    -20.4759894455      0.7061371626
 C     30.0902873115    -20.8578142921     -0.5844779236
 C     29.2964323862    -20.5935654870     -1.6492904584
 C     28.0637313134    -19.9212460079     -1.4499604594
 N     31.4173850381    -21.4841529650     -0.6612505218
 C     31.4978904234    -22.6885394310     -1.5365579754
 C     32.5462086318    -23.6633684281     -1.0951106503
 C     33.7899575597    -22.9192290062     -0.8058084849
 C     33.7738951934    -21.6004001475     -0.3316183558
 C     32.5419252084    -20.8170784992     -0.2975877239
 O     25.7882522294    -20.1751048071      1.7426520069
 O     32.5136217348    -19.7039288706      0.2082751263
 C     35.1680716599    -23.2737721505     -0.7712301158
 N     35.9295615218    -22.2272636401     -0.3153859711
 N     35.0768396300    -21.2148761397     -0.0934640808
 C     35.5532417810    -19.9495733704      0.3848275015
 C     35.7880497870    -24.5746777302     -1.2159847112
 N     37.1372626864    -24.5989470642     -1.2970711365
 O     35.0647215530    -25.5318686530     -1.5260730253
 C     35.3425211155    -19.5334868047      1.7007522783
 C     35.8824390109    -18.3527126823      2.2034523775
 C     36.6234741475    -17.5359071190      1.3744538379
 C     36.8398805546    -17.8443585431     -0.0059299495
 C     36.3089088171    -19.1034494039     -0.4428157219
 O     37.0779843477    -16.4326687371      2.0186469603
 C     37.6730512152    -15.3616156589      1.1724735425
 H     23.6643217043    -18.1384753171     -0.8289627496
 H     22.9471106443    -16.9125257241      0.2182437654
 H     24.5519467582    -17.7649938864      2.1134266866
 H     23.5010882702    -19.1181133056      1.5055695992
 H     27.2714757483    -17.1114025489     -0.7918922477
 H     26.1755574976    -17.9358628943     -1.8600695696
 H     25.4158586206    -16.1422680812      0.5457552054
 H     25.0603483693    -16.0299075237     -1.1788796644
 H     28.0884916946    -19.6349994954      1.9860568500
 H     30.3241375014    -20.7541308525      1.5064923273
 H     29.5680796177    -20.8731116368     -2.6395308801
 H     27.4839268585    -19.7992438246     -2.3891681528
 H     30.5723907489    -23.2466605623     -1.5176913079
 H     31.7332313760    -22.4109053746     -2.5922354636
 H     32.2282710478    -24.1652199425     -0.1795693693
 H     32.6806449499    -24.5033731912     -1.8159982760
 H     37.5690191201    -23.8065821740     -0.9014178452
 H     37.7007247734    -25.4718533108     -1.5246823725
 H     34.7833871350    -20.1665996734      2.4171078114
 H     35.7445123512    -18.0582747548      3.2213375098
 H     37.4084708677    -17.2299795468     -0.6875470609
 H     36.4911210084    -19.4295533510     -1.5058469716
 H     36.9167648852    -14.9605139280      0.4859436731
 H     37.9990287728    -14.6042323435      1.8362333600
 H     38.5101462521    -15.7621715900      0.5980641426
 O     37.0278334067    -19.8161430276     11.6077565361
 H     37.2767073052    -20.6613743601     11.2270607900
 H     37.8929375774    -19.4564252948     11.8290596065
 O     24.9918906840    -26.1749777633      8.5335120079
 H     24.1602139931    -26.6081832906      8.3656197597
 H     25.6490231326    -26.7896472057      8.2396171725
 O     32.5944133041     -8.7083130150      5.5150531610
 H     33.3477985518     -9.0547423811      6.0329037272
 H     32.1553894354     -8.1058175203      6.1430889617
 O     38.8616997733    -29.6455551397      3.4363909322
 H     38.7386211293    -29.3398560063      2.5288263320
 H     38.0974350850    -29.3153580644      3.9259521024
 O     19.6126779190    -17.7998182025      1.0756064220
 H     18.8166297589    -17.2644153622      0.8803647472
 H     19.3300069919    -18.6920796176      1.3624732803
 O     42.1850257391    -13.3777792006     -1.2307258062
 H     42.0584704745    -13.9058530394     -2.0076121822
 H     42.9342854805    -12.8060989795     -1.3439190733
 O     28.3722787997    -31.5340061137     -3.7595121488
 H     27.7143553528    -32.1943192952     -4.0619499724
 H     28.1797742414    -31.4497339480     -2.8040149689
 O     26.1158602052     -9.8288796004     -6.0953723911
 H     25.2220197037     -9.8102944498     -5.9110360467
 H     26.1805764796     -9.0217557567     -6.5400364085
 O     40.3121961410    -23.0485312921     -8.7268744415
 H     41.1992493550    -23.1595476472     -9.1054024999
 H     40.4627657096    -22.8024800904     -7.7945576773
 O     26.6884763215    -21.7803698401    -11.8022938389
 H     26.9204803109    -22.2946557432    -12.5690492458
 H     25.8702690857    -22.2059793745    -11.5668855309
89
# ORCA AIMD Position Step 120, t=60.00 fs, E_Pot=-6055022.70977353 kJ mol^-1, Unit is Angstrom
 C     23.8910037610    -17.4661891234      0.0220069941
 C     24.3132697787    -18.3793030611      1.2120675286
 C     25.5919029899    -19.1801577976      1.0022709136
 N     26.4127330485    -18.8236515300      0.0046823830
 C     26.2794417971    -17.6167358569     -0.8479043110
 C     25.1948802728    -16.7283143932     -0.3680167503
 C     27.6489336603    -19.5276738003     -0.1526207621
 C     28.4386187644    -19.8605115864      0.9728975319
 C     29.6635360018    -20.4798436031      0.7082867771
 C     30.0928604054    -20.8666871415     -0.5822773612
 C     29.2956532431    -20.5975943436     -1.6818087191
 C     28.0446378918    -19.9317614650     -1.4552694907
 N     31.3587119476    -21.4981725931     -0.6800410035
 C     31.5125147260    -22.7116521388     -1.5495719914
 C     32.5555796454    -23.6750143392     -1.0794125079
 C     33.8032387473    -22.9196209835     -0.7714265894
 C     33.7528685937    -21.5979160877     -0.3334350321
 C     32.5069327060    -20.8105525016     -0.2970223913
 O     25.7989063000    -20.1441378503      1.7699205725
 O     32.5010953689    -19.6909726383      0.2000399517
 C     35.1993375362    -23.2722464953     -0.7725651498
 N     35.9436747576    -22.2250004094     -0.3053736409
 N     35.0733168630    -21.1968121794     -0.0767839678
 C     35.5525200300    -19.9161288444      0.3619842250
 C     35.8035186832    -24.5693868631     -1.2137397776
 N     37.1704820340    -24.6198980139     -1.3018891591
 O     35.0657493201    -25.5165809533     -1.5180065389
 C     35.3337885717    -19.5346298230      1.6976937505
 C     35.8824457450    -18.3741553893      2.2026125577
 C     36.6142705188    -17.5340950128      1.3579347006
 C     36.8244968830    -17.8622599530      0.0039007857
 C     36.3078607198    -19.0831016986     -0.4531763382
 O     37.0503688590    -16.4446551590      1.9870784913
 C     37.6350745136    -15.3528943347      1.1697541750
 H     23.6661308796    -18.1080060463     -0.8413525825
 H     22.9630690838    -16.8979445068      0.1988612150
 H     24.5269960700    -17.7460336631      2.0517228196
 H     23.5819175099    -19.0616457367      1.5897094529
 H     27.2767305200    -17.1286204692     -0.7526657811
 H     26.0832407610    -17.8766522710     -1.9067876235
 H     25.5057277085    -16.0455078788      0.4319989170
 H     25.0860092553    -16.0221043875     -1.2167061851
 H     28.2045245701    -19.6024540063      1.9712481660
 H     30.3195789194    -20.6934772842      1.5834010239
 H     29.6000824068    -20.8963351582     -2.7057267303
 H     27.4681314088    -19.7332768955     -2.3292829103
 H     30.5133950037    -23.1804055333     -1.4685472672
 H     31.6867006801    -22.3774522544     -2.5614418736
 H     32.2546892475    -24.1298215832     -0.1162178895
 H     32.6829355622    -24.4563409047     -1.8196157494
 H     37.7308020984    -23.8256047872     -0.8912936138
 H     37.6325240869    -25.4204808707     -1.5157757884
 H     34.7824439189    -20.1603106174      2.3596425328
 H     35.6427489130    -18.0844212293      3.2406309756
 H     37.3802021756    -17.2619383676     -0.7180265724
 H     36.4686931165    -19.3560408825     -1.4551316341
 H     36.8421971282    -15.0408168830      0.4670449784
 H     38.0108600945    -14.5711234890      1.8849627704
 H     38.4789895728    -15.7513444240      0.5721380412
 O     37.0263414697    -19.8154721309     11.6313244392
 H     37.1817348171    -20.6223083049     11.1047287622
 H     37.8921353235    -19.5432084218     11.9226819333
 O     25.0080713487    -26.1915647765      8.5036503788
 H     24.1740053663    -26.5965647047      8.2559392597
 H     25.6903597041    -26.8064416393      8.1639369752
 O     32.6063771035     -8.6943909627      5.4405074871
 H     33.3621791486     -9.0146302328      5.8919697888
 H     32.1969880034     -8.0783277530      6.0618499895
 O     38.8507649725    -29.6534378746      3.4075901752
 H     38.7359565061    -29.3914120623      2.4962003336
 H     38.0381245660    -29.3830810682      3.8370048339
 O     19.6721501632    -17.8189253931      1.0669431393
 H     18.9597034733    -17.2125418621      0.8950985972
 H     19.2672270335    -18.6483213354      1.2591147954
 O     42.1736733626    -13.4034922342     -1.2227628046
 H     42.1469865689    -14.1054565648     -1.9012722783
 H     42.9747483270    -12.9069602787     -1.4501553046
 O     28.3682554600    -31.5257208409     -3.7390900205
 H     27.7653929429    -32.1472941253     -4.0896494697
 H     28.1744229123    -31.5110254420     -2.7939656771
 O     26.0861641638     -9.8076475269     -6.0563174413
 H     25.0867683345     -9.8702998691     -5.9162222428
 H     26.2210693075     -8.8599928751     -6.4030055369
 O     40.3345316118    -23.0552664644     -8.6841637919
 H     41.2089468301    -23.1976243607     -9.0527553251
 H     40.4897288017    -22.6627212966     -7.8374394408
 O     26.7176331923    -21.7623182011    -11.8251267318
 H     26.9158842114    -22.3284883618    -12.5844303142
 H     25.8707165687    -22.1091065195    -11.4960602792
89
# ORCA AIMD Position Step 130, t=65.00 fs, E_Pot=-6055000.23436298 kJ mol^-1, Unit is Angstrom
 C     23.9247542197    -17.5032776584      0.0375287558
 C     24.3326381324    -18.3785474054      1.2232320840
 C     25.5922553947    -19.1740170796      1.0668796730
 N     26.4180611319    -18.8340663344      0.0037935030
 C     26.2816818712    -17.6521521319     -0.8518337821
 C     25.2002248386    -16.6904980082     -0.3814036628
 C     27.6303714784    -19.5461322523     -0.1282528225
 C     28.4387402731    -19.8802725545      0.9575693907
 C     29.6402136400    -20.4876385338      0.7200720436
 C     30.0944095448    -20.8678501830     -0.5626560181
 C     29.2713947483    -20.5916132403     -1.7077937695
 C     28.0508715112    -19.9500095275     -1.4494451420
 N     31.3188594018    -21.5201783864     -0.7065062050
 C     31.4962720988    -22.7218863842     -1.5528920306
 C     32.5742545728    -23.6833779559     -1.0494191448
 C     33.8436912439    -22.9200303062     -0.7387844900
 C     33.7453180538    -21.6114310325     -0.3514599942
 C     32.4758131760    -20.7985734385     -0.2728165771
 O     25.8100693659    -20.1001400559      1.7855423868
 O     32.4849815558    -19.6729136318      0.1889483738
 C     35.2233804346    -23.2522110159     -0.7617330097
 N     35.9444408147    -22.2200407215     -0.3050740694
 N     35.0593973698    -21.1926509565     -0.0677392973
 C     35.5556583263    -19.8804863534      0.3539479481
 C     35.8107213342    -24.5709731302     -1.2127103154
 N     37.1980972674    -24.6120716931     -1.2951964839
 O     35.0747214775    -25.4927470006     -1.5075605969
 C     35.3299323182    -19.5401118183      1.6901778282
 C     35.8698441165    -18.4041743120      2.1964968808
 C     36.6032728361    -17.5349087290      1.3349812850
 C     36.8032379039    -17.8920821627      0.0221663227
 C     36.3015254614    -19.0624914243     -0.4607623820
 O     37.0389212676    -16.4271082848      1.9522641671
 C     37.5905600450    -15.3684966443      1.1721714845
 H     23.6174991586    -18.1111930088     -0.8465183651
 H     23.1037163002    -16.8119790207      0.2283002415
 H     24.5347080973    -17.6275625720      2.1224759644
 H     23.5588309693    -19.0751171837      1.6347318178
 H     27.2121266126    -17.1106669417     -0.8082915139
 H     26.0312744128    -17.8739187178     -1.9098615581
 H     25.6339776467    -16.0276172959      0.3831943694
 H     24.9843468700    -16.0174122396     -1.2255132738
 H     28.2435658101    -19.5416749522      1.9984825106
 H     30.2791458527    -20.6288855440      1.5525149051
 H     29.5933202667    -20.8773749104     -2.6866186950
 H     27.3598973901    -19.6289204029     -2.2648604622
 H     30.4896387730    -23.1359826196     -1.5159915056
 H     31.6673736183    -22.3674558155     -2.6187297968
 H     32.2419917976    -24.1391786306     -0.1105427424
 H     32.7359604537    -24.4426279042     -1.8279296889
 H     37.7992258979    -23.9432662770     -0.9493410988
 H     37.6050751983    -25.5765699458     -1.5530622045
 H     34.7137898096    -20.2193722986      2.3116505541
 H     35.6199479164    -18.0966087856      3.1867579139
 H     37.3392552542    -17.2674036656     -0.6711704162
 H     36.4702068526    -19.3296553298     -1.5359796437
 H     36.8143122679    -15.0249730038      0.4968054937
 H     37.9155546042    -14.6201666029      1.8468090076
 H     38.4418438653    -15.7094230511      0.5960385334
 O     37.0227091808    -19.8177137483     11.6523144821
 H     37.0897507351    -20.5238239452     11.0235331445
 H     37.9201880385    -19.6437709456     12.0224005418
 O     25.0276151312    -26.2103235370      8.4730686397
 H     24.1880653629    -26.5901710854      8.1305364168
 H     25.6837018360    -26.7884170666      8.1038511829
 O     32.6135842569     -8.6779036982      5.3618551366
 H     33.4500836822     -9.0018966784      5.7941096279
 H     32.2450203654     -8.0588434345      5.9770400147
 O     38.8405415145    -29.6621407761      3.3795917056
 H     38.7250789766    -29.4366877243      2.4428356004
 H     37.9704491082    -29.4483058902      3.7450575101
 O     19.7386003070    -17.8363560997      1.0576582781
 H     19.0602291811    -17.1614095001      0.9095272843
 H     19.1625256962    -18.6327495841      1.1601279579
 O     42.1645017414    -13.4323237088     -1.2196492972
 H     42.2342846833    -14.2573439917     -1.7236830886
 H     42.9791440592    -13.0202039914     -1.5480504880
 O     28.3682610067    -31.5132357695     -3.7155572021
 H     27.7526339644    -32.1667870540     -4.1549139655
 H     28.1684005286    -31.5703405958     -2.7903382739
 O     26.0490589305     -9.7739883358     -6.0190800857
 H     25.0944030770     -9.9289094591     -5.9553766596
 H     26.2257551842     -8.8889227005     -6.1893873860
 O     40.3554796233    -23.0633528223     -8.6428490777
 H     41.2313389679    -23.2332336692     -8.9936699776
 H     40.5332705564    -22.5041482652     -7.8522478827
 O     26.7447505761    -21.7461131415    -11.8488298821
 H     26.9097583259    -22.3522134473    -12.5841266304
 H     25.9134205763    -21.9866366098    -11.4325648380
89
# ORCA AIMD Position Step 140, t=70.00 fs, E_Pot=-6054999.82816965 kJ mol^-1, Unit is Angstrom
 C     23.9791143926    -17.5325576542      0.0431630378
 C     24.3424462093    -18.3483512664      1.2576653953
 C     25.5779864343    -19.1459079824      1.1036991220
 N     26.4286486050    -18.8459630438      0.0058711431
 C     26.2736230414    -17.6771146836     -0.8559637639
 C     25.1950009872    -16.6563824163     -0.3970855415
 C     27.6266473974    -19.5836667367     -0.1325183155
 C     28.4369267142    -19.8830593500      0.9412092785
 C     29.6331845054    -20.5051828940      0.7189613033
 C     30.0633851508    -20.8626432832     -0.5564604558
 C     29.2435100642    -20.5819204825     -1.6919449751
 C     28.0470178350    -19.9549134822     -1.4323158932
 N     31.3222684041    -21.5277812743     -0.7188457349
 C     31.4650287040    -22.7157773636     -1.5623009020
 C     32.5970538547    -23.6820987309     -1.0221441729
 C     33.8729729901    -22.9327646010     -0.7206941198
 C     33.7504445439    -21.6137845587     -0.3666115455
 C     32.4542034909    -20.8069530712     -0.2468670131
 O     25.8290465112    -20.0776705282      1.8201192513
 O     32.4626775510    -19.6537655040      0.1768181807
 C     35.2390916522    -23.2334959225     -0.7428252476
 N     35.9398550694    -22.1960654236     -0.3086137025
 N     35.0439786765    -21.1949836416     -0.0699029391
 C     35.5497498976    -19.8736467422      0.3529270185
 C     35.8319245285    -24.5481138420     -1.2011161763
 N     37.2092065616    -24.6332661472     -1.2981479881
 O     35.0854539030    -25.4729732447     -1.4990131001
 C     35.3190581612    -19.5641184938      1.6780365705
 C     35.8585344077    -18.4155668124      2.1801448901
 C     36.5795018494    -17.5492248461      1.3374076459
 C     36.7936796679    -17.9019612452      0.0345956247
 C     36.2849145611    -19.0671706030     -0.4915197031
 O     37.0324961026    -16.4017149841      1.9242219462
 C     37.5408885155    -15.3971132715      1.1651507506
 H     23.5851095404    -18.1029215793     -0.7838225776
 H     23.2237325434    -16.7648193835      0.3331442416
 H     24.5066729796    -17.6914166563      2.0175060534
 H     23.5583910653    -19.0399524046      1.5900355675
 H     27.2513581468    -17.0999363718     -0.9338469887
 H     26.0421673139    -17.9832956133     -1.8716586332
 H     25.6503470036    -16.0755237416      0.4197959905
 H     24.8476279625    -16.0334199578     -1.2237430485
 H     28.2145996032    -19.5313011934      1.9108506833
 H     30.3278440881    -20.6281205221      1.5780367763
 H     29.5720939077    -20.8454274787     -2.7150846733
 H     27.3591975595    -19.6237752060     -2.1685301813
 H     30.4892642713    -23.2282902059     -1.6195022565
 H     31.6975436228    -22.4563452063     -2.5717589702
 H     32.2080402648    -24.2129538090     -0.1388836965
 H     32.7993397837    -24.4565370356     -1.7760372799
 H     37.8971384083    -23.9150237055     -0.9386308530
 H     37.4944958272    -25.5157119884     -1.5285836622
 H     34.6913658038    -20.2200096785      2.2294332900
 H     35.6534860521    -18.0687122915      3.2072637008
 H     37.3325486630    -17.2143802153     -0.6151083762
 H     36.4518263492    -19.3063015811     -1.5006236162
 H     36.7842626495    -14.9215013046      0.4846532358
 H     37.8142529812    -14.5753796773      1.8856563345
 H     38.4587534485    -15.6833320132      0.5898679960
 O     37.0187535139    -19.8146560817     11.6789566680
 H     37.0672041096    -20.4457100632     10.9385245604
 H     37.8820152964    -19.8085917072     12.0418818318
 O     25.0413581114    -26.2308963060      8.4401207282
 H     24.2521045646    -26.5429313174      8.0421649522
 H     25.7242404137    -26.7867556963      8.0338860455
 O     32.6276212041     -8.6658848109      5.2816671528
 H     33.4375488493     -8.9425496899      5.6567373053
 H     32.2890769703     -8.0102518930      5.9330369937
 O     38.8261330342    -29.6690681137      3.3485281147
 H     38.7460032655    -29.4984894095      2.4106721349
 H     37.9326022543    -29.5289214497      3.6706377989
 O     19.7954523915    -17.8588619385      1.0483000918
 H     19.2288552467    -17.0794882609      0.9260339792
 H     19.1655270712    -18.5698335845      1.0552226078
 O     42.1633863912    -13.4678690683     -1.2246920168
 H     42.2279125341    -14.3922608642     -1.4854249139
 H     42.9470255526    -13.0567578945     -1.5746364678
 O     28.3650222859    -31.5044184624     -3.6986460701
 H     27.8128183532    -32.1057562266     -4.1473220027
 H     28.1404394584    -31.6500997190     -2.7496408613
 O     26.0168855362     -9.7560540875     -5.9787474232
 H     25.0837642143     -9.8833336682     -5.9948656574
 H     26.1609490126     -8.7652838349     -6.0121944581
 O     40.3781410378    -23.0676242020     -8.5953456290
 H     41.2596429860    -23.2778910402     -8.9432112303
 H     40.5502685493    -22.3972806305     -7.9455739807
 O     26.7761590081    -21.7254355037    -11.8717782476
 H     26.8424626442    -22.3882046990    -12.5485893812
 H     25.9567041214    -21.9171392227    -11.4212291652
89
# ORCA AIMD Position Step 150, t=75.00 fs, E_Pot=-6054977.68741093 kJ mol^-1, Unit is Angstrom
 C     24.0310847556    -17.5204229915      0.0568764607
 C     24.3439849647    -18.3221878984      1.2749593373
 C     25.5804581920    -19.1162720309      1.1076475920
 N     26.4292727502    -18.8526243640      0.0257508493
 C     26.2728701034    -17.6737807896     -0.8709831599
 C     25.1901861233    -16.6656389202     -0.4121024326
 C     27.6282215344    -19.6260081404     -0.1546682870
 C     28.4368279846    -19.8771478927      0.9246339747
 C     29.6495250271    -20.5285284776      0.7218231580
 C     30.0249172953    -20.8655020141     -0.5712519748
 C     29.2293504799    -20.5783192260     -1.6534429480
 C     28.0260979325    -19.9473556378     -1.4046375110
 N     31.3418254458    -21.5120475969     -0.7145265520
 C     31.4480363444    -22.7242860969     -1.5620443400
 C     32.6092992624    -23.6799736310     -1.0064780787
 C     33.8665507161    -22.9495023095     -0.7148003631
 C     33.7571747429    -21.6023576629     -0.3684591126
 C     32.4529106349    -20.8281248940     -0.2324699856
 O     25.8503737957    -20.0695960795      1.8709398581
 O     32.4340352283    -19.6475269102      0.1629835272
 C     35.2516164674    -23.2322164190     -0.7225685190
 N     35.9385568224    -22.1506202631     -0.3125355968
 N     35.0347253535    -21.1912441184     -0.0826449289
 C     35.5327037437    -19.9042144255      0.3419829314
 C     35.8579195135    -24.5071040637     -1.1801715058
 N     37.2055259538    -24.6396351471     -1.2954805380
 O     35.1011781330    -25.4523051333     -1.4905270260
 C     35.3089988543    -19.5866744113      1.6610229835
 C     35.8446453644    -18.4059713387      2.1760061704
 C     36.5512318841    -17.5663235816      1.3613984224
 C     36.7952309894    -17.8921928679      0.0281469757
 C     36.2609597069    -19.0810814445     -0.5131860469
 O     37.0135690136    -16.3989435666      1.9127859504
 C     37.5059998908    -15.3846317025      1.1402831201
 H     23.5697419364    -18.1350224287     -0.7610478839
 H     23.2760252764    -16.8473576354      0.4221644628
 H     24.5219747266    -17.5713168103      2.2033174638
 H     23.5302772778    -19.0068014146      1.5262889937
 H     27.2232906904    -17.2296588687     -1.0393707891
 H     26.0201334743    -18.1232332918     -1.8852311224
 H     25.5414578370    -16.1019213854      0.4596342053
 H     24.8181662347    -16.0124756458     -1.2232176713
 H     28.1202131338    -19.5239445185      1.9266401539
 H     30.3259328306    -20.6728674000      1.5237441004
 H     29.5179519752    -20.7847511422     -2.6608742592
 H     27.3660912941    -19.6817146523     -2.2570031458
 H     30.5341591042    -23.3232290867     -1.6504132990
 H     31.7860188232    -22.4752741711     -2.6286066860
 H     32.2201900200    -24.2599406752     -0.1527603266
 H     32.8359162875    -24.4641448707     -1.7230925468
 H     37.8247944835    -23.9713152692     -0.9680766857
 H     37.5270945616    -25.6192700368     -1.5473658083
 H     34.6480613360    -20.2515924203      2.2492434720
 H     35.7153481443    -18.0885564161      3.1876029134
 H     37.3350897942    -17.1782816265     -0.5760006819
 H     36.4418516030    -19.3504838780     -1.5857623149
 H     36.8060236739    -14.9130052886      0.4686544290
 H     37.7343950433    -14.6172297003      1.8534387471
 H     38.4099604009    -15.6352168884      0.6103937665
 O     37.0099936173    -19.8133067983     11.7022861568
 H     37.0521963228    -20.3289986337     10.8905678693
 H     37.9107911372    -19.9853720843     12.0820712038
 O     25.0604714430    -26.2526119482      8.4076105956
 H     24.2352080327    -26.5072911370      7.9221488627
 H     25.7651810558    -26.7592292642      7.9790594388
 O     32.6354174713     -8.6481737156      5.2017025871
 H     33.5121678118     -8.9216235825      5.5506231479
 H     32.3486607025     -8.0091684758      5.8330486632
 O     38.8105395497    -29.6758693988      3.3171145663
 H     38.7800765680    -29.5618916431      2.3591794231
 H     37.8959986317    -29.6133143025      3.6119299520
 O     19.8509842210    -17.8768528339      1.0378566988
 H     19.4413103810    -17.0231688773      0.9470920411
 H     19.1679485656    -18.5556642186      0.9586361327
 O     42.1590417278    -13.5070706721     -1.2301802818
 H     42.2346515872    -14.4817153153     -1.2228305386
 H     42.9512325939    -13.0926185079     -1.6160993659
 O     28.3641510262    -31.4923844046     -3.6729351654
 H     27.8094838830    -32.1141574686     -4.1981938639
 H     28.1379207385    -31.7097899659     -2.7857237273
 O     25.9939928633     -9.7312127065     -5.9380989344
 H     24.9780565906     -9.8113769255     -6.0595058629
 H     26.0351620230     -8.7710741789     -5.8035163530
 O     40.4032682723    -23.0729633316     -8.5489476377
 H     41.2581624634    -23.3206689160     -8.8873030522
 H     40.5640004538    -22.2755276640     -8.0166522717
 O     26.8100896407    -21.7019509794    -11.8944506461
 H     26.7643864966    -22.4540258309    -12.5299398754
 H     25.9776298420    -21.8570949367    -11.4019400018
89
# ORCA AIMD Position Step 160, t=80.00 fs, E_Pot=-6055003.74400008 kJ mol^-1, Unit is Angstrom
 C     24.0527212295    -17.4896731384      0.0715159677
 C     24.3600406801    -18.2780079842      1.3096173504
 C     25.6132785502    -19.1272000182      1.1205656805
 N     26.4211662146    -18.8480913379      0.0574119285
 C     26.2614324124    -17.6792446264     -0.9061374978
 C     25.1918484269    -16.7056372771     -0.4271378650
 C     27.6065463629    -19.6451943919     -0.1585047633
 C     28.4515724988    -19.8751600747      0.9283107632
 C     29.6531762459    -20.5415404932      0.7230735511
 C     30.0232984638    -20.8846789496     -0.5796181704
 C     29.2148137008    -20.5749601746     -1.6147526876
 C     27.9943845193    -19.9424254371     -1.4163242637
 N     31.3470926071    -21.4929282630     -0.7102001826
 C     31.4786318516    -22.7447069792     -1.5642894808
 C     32.6022837218    -23.6854049685     -1.0030494358
 C     33.8446369779    -22.9480886204     -0.7106755758
 C     33.7529910574    -21.5991630308     -0.3596208819
 C     32.4721816553    -20.8338890308     -0.2309559275
 O     25.8640181304    -20.0471953284      1.9139432501
 O     32.4033280615    -19.6638514186      0.1479399266
 C     35.2570543312    -23.2303160861     -0.7000477526
 N     35.9400938245    -22.1067379980     -0.3211669582
 N     35.0304681231    -21.1791055167     -0.1056643552
 C     35.5118135230    -19.9446182366      0.3220065540
 C     35.8665366164    -24.4859026572     -1.1623365747
 N     37.1941937419    -24.6567312945     -1.2963166013
 O     35.1251687782    -25.4194104167     -1.4777593441
 C     35.2965991626    -19.5987604870      1.6561757097
 C     35.8178216467    -18.4091951095      2.1815648294
 C     36.5372866748    -17.5686728816      1.3669125269
 C     36.7874290714    -17.8902611988      0.0114042595
 C     36.2444578818    -19.0878931358     -0.5306595873
 O     36.9798604216    -16.4197939385      1.9187730794
 C     37.4832349818    -15.3452651788      1.1076722421
 H     23.6377105430    -18.1311898858     -0.6791873212
 H     23.1751255033    -16.8651937288      0.4127823588
 H     24.4729156065    -17.7058915137      2.1394323793
 H     23.5031916824    -18.9809853094      1.5210352870
 H     27.3180913186    -17.2895063600     -1.0864883663
 H     25.9327880741    -18.1310626538     -1.8089529857
 H     25.4639969470    -16.0737528073      0.4418092271
 H     24.9237851455    -15.9956387241     -1.2013278240
 H     28.0838441594    -19.5816001805      1.8757148772
 H     30.3681844211    -20.7618355624      1.5441646633
 H     29.5099969963    -20.7579620557     -2.6571705858
 H     27.4339603353    -19.7833082561     -2.3060419130
 H     30.5485847751    -23.3150075162     -1.5867207690
 H     31.7834854288    -22.4533614045     -2.5374440988
 H     32.2749328451    -24.2301520960     -0.1129615341
 H     32.8320098568    -24.4774242969     -1.7573746181
 H     37.8440514456    -23.9257058405     -0.9453032654
 H     37.5521564228    -25.5512845965     -1.5218812755
 H     34.6937089978    -20.2266493994      2.2745785773
 H     35.7249955351    -18.1367844499      3.2457809848
 H     37.3480642854    -17.1819314160     -0.5985902939
 H     36.3999866023    -19.3796701667     -1.5384921843
 H     36.7289831235    -14.9741127164      0.3625734690
 H     37.7357309200    -14.5725794706      1.8636959691
 H     38.4294554369    -15.6219371242      0.5768255304
 O     37.0110517968    -19.8151959746     11.7263684826
 H     36.9981259457    -20.1978853052     10.8475504746
 H     37.8211800403    -20.1255998301     12.1101257876
 O     25.0754469269    -26.2763724359      8.3719383248
 H     24.3157988674    -26.4493312678      7.8424444120
 H     25.7786595430    -26.7250343702      7.9253486537
 O     32.6488754084     -8.6336615615      5.1208864386
 H     33.5354361030     -8.8937954414      5.4026709647
 H     32.3730407902     -7.9601251051      5.7689653242
 O     38.7958128147    -29.6827631864      3.2857177737
 H     38.7922166782    -29.6277320415      2.3252726498
 H     37.8634924994    -29.6968906575      3.5269238790
 O     19.9134305990    -17.8987875050      1.0284191688
 H     19.5938950190    -16.9802719833      0.9608436709
 H     19.1427112046    -18.4677986163      0.8492430836
 O     42.1491183194    -13.5466139804     -1.2325828273
 H     42.3336750375    -14.4511059357     -1.0144884789
 H     42.9500411283    -13.2542994482     -1.6498397977
 O     28.3604851012    -31.4833023942     -3.6526820723
 H     27.8558150101    -32.0700809493     -4.2321999510
 H     28.1295746881    -31.7735546294     -2.7479742383
 O     25.9519395909     -9.7006979257     -5.8971191633
 H     25.0766041798     -9.8086507694     -6.0995247446
 H     26.0011754693     -8.7916632385     -5.6142905774
 O     40.4262985149    -23.0760880621     -8.4989894700
 H     41.2903361200    -23.3592809901     -8.8343573303
 H     40.5830146179    -22.1932361393     -8.1319322797
 O     26.8363061239    -21.6873508069    -11.9194935303
 H     26.7506240079    -22.4360607525    -12.4847382847
 H     26.0629959811    -21.7349942968    -11.3757631662
89
# ORCA AIMD Position Step 170, t=85.00 fs, E_Pot=-6054984.78536148 kJ mol^-1, Unit is Angstrom
 C     24.0225517099    -17.4515400185      0.0982564332
 C     24.3829263001    -18.2670327988      1.3201502167
 C     25.6412384156    -19.1508229365      1.1546335398
 N     26.4203309847    -18.8369839045      0.0808424987
 C     26.2591036579    -17.6978671641     -0.9238932121
 C     25.2128722358    -16.7326977300     -0.4319698747
 C     27.5678276496    -19.6347002774     -0.1388596974
 C     28.4737680971    -19.8863731730      0.9287308568
 C     29.6525991432    -20.5495829532      0.7316826129
 C     30.0625857465    -20.9112155459     -0.5596539923
 C     29.2000453716    -20.5731944056     -1.6082722702
 C     27.9732727690    -19.9544114145     -1.4501059063
 N     31.3438561108    -21.4936190890     -0.7161002342
 C     31.5326249864    -22.7631437433     -1.5371010103
 C     32.5879472371    -23.7027017000     -1.0147189080
 C     33.8371824770    -22.9279557020     -0.7056743368
 C     33.7376254459    -21.6108974008     -0.3450499425
 C     32.4901597450    -20.8243666062     -0.2454348406
 O     25.8741198046    -20.0181908430      1.9507787665
 O     32.3786476282    -19.6875545583      0.1384392391
 C     35.2500117504    -23.2083112168     -0.6757573286
 N     35.9409260760    -22.0908022926     -0.3398376717
 N     35.0221584704    -21.1676207874     -0.1389946412
 C     35.4986694888    -19.9461896005      0.3117585216
 C     35.8621033845    -24.4853718232     -1.1486689868
 N     37.1989675611    -24.6432874510     -1.2860909489
 O     35.1405697665    -25.3879980362     -1.4644786808
 C     35.2896832386    -19.5951500568      1.6539255246
 C     35.7837645947    -18.4302352186      2.1939684117
 C     36.5331037062    -17.5642766521      1.3413375805
 C     36.7639566815    -17.9037525705     -0.0060901851
 C     36.2295903704    -19.0873187418     -0.5194758584
 O     36.9474322956    -16.4336924535      1.9303438473
 C     37.4651915206    -15.3082555531      1.0765191719
 H     23.6926647572    -18.2068498079     -0.6838855038
 H     23.1586797197    -16.8438820691      0.2518469582
 H     24.4849272873    -17.6413979512      2.3289406423
 H     23.5748309773    -18.9256631718      1.5231486173
 H     27.2305880958    -17.3203730966     -1.0785289470
 H     25.8014605803    -18.1236804606     -1.8899976484
 H     25.5484265188    -16.0641041560      0.3616437574
 H     25.0243722636    -16.0034346965     -1.2581983759
 H     28.1013397679    -19.6338876110      1.9395861064
 H     30.3104412211    -20.8140752009      1.5239658526
 H     29.5307108640    -20.7661310404     -2.6138410001
 H     27.3845873289    -19.8146654094     -2.3753287356
 H     30.5314058124    -23.2308416478     -1.5135687095
 H     31.7634244757    -22.3997127806     -2.5938832634
 H     32.2959554065    -24.1805547670     -0.0552305191
 H     32.7773424503    -24.4441820673     -1.7595835289
 H     37.8296243657    -23.9448370781     -0.9574459841
 H     37.5671791675    -25.5654547401     -1.5191520961
 H     34.7287856384    -20.2610815053      2.3358423841
 H     35.6804728514    -18.2130120590      3.2384175074
 H     37.3401541619    -17.2494721184     -0.6474692606
 H     36.3834418333    -19.4057089824     -1.5767721054
 H     36.7046516743    -15.0823032459      0.3454650203
 H     37.7036483025    -14.5224606610      1.7843154204
 H     38.3723116799    -15.6096046500      0.5743321762
 O     37.0096144013    -19.8168255702     11.7504207845
 H     36.9485568349    -20.0635933487     10.8066672174
 H     37.7652157200    -20.2735423623     12.1408256636
 O     25.0913286191    -26.2980711185      8.3400405518
 H     24.3411905741    -26.4043706158      7.7256056658
 H     25.8369147497    -26.7135843010      7.8409011639
 O     32.6618325892     -8.6174692381      5.0399477075
 H     33.5466414523     -8.8582965759      5.2641340392
 H     32.4204092215     -7.9416619510      5.6797989693
 O     38.7806525619    -29.6899938992      3.2541094120
 H     38.7980736803    -29.6928181276      2.2946296421
 H     37.8404506432    -29.7786196770      3.4342897819
 O     19.9757441805    -17.9203654921      1.0178899034
 H     19.7294256465    -17.0024223722      0.9730724680
 H     19.1579129519    -18.3218474656      0.7548316293
 O     42.1378068048    -13.5876855572     -1.2340422751
 H     42.4291389437    -14.4269943824     -0.7932485869
 H     42.9727155674    -13.3957426272     -1.7088206991
 O     28.3562703404    -31.4746071244     -3.6299132002
 H     27.9013580002    -32.0258081296     -4.2447681491
 H     28.1302243075    -31.8299840937     -2.7679059632
 O     25.9210339052     -9.6697114075     -5.8551730019
 H     24.9717300897     -9.8466685832     -6.1933702140
 H     25.9863651348     -8.7735731114     -5.3771235568
 O     40.4506675889    -23.0774073190     -8.4486311919
 H     41.3027826435    -23.3799581129     -8.7674743925
 H     40.6056765358    -22.1576632840     -8.2590106430
 O     26.8643873011    -21.6698499479    -11.9438547591
 H     26.7441237866    -22.4718878164    -12.4891795462
 H     26.1172166262    -21.6007723765    -11.3145668891
89
# ORCA AIMD Position Step 180, t=90.00 fs, E_Pot=-6054988.39040108 kJ mol^-1, Unit is Angstrom
 C     23.9801238917    -17.4375561952      0.1064762240
 C     24.4145194413    -18.2478439182      1.3505940972
 C     25.6364807647    -19.1336033542      1.1848593194
 N     26.4312171874    -18.8268168830      0.0881331738
 C     26.2250595802    -17.7488443750     -0.9288458935
 C     25.2460729147    -16.7257749051     -0.4376179729
 C     27.5537653202    -19.6149021439     -0.1268857572
 C     28.4695307353    -19.8981857080      0.9305527556
 C     29.6583467157    -20.5638717293      0.7311038687
 C     30.0940424171    -20.9249233547     -0.5328516008
 C     29.2051048076    -20.5822331677     -1.6151414298
 C     27.9518619615    -19.9747652784     -1.4704284334
 N     31.3614108973    -21.5190881790     -0.7266940700
 C     31.5646464950    -22.7532419250     -1.5125919330
 C     32.5857456597    -23.7145210720     -1.0143049181
 C     33.8431634809    -22.9177962837     -0.7054471184
 C     33.7232420711    -21.6177839471     -0.3280977059
 C     32.4849829804    -20.8245047809     -0.2774129927
 O     25.8886469969    -20.0054118563      1.9977958688
 O     32.3655550443    -19.6940279976      0.1413400167
 C     35.2369221456    -23.1826677016     -0.6605170125
 N     35.9367192983    -22.1009373092     -0.3660594396
 N     35.0104170672    -21.1549493633     -0.1756864925
 C     35.4893024395    -19.9065306050      0.3174560068
 C     35.8664207054    -24.4711507314     -1.1295078750
 N     37.2155217880    -24.6126736974     -1.2693573686
 O     35.1283897221    -25.3813519725     -1.4578940294
 C     35.2780890714    -19.5983691817      1.6584468406
 C     35.7648083367    -18.4470640034      2.1839524848
 C     36.5181411548    -17.5691834886      1.3144572852
 C     36.7343690876    -17.9191584509     -0.0172698926
 C     36.2117434094    -19.0975342366     -0.5061817209
 O     36.9273377623    -16.4234646892      1.9364776182
 C     37.4391486325    -15.3059807401      1.0614580735
 H     23.7567073458    -18.1931999073     -0.6229953639
 H     23.1039471481    -16.7247227453      0.1396780475
 H     24.5294852548    -17.6871123295      2.2299542494
 H     23.5586048605    -18.9941741856      1.5842160808
 H     27.2376081595    -17.2569420044     -1.1185864613
 H     25.8346937204    -18.0892621069     -1.8479682916
 H     25.7504411158    -16.0821030434      0.3242861474
 H     25.0510436257    -16.1101156399     -1.3002739055
 H     28.2154368306    -19.6896185461      1.9430997571
 H     30.2689481249    -20.8375287253      1.6154613745
 H     29.5690040282    -20.8138949159     -2.6255308234
 H     27.3187228551    -19.7884330169     -2.3235745748
 H     30.5670296436    -23.1695598198     -1.5025483597
 H     31.7354112216    -22.4758670689     -2.5378292753
 H     32.2612195101    -24.1564690570     -0.0794065721
 H     32.7433548362    -24.5180501224     -1.7865232138
 H     37.8684866196    -23.9193728657     -0.9481520981
 H     37.5317270177    -25.5707045844     -1.5181199983
 H     34.7830300656    -20.2939947803      2.3041260785
 H     35.6094873932    -18.2371973807      3.2517942772
 H     37.3258827612    -17.3185944790     -0.7020543417
 H     36.3740466108    -19.3662219918     -1.5245465964
 H     36.6449075714    -15.1085732370      0.3180070084
 H     37.6100277737    -14.4275302968      1.6958841694
 H     38.3667864626    -15.6271481102      0.5502627577
 O     37.0056630588    -19.8151705030     11.7749971487
 H     36.9619044141    -19.9560829060     10.8450896760
 H     37.6850284975    -20.4471840554     12.0874418303
 O     25.1090996110    -26.3241632359      8.3013397695
 H     24.3965281170    -26.3361681148      7.6485858270
 H     25.8385321489    -26.6579870451      7.8179851569
 O     32.6703012801     -8.6005910191      4.9563909141
 H     33.6231080305     -8.8311470136      5.1454410457
 H     32.4761938493     -7.9225726828      5.5977992734
 O     38.7627814570    -29.6975167600      3.2205433876
 H     38.8385045291    -29.7560715462      2.2556903776
 H     37.8227812370    -29.8597436980      3.3745849813
 O     20.0365056264    -17.9407529944      1.0064526016
 H     19.9164384301    -16.9708527241      1.0065580877
 H     19.1646551733    -18.2488662679      0.6501632218
 O     42.1396308186    -13.6405429988     -1.2335472458
 H     42.4035049032    -14.2899540318     -0.5918334784
 H     42.9061669278    -13.4721548741     -1.7762677445
 O     28.3548045558    -31.4623681859     -3.6043902348
 H     27.9109202930    -32.0294029511     -4.3019306104
 H     28.1227754224    -31.8936846708     -2.7839190765
 O     25.8869518905     -9.6380083735     -5.8113621683
 H     25.0397294378     -9.7344251665     -6.1697579177
 H     25.8430414116     -8.9126477334     -5.2791871845
 O     40.4757905065    -23.0788295684     -8.3972893708
 H     41.3210648167    -23.4193031810     -8.7064495985
 H     40.6148819962    -22.1019078398     -8.3888130198
 O     26.8943109350    -21.6504447955    -11.9684929469
 H     26.6806231363    -22.4674673886    -12.4153427387
 H     26.2039273920    -21.5334146177    -11.3304274478
89
# ORCA AIMD Position Step 190, t=95.00 fs, E_Pot=-6054963.64186957 kJ mol^-1, Unit is Angstrom
 C     23.9625006707    -17.4192706869      0.1087592637
 C     24.4072221228    -18.2474713458      1.3706390340
 C     25.6226385905    -19.0925334250      1.2086353309
 N     26.4398030499    -18.8221670910      0.0910746780
 C     26.2005361208    -17.7948071578     -0.9118909070
 C     25.2765308498    -16.7099644528     -0.4331040368
 C     27.5863481264    -19.6055266004     -0.1340786879
 C     28.4489299945    -19.9137678395      0.9210767613
 C     29.6717689836    -20.5862262601      0.7386822159
 C     30.0941943410    -20.9240036331     -0.5294588752
 C     29.2297457063    -20.6037658130     -1.6240462914
 C     27.9441382337    -19.9993936496     -1.4481025870
 N     31.3990859036    -21.5496561483     -0.7317415539
 C     31.5580111849    -22.7313987459     -1.4973008304
 C     32.6056673179    -23.7259443648     -1.0088552710
 C     33.8440846133    -22.9341523272     -0.7086117070
 C     33.7206250853    -21.6089878412     -0.3175008019
 C     32.4620375269    -20.8296228532     -0.3102317604
 O     25.9028107578    -19.9931497402      2.0417962976
 O     32.3640196787    -19.6872216143      0.1515952366
 C     35.2266601494    -23.1863400992     -0.6662824134
 N     35.9269331538    -22.1082252225     -0.3909369048
 N     35.0044780039    -21.1315891760     -0.2042593730
 C     35.4656761711    -19.8756048127      0.3287200593
 C     35.8682644026    -24.4494808859     -1.1103386719
 N     37.2300170808    -24.5757444594     -1.2483429078
 O     35.1053679612    -25.3862124994     -1.4525995710
 C     35.2646690674    -19.6110796821      1.6612882735
 C     35.7653014773    -18.4415527996      2.1617341744
 C     36.4889219524    -17.5747479045      1.3111852436
 C     36.7117276878    -17.9215087865     -0.0222711923
 C     36.1946038705    -19.1061554004     -0.4961209756
 O     36.9180950772    -16.3955186277      1.9290826131
 C     37.3979234795    -15.3346440297      1.0517377065
 H     23.7127173876    -18.1986448918     -0.6603050237
 H     23.1542488600    -16.7331509470      0.1768621408
 H     24.6262460462    -17.5749472816      2.2817576095
 H     23.6894734098    -18.9354465645      1.6549524688
 H     27.1176308228    -17.3040141132     -1.1421065271
 H     25.8690551513    -18.2276071868     -1.9254737303
 H     25.8578101457    -16.1374018661      0.2744415383
 H     25.0046278175    -16.1334723733     -1.3564491787
 H     28.2719601690    -19.6763735509      1.9820292136
 H     30.2080174777    -20.8059115289      1.6376607900
 H     29.5675280470    -20.8602003617     -2.6215142650
 H     27.2649796504    -19.7492146409     -2.2717530457
 H     30.5700114935    -23.2438801238     -1.5257190332
 H     31.7922567447    -22.5442934063     -2.5832192330
 H     32.1995673640    -24.2138816463     -0.0867772923
 H     32.7303429510    -24.5181363774     -1.7002849447
 H     37.9213047169    -23.8808349270     -0.9245234499
 H     37.5007054107    -25.4799429269     -1.4948192730
 H     34.7671551443    -20.3767216588      2.2717656961
 H     35.5801180826    -18.1909991255      3.1894922463
 H     37.3034158459    -17.3363538443     -0.7131776452
 H     36.3728531514    -19.3620732012     -1.5526402205
 H     36.6344139410    -15.1008475531      0.3014804896
 H     37.5071269475    -14.4052513303      1.6395755182
 H     38.3335487029    -15.6148760891      0.5638099546
 O     37.0045343989    -19.8162855818     11.8056338965
 H     36.9811649605    -19.8637934580     10.8217047169
 H     37.5531133631    -20.5619227606     12.0026167902
 O     25.1219812197    -26.3489655170      8.2625471369
 H     24.4477207123    -26.2624694367      7.5975356900
 H     25.9246922976    -26.6301809449      7.7649114548
 O     32.6868903558     -8.5861773701      4.8726881759
 H     33.5828301642     -8.7826375571      5.0000695876
 H     32.5218324230     -7.8830396435      5.5326062058
 O     38.7428253190    -29.7057532980      3.1839303099
 H     38.8900810192    -29.8150701460      2.2478830801
 H     37.8244872273    -29.9355589998      3.3266586660
 O     20.0891320696    -17.9568807043      0.9912832625
 H     20.1439240802    -17.0053465672      1.0552596901
 H     19.2758383037    -18.1778191998      0.5866701914
 O     42.1370615584    -13.6933013632     -1.2321279754
 H     42.4087724486    -14.1502397816     -0.4156196086
 H     42.8766388740    -13.5605470202     -1.8305087693
 O     28.3497008937    -31.4544369460     -3.5854847296
 H     27.9799424831    -31.9551236948     -4.2655140520
 H     28.1131760971    -31.9659920723     -2.7859468794
 O     25.8636996407     -9.6162188950     -5.7724037027
 H     24.9650090020     -9.6310549867     -6.1959651984
 H     25.6654343466     -8.8817480858     -5.0478439416
 O     40.5030931975    -23.0731119022     -8.3459607726
 H     41.3320868687    -23.4665267143     -8.6442088988
 H     40.6004764892    -22.1516962503     -8.5137026118
 O     26.9276089628    -21.6298860388    -11.9949467216
 H     26.6100990618    -22.4730021910    -12.3446942856
 H     26.2480829178    -21.4713981643    -11.3169751547
89
# ORCA AIMD Position Step 200, t=100.00 fs, E_Pot=-6055012.96455201 kJ mol^-1, Unit is Angstrom
 C     23.9918099724    -17.4157775333      0.1089946198
 C     24.3950388132    -18.2160207640      1.3886858560
 C     25.6349099546    -19.0724353369      1.2369202770
 N     26.4415845999    -18.8288282760      0.1062414572
 C     26.1711988007    -17.8407398183     -0.9116215971
 C     25.2768334011    -16.7126988852     -0.4422668329
 C     27.6369042027    -19.6040720013     -0.1450481766
 C     28.4464405051    -19.9388911316      0.9213656443
 C     29.6637957978    -20.6012160723      0.7464924136
 C     30.0829283193    -20.9228272363     -0.5521810801
 C     29.2485482519    -20.6285291255     -1.6248360392
 C     27.9655434283    -20.0279864121     -1.4048809645
 N     31.4138658374    -21.5624127000     -0.7276808910
 C     31.5333493244    -22.7426272320     -1.5177641413
 C     32.6209616344    -23.7283689457     -0.9794040172
 C     33.8350251393    -22.9552688599     -0.7023107343
 C     33.7286637427    -21.5999729049     -0.3262753915
 C     32.4557647800    -20.8172125737     -0.3187639292
 O     25.9074675219    -19.9562989967      2.0626084305
 O     32.3687721759    -19.6856042623      0.1580574887
 C     35.2198081743    -23.2136766199     -0.6901096564
 N     35.9146464698    -22.0956820821     -0.4098471730
 N     35.0028476685    -21.1104299338     -0.2214868463
 C     35.4257114769    -19.8840403608      0.3315327945
 C     35.8522894646    -24.4499988946     -1.1047552393
 N     37.2299872097    -24.5231294655     -1.2191678230
 O     35.0974505849    -25.3796436662     -1.4398946963
 C     35.2490695034    -19.6298545643      1.6681559757
 C     35.7707428130    -18.4252967001      2.1391439500
 C     36.4599617479    -17.5631035221      1.3229364514
 C     36.6979789177    -17.9102611335     -0.0202547971
 C     36.1880752820    -19.0975759600     -0.5071728138
 O     36.9090672976    -16.3702150037      1.9091510255
 C     37.3445160129    -15.3710495223      1.0445719892
 H     23.6258439807    -18.0917978446     -0.6628383348
 H     23.1267144325    -16.7239091294      0.3559488722
 H     24.6532934781    -17.5282717746      2.2207141121
 H     23.5995904864    -18.9720510148      1.8163223346
 H     27.1653914110    -17.3712077898     -1.1790614281
 H     25.8678572389    -18.3413795837     -1.8065413648
 H     25.8437956169    -16.1003771943      0.3021395756
 H     25.0045728813    -16.1049428751     -1.2789329465
 H     28.2085620482    -19.6154574458      1.9108256091
 H     30.2586633615    -20.7921393115      1.6531821758
 H     29.5465324289    -20.9028482136     -2.6370918721
 H     27.3125542035    -19.7756188699     -2.2296151382
 H     30.6159033797    -23.3004156095     -1.5385335575
 H     31.8409336943    -22.5250758863     -2.5608680758
 H     32.2246239730    -24.2416519937     -0.1137891172
 H     32.7852807119    -24.5646964219     -1.7244687585
 H     37.8829692729    -23.8713142984     -0.9065824848
 H     37.5688783274    -25.5008315337     -1.5101842684
 H     34.7312478460    -20.3736605834      2.2462981234
 H     35.5925038408    -18.0836896106      3.1642151302
 H     37.2843593767    -17.2797161601     -0.6804913149
 H     36.3399897762    -19.3979545245     -1.5281779669
 H     36.6301867350    -15.1344687646      0.2451230917
 H     37.4431407339    -14.4788289176      1.6397828872
 H     38.3211166072    -15.5885214714      0.5891594888
 O     37.0045048692    -19.8190129473     11.8279810761
 H     36.9729344547    -19.7221078029     10.8806067695
 H     37.4303718797    -20.7007084144     11.9695623377
 O     25.1401403720    -26.3763568906      8.2230985788
 H     24.4855887597    -26.1791511290      7.5177336887
 H     25.9428247260    -26.5723357633      7.7460530248
 O     32.6963249125     -8.5667096458      4.7906398986
 H     33.6676966971     -8.7759467667      4.8584471197
 H     32.5575379871     -7.8795967505      5.4269389398
 O     38.7246141219    -29.7131873154      3.1497198205
 H     38.9243469346    -29.8828747543      2.2166369833
 H     37.8136460341    -30.0167144355      3.2593057061
 O     20.1516296200    -17.9758348538      0.9798777655
 H     20.3118371508    -17.0311445747      1.0802075051
 H     19.3042997796    -18.0707804308      0.4849922321
 O     42.1251641364    -13.7463223962     -1.2283274472
 H     42.5006464329    -13.9529951064     -0.3589100065
 H     42.9066608666    -13.7088916008     -1.8005725379
 O     28.3463563157    -31.4450061012     -3.5568690358
 H     27.9977778351    -31.9469211574     -4.3503204157
 H     28.1263983009    -31.9952526595     -2.8186995649
 O     25.8245874932     -9.5772866308     -5.7203294361
 H     25.0059702079     -9.5733734027     -6.2471205035
 H     25.6194505521     -9.0740154603     -4.9940711506
 O     40.5302040417    -23.0710694243     -8.2935772485
 H     41.3365103967    -23.5005926269     -8.5818969342
 H     40.5989849779    -22.1563783571     -8.6502890801
 O     26.9539610182    -21.6135051702    -12.0190400974
 H     26.5935657261    -22.4683395582    -12.3086090086
 H     26.3519127896    -21.3506969502    -11.3087618802
89
# ORCA AIMD Position Step 210, t=105.00 fs, E_Pot=-6055008.27483512 kJ mol^-1, Unit is Angstrom
 C     24.0251527861    -17.4062184419      0.1308123538
 C     24.3728969393    -18.1955823563      1.4040175973
 C     25.6612181467    -19.0676461918      1.2586573331
 N     26.4484759453    -18.8501713617      0.1356254091
 C     26.1669694246    -17.8650282990     -0.9157732250
 C     25.2571068190    -16.7351397721     -0.4437026252
 C     27.6666576702    -19.6025144330     -0.1366413426
 C     28.4685074552    -19.9664801207      0.9338106780
 C     29.6470874234    -20.6107477569      0.7513120092
 C     30.0832796345    -20.9314504961     -0.5717172880
 C     29.2499527666    -20.6543461963     -1.6246121772
 C     28.0169233827    -20.0595412848     -1.3762968632
 N     31.3839065916    -21.5544735492     -0.7181776084
 C     31.5294966250    -22.7862314321     -1.5524021103
 C     32.6200086721    -23.7383566345     -0.9647511222
 C     33.8295103204    -22.9547909688     -0.6810290342
 C     33.7351662091    -21.6016630456     -0.3567317795
 C     32.4799218203    -20.8013921791     -0.3027086155
 O     25.9069916048    -19.9061966838      2.0726337047
 O     32.3756133178    -19.6860798952      0.1598745455
 C     35.2108792811    -23.2198010690     -0.7151841542
 N     35.9030019812    -22.0773368897     -0.4267283189
 N     34.9955091246    -21.1166740040     -0.2328914982
 C     35.3964746631    -19.9038600491      0.3194314193
 C     35.8381530271    -24.4671077679     -1.1118939342
 N     37.2124219986    -24.4959000361     -1.1965974049
 O     35.1033604503    -25.3714406390     -1.4232908538
 C     35.2384333235    -19.6336259134      1.6727791664
 C     35.7621734229    -18.4137645723      2.1391920787
 C     36.4448577894    -17.5333981636      1.3237435412
 C     36.6902887067    -17.8885561735     -0.0140586953
 C     36.1794502562    -19.0762901902     -0.5145092684
 O     36.8877267165    -16.3699137309      1.8887907905
 C     37.2984749936    -15.3932190689      1.0247806557
 H     23.5264813170    -17.9969785985     -0.6634601285
 H     23.2500786273    -16.7624732965      0.4994095257
 H     24.6379486513    -17.4433550649      2.1551703591
 H     23.6422258678    -18.7694891855      1.8340890636
 H     27.1442791162    -17.5005791713     -1.2085932994
 H     25.7035949124    -18.4383040354     -1.7772211801
 H     25.7126123461    -16.1080930165      0.3105729282
 H     25.0196923629    -16.0009629219     -1.2665528959
 H     28.0935370747    -19.5535491699      1.8794308413
 H     30.3286024503    -20.7963906001      1.5671441227
 H     29.5177252576    -20.9279499203     -2.6417036106
 H     27.3976454124    -19.8561564907     -2.2454647430
 H     30.5530988759    -23.3175899576     -1.5587165938
 H     31.8393584572    -22.4523429424     -2.5425993992
 H     32.2743720541    -24.2655048622     -0.0415777655
 H     32.8511825941    -24.4700497578     -1.6933909519
 H     37.8456304318    -23.7389718411     -0.8277561577
 H     37.6028586235    -25.3150984397     -1.4615415022
 H     34.6625240340    -20.3179621937      2.3088357697
 H     35.6210301987    -18.0328406442      3.1401660714
 H     37.2629944921    -17.2058043827     -0.6326017302
 H     36.3188602113    -19.4432503087     -1.5394172857
 H     36.5992910462    -15.2134155176      0.1824876192
 H     37.4080479060    -14.4942676998      1.6928156988
 H     38.3117435084    -15.5836767245      0.6105819490
 O     37.0076435775    -19.8274262345     11.8531180796
 H     36.9644462776    -19.5944215426     10.9206906294
 H     37.2570003571    -20.7354133257     11.9126971312
 O     25.1537864626    -26.4021664759      8.1809556777
 H     24.5753038028    -26.1118204125      7.4929584805
 H     25.9824290852    -26.5243599695      7.7113992905
 O     32.7125959262     -8.5512748387      4.7062453357
 H     33.6429860129     -8.7390383067      4.7111581457
 H     32.5953612984     -7.8407347141      5.3569702678
 O     38.7059138237    -29.7213385049      3.1141183217
 H     38.9452665215    -29.9475340383      2.2138172008
 H     37.8224353958    -30.0904843084      3.1822756491
 O     20.2118857690    -17.9980063967      0.9664135896
 H     20.4379958497    -17.0663261018      1.0874121527
 H     19.4214392879    -17.9031404269      0.4322401729
 O     42.1177615471    -13.7995650012     -1.2210797227
 H     42.5523226862    -13.7545916511     -0.3630207368
 H     42.9035671132    -13.8595627858     -1.7625539732
 O     28.3407947902    -31.4375692911     -3.5368945252
 H     28.0639318669    -31.8746760888     -4.3295009792
 H     28.1260933895    -32.0563642647     -2.8184399462
 O     25.7868029920     -9.5458987433     -5.6794258378
 H     25.0581596805     -9.5261711437     -6.2730485079
 H     25.5380767329     -9.1338175663     -4.7843188340
 O     40.5569983471    -23.0629380582     -8.2422777885
 H     41.3511096163    -23.5329860396     -8.5250041692
 H     40.5946841365    -22.2594512172     -8.7607025927
 O     26.9774947777    -21.5986584128    -12.0418119418
 H     26.6025385168    -22.4346597450    -12.2742129901
 H     26.4773181096    -21.2329107486    -11.3214739907
89
# ORCA AIMD Position Step 220, t=110.00 fs, E_Pot=-6055004.73950294 kJ mol^-1, Unit is Angstrom
 C     24.0367306930    -17.4013081384      0.1608186339
 C     24.3962816220    -18.1664450897      1.3940003528
 C     25.6666083427    -19.0440405870      1.2564067943
 N     26.4693173070    -18.8744484702      0.1583172558
 C     26.1569678778    -17.8884241584     -0.9227758404
 C     25.2306136531    -16.7569044133     -0.4493213059
 C     27.6719926689    -19.6095290216     -0.1069961536
 C     28.4801593080    -19.9704393589      0.9634957962
 C     29.6521231556    -20.6266377992      0.7368366093
 C     30.0932374032    -20.9483814566     -0.5651152805
 C     29.2503979403    -20.6876527355     -1.6271942778
 C     28.0629311834    -20.0794515561     -1.3764084624
 N     31.3431086479    -21.5423522615     -0.7090195896
 C     31.5328617830    -22.8296933601     -1.5674481641
 C     32.6029560079    -23.7431618813     -0.9522647861
 C     33.8270970764    -22.9371726932     -0.6571034609
 C     33.7277428373    -21.6054682295     -0.3958092946
 C     32.5031225210    -20.8112088146     -0.2818713818
 O     25.9115370370    -19.8739534865      2.1020868059
 O     32.3868114611    -19.6773309733      0.1627588495
 C     35.2022969838    -23.1893675792     -0.7312721059
 N     35.8963966995    -22.0719470046     -0.4464170382
 N     34.9824916506    -21.1457899133     -0.2411096068
 C     35.3957196342    -19.9024670714      0.3031578713
 C     35.8430701361    -24.4653574781     -1.1184098391
 N     37.1871243561    -24.4532046396     -1.1658913312
 O     35.1056687743    -25.3874017708     -1.4125044552
 C     35.2289734276    -19.6165083087      1.6752982772
 C     35.7417881624    -18.4093183010      2.1509881986
 C     36.4352659285    -17.5142337625      1.3097366392
 C     36.6839604570    -17.8606345400     -0.0092184778
 C     36.1585891248    -19.0600761258     -0.5105411270
 O     36.8529786419    -16.3935758494      1.8786806932
 C     37.2743414111    -15.3796252038      0.9974117547
 H     23.4767413848    -17.9597785925     -0.5983810961
 H     23.3351746577    -16.6192310596      0.5564632159
 H     24.6495649592    -17.3329200733      2.1712698997
 H     23.4831699644    -18.7332550838      1.8736145140
 H     27.1394155718    -17.5780373930     -1.3270966080
 H     25.5715571083    -18.3887122297     -1.7103746105
 H     25.6714677869    -16.1437896705      0.3768419623
 H     25.0413429426    -16.0503952306     -1.2281612325
 H     28.1189313133    -19.6159091956      1.9022661781
 H     30.3926051956    -20.8231918627      1.5112764146
 H     29.4970639281    -20.9455769463     -2.6488370036
 H     27.4477220525    -19.9317603925     -2.2647996318
 H     30.5430446959    -23.2614510908     -1.6201674970
 H     31.8151878051    -22.4565588458     -2.5985838783
 H     32.3097052869    -24.2445459159     -0.0408202351
 H     32.9150605040    -24.4988583987     -1.7328569921
 H     37.6456193646    -23.6833078424     -0.7982018163
 H     37.7471829333    -25.3304689383     -1.4704669642
 H     34.6352842658    -20.2126010297      2.3578271406
 H     35.6138378131    -18.0791060677      3.1844891872
 H     37.2463256176    -17.1773826290     -0.6305198863
 H     36.3336723946    -19.3980080593     -1.5288399572
 H     36.5719728584    -15.2746499961      0.1805694294
 H     37.3353374624    -14.5198661337      1.6082161440
 H     38.2670542765    -15.5992681575      0.6173185318
 O     37.0088574273    -19.8307708235     11.8818062193
 H     36.9711300663    -19.5156026279     10.9570050727
 H     37.0989736268    -20.8017098631     11.8032111748
 O     25.1693651343    -26.4291119388      8.1387495672
 H     24.6070478033    -26.0234038487      7.4467963092
 H     26.0495015272    -26.4788468382      7.6986493565
 O     32.7243760408     -8.5342971192      4.6218536772
 H     33.6692175254     -8.7037790451      4.5805355252
 H     32.6533814772     -7.8244631888      5.2698790784
 O     38.6858966010    -29.7310362226      3.0768698756
 H     38.9971675095    -29.9980905885      2.2039574543
 H     37.8209217382    -30.1534698422      3.1379312328
 O     20.2707030073    -18.0132519877      0.9507754230
 H     20.6078170405    -17.1306325861      1.1312259060
 H     19.5241399183    -17.8148287933      0.3771916240
 O     42.1186263695    -13.8536143443     -1.2084872438
 H     42.5059514412    -13.5376069432     -0.3602422147
 H     42.8654376579    -14.0170640337     -1.8149576389
 O     28.3367302604    -31.4282068436     -3.5119440972
 H     28.1021749383    -31.8463686745     -4.3473699701
 H     28.1296550408    -32.1041120908     -2.8584620979
 O     25.7603165871     -9.5128224120     -5.6283512296
 H     25.0012916543     -9.4229804786     -6.2744401154
 H     25.3861301289     -9.2762395310     -4.7602774419
 O     40.5857878057    -23.0547948339     -8.1932560436
 H     41.3520305367    -23.5777249580     -8.4513991002
 H     40.5728061458    -22.3504212763     -8.8514115561
 O     27.0082312801    -21.5792585071    -12.0684190007
 H     26.5466006640    -22.4359936878    -12.2018313734
 H     26.5534582740    -21.1523111228    -11.3114510288
89
# ORCA AIMD Position Step 230, t=115.00 fs, E_Pot=-6054997.21647639 kJ mol^-1, Unit is Angstrom
 C     24.0097133457    -17.3782379285      0.1892946465
 C     24.4288504563    -18.1351716495      1.4009054711
 C     25.6545289544    -19.0220250118      1.2546564618
 N     26.4939485597    -18.8836987359      0.1537524958
 C     26.1399233108    -17.9104668075     -0.9256561915
 C     25.2315390822    -16.7780591738     -0.4355827644
 C     27.6709569817    -19.6357332695     -0.0734382889
 C     28.4844848125    -19.9597625581      0.9940895814
 C     29.6830152266    -20.6460033774      0.7164894798
 C     30.0945059524    -20.9672573235     -0.5432188801
 C     29.2635366442    -20.7292659317     -1.6288940020
 C     28.0720401621    -20.0754858556     -1.3858373274
 N     31.3408605609    -21.5471419675     -0.7062104567
 C     31.5358319082    -22.8376086530     -1.5672105058
 C     32.5952769995    -23.7494866885     -0.9625512089
 C     33.8131691973    -22.9309302593     -0.6505370992
 C     33.7079833966    -21.5976067462     -0.4253607305
 C     32.4895890232    -20.8308510383     -0.2649263650
 O     25.9177044504    -19.8519176879      2.1445322001
 O     32.4070336897    -19.6710789167      0.1651570927
 C     35.1989380500    -23.1589249465     -0.7427875486
 N     35.8964071517    -22.0787651556     -0.4681012294
 N     34.9761946618    -21.1568062358     -0.2407069916
 C     35.4109200576    -19.8872539744      0.2953497188
 C     35.8370271732    -24.4509250444     -1.1236107746
 N     37.1731953574    -24.4301447893     -1.1419208822
 O     35.1082476239    -25.4196621899     -1.4062006078
 C     35.2207000663    -19.5793346865      1.6688383796
 C     35.7198908390    -18.4064103529      2.1613221010
 C     36.4164321726    -17.5278660156      1.2978459912
 C     36.6715786645    -17.8398697571     -0.0135718120
 C     36.1341211922    -19.0449491148     -0.4986894885
 O     36.8177424555    -16.4091476676      1.8793773655
 C     37.2591540495    -15.3644980364      0.9705675051
 H     23.4249668881    -17.9929231236     -0.5023633637
 H     23.4145349863    -16.5001759669      0.4757531398
 H     24.6723026648    -17.4281729457      2.1183061314
 H     23.6098610202    -18.6551286246      1.7618227273
 H     27.0627773059    -17.5963745134     -1.4423895058
 H     25.5008307520    -18.3692011723     -1.6935053921
 H     25.7214200505    -16.2271215757      0.3603187920
 H     25.0018633637    -16.1078882521     -1.3069966457
 H     28.2452299392    -19.7442785228      2.0509965056
 H     30.3814516677    -20.8558076613      1.5231643480
 H     29.5133816392    -20.9831866679     -2.6625371739
 H     27.4248046657    -19.9503143941     -2.2415593539
 H     30.5242348540    -23.2725848628     -1.6742872350
 H     31.8067841886    -22.5746083436     -2.5635966242
 H     32.2472589296    -24.2644805882     -0.0393312125
 H     32.8820464359    -24.5099644214     -1.6471437792
 H     37.5526346361    -23.5320661112     -0.7462384228
 H     37.7297246009    -25.1500939676     -1.3907746635
 H     34.6216122138    -20.1743982398      2.3553448277
 H     35.5834444344    -18.1784410585      3.2146068705
 H     37.2387190280    -17.2028095575     -0.6848456394
 H     36.3650762065    -19.2971781955     -1.5301690620
 H     36.5152432048    -15.2715869769      0.1454906345
 H     37.2589129574    -14.3844146374      1.5472342964
 H     38.2673887144    -15.6131733386      0.5696561623
 O     37.0108866723    -19.8380138749     11.9077006795
 H     36.9822580743    -19.4667348115     11.0429262601
 H     36.9241263968    -20.7760176061     11.6866814835
 O     25.1874318357    -26.4539862302      8.0898393786
 H     24.6648310802    -25.9594576149      7.4621506150
 H     26.0496286526    -26.4397570213      7.7335038151
 O     32.7359958106     -8.5166669315      4.5388109135
 H     33.7073275695     -8.6760065615      4.4384042200
 H     32.7007046368     -7.8122446188      5.1796482225
 O     38.6650013914    -29.7420324329      3.0380393982
 H     39.0579040067    -30.0378668209      2.2088330577
 H     37.8256071237    -30.2050566084      3.1064496903
 O     20.3285105698    -18.0241564915      0.9342255584
 H     20.8046068940    -17.2237451587      1.1997318597
 H     19.6178229403    -17.7647900197      0.3127338575
 O     42.1210267994    -13.9059017989     -1.1921124140
 H     42.4530903059    -13.3779027409     -0.4868522948
 H     42.8075594532    -14.1425576568     -1.7972843369
 O     28.3320474797    -31.4199983582     -3.4865952335
 H     28.1471072819    -31.8111219637     -4.3788617321
 H     28.1361468161    -32.1410975210     -2.8927586219
 O     25.7279464722     -9.4818525336     -5.5825877939
 H     25.0268649037     -9.3252657952     -6.1695959253
 H     25.2477108651     -9.3817596911     -4.7617635827
 O     40.6161566534    -23.0449939992     -8.1462783331
 H     41.3451119926    -23.6299374444     -8.3642891641
 H     40.5321062432    -22.4602557065     -8.9263561022
 O     27.0361485158    -21.5618174161    -12.0934008569
 H     26.5178035460    -22.3552281489    -12.0999387926
 H     26.6450378663    -21.1244384406    -11.3553321838
89
# ORCA AIMD Position Step 240, t=120.00 fs, E_Pot=-6054993.84695272 kJ mol^-1, Unit is Angstrom
 C     23.9723904443    -17.3374027282      0.2056600713
 C     24.4714453221    -18.1068512167      1.3958843609
 C     25.6584657694    -19.0309028834      1.2694404437
 N     26.5035480066    -18.8748268387      0.1324175543
 C     26.1116494316    -17.9350906384     -0.9309878355
 C     25.2517795170    -16.8015301563     -0.4320809260
 C     27.6719968294    -19.6724338962     -0.0499086906
 C     28.5123535962    -19.9637012584      1.0277474642
 C     29.7054535525    -20.6501909463      0.7230907463
 C     30.0919298440    -20.9926910057     -0.5362359232
 C     29.2676415397    -20.7621304114     -1.6275137920
 C     28.0602769679    -20.0625056042     -1.3834157901
 N     31.3798237493    -21.5739783111     -0.7123449424
 C     31.5250451068    -22.8230438751     -1.5459119995
 C     32.5884443031    -23.7544164080     -0.9637796217
 C     33.7903420190    -22.9413237294     -0.6678878019
 C     33.6921747320    -21.5829683656     -0.4343619149
 C     32.4453297755    -20.8359347853     -0.2550182773
 O     25.9168401295    -19.8183543779      2.1761269671
 O     32.4322430968    -19.6805131570      0.1650697807
 C     35.1880695893    -23.1653554896     -0.7580253808
 N     35.8994403958    -22.0810463490     -0.4859921834
 N     34.9798888563    -21.1299956894     -0.2312736365
 C     35.4212105620    -19.8784730282      0.3019214143
 C     35.8008081402    -24.4518615261     -1.1322121150
 N     37.1602593483    -24.3767829818     -1.1061278884
 O     35.1225150075    -25.4451439784     -1.3988054040
 C     35.2057388469    -19.5471062503      1.6489084635
 C     35.7024057035    -18.4027925618      2.1643146206
 C     36.3928684163    -17.5530933034      1.3014268681
 C     36.6487049494    -17.8367934459     -0.0283273070
 C     36.1234976744    -19.0198989937     -0.4981356642
 O     36.7921696158    -16.3942692087      1.8829741312
 C     37.2389256404    -15.3461299745      0.9521567270
 H     23.3803595790    -18.0209690908     -0.4350078504
 H     23.3779511288    -16.4449599926      0.4144224198
 H     24.7822432880    -17.3860904123      2.2950676570
 H     23.6280444301    -18.8064783347      1.7798836580
 H     26.9730000705    -17.5725084052     -1.4848328315
 H     25.4935080677    -18.4708816226     -1.7203967442
 H     25.8363555795    -16.2129404585      0.3122144935
 H     24.9940315713    -16.2084435579     -1.2931112136
 H     28.3503266408    -19.8445427547      2.0764699417
 H     30.3336656291    -20.8969743922      1.5684787867
 H     29.5606856107    -21.0390728608     -2.6284323333
 H     27.3453751190    -19.8973167608     -2.2062347444
 H     30.5634386606    -23.3217761693     -1.6363841050
 H     31.8811290479    -22.5993896138     -2.6223520308
 H     32.1713743436    -24.2446425403     -0.0832298771
 H     32.8328303681    -24.6170769548     -1.6437019521
 H     37.5401342545    -23.5247347189     -0.7882610380
 H     37.8124189902    -25.1793231970     -1.3623817805
 H     34.6248032899    -20.2207704658      2.2781011333
 H     35.5653391097    -18.2124863743      3.2195356417
 H     37.2224834798    -17.2409051790     -0.7182206596
 H     36.3479234904    -19.2484793848     -1.5426687740
 H     36.5284152098    -15.2630311422      0.1443978836
 H     37.2232515699    -14.4186208240      1.4389989625
 H     38.2113727345    -15.5703261215      0.5441706621
 O     37.0116893003    -19.8521179501     11.9309463887
 H     36.9972493232    -19.3265811926     11.0879595834
 H     36.7663134009    -20.7322976494     11.6488595798
 O     25.2001594481    -26.4794014880      8.0446151568
 H     24.7097622463    -25.8879393387      7.4623517274
 H     26.1436918003    -26.3958557277      7.7323008700
 O     32.7539573925     -8.5007787260      4.4551063679
 H     33.6574642692     -8.6467249304      4.3021775675
 H     32.7322409711     -7.7771303129      5.1107794210
 O     38.6458205479    -29.7519018467      3.0004949506
 H     39.0897438335    -30.0855556130      2.2217013912
 H     37.8349300729    -30.2632795656      3.0532678047
 O     20.3861447464    -18.0370620966      0.9176177953
 H     20.9347057677    -17.3169890517      1.2183367708
 H     19.7757975896    -17.6798224705      0.3012386412
 O     42.1104727346    -13.9604034065     -1.1755656802
 H     42.5016432635    -13.2157436303     -0.6464816276
 H     42.8521697182    -14.2275468998     -1.7497273669
 O     28.3264025746    -31.4140916167     -3.4681860028
 H     28.2075255006    -31.7311706301     -4.3295150151
 H     28.1423509510    -32.1876564764     -2.9014996663
 O     25.6970442480     -9.4492194803     -5.5336392579
 H     25.0098223968     -9.2135878612     -6.2218240920
 H     25.1352160496     -9.5327173438     -4.6656951494
 O     40.6453242205    -23.0327299922     -8.1034509192
 H     41.3385274675    -23.6804447270     -8.2842525996
 H     40.5057450566    -22.6108129535     -8.9364086000
 O     27.0621061169    -21.5459622147    -12.1173546008
 H     26.4994963639    -22.3423897795    -12.0581738266
 H     26.7518134944    -21.0076814737    -11.3518425039
89
# ORCA AIMD Position Step 250, t=125.00 fs, E_Pot=-6054983.21587551 kJ mol^-1, Unit is Angstrom
 C     23.9547054158    -17.2920459898      0.2167997300
 C     24.4914688546    -18.0832689874      1.4315955303
 C     25.6878476502    -19.0434593422      1.2737387732
 N     26.5010331325    -18.8672242482      0.1227966702
 C     26.0706171968    -17.9745609338     -0.9514215546
 C     25.2721066183    -16.8266189790     -0.4362188674
 C     27.6759218001    -19.7013877582     -0.0415811933
 C     28.5607434967    -19.9913916041      1.0411145006
 C     29.7126456858    -20.6432917577      0.7579263486
 C     30.0975040513    -21.0270655423     -0.5477165756
 C     29.2477866169    -20.7738649089     -1.6156647798
 C     28.0460789233    -20.0575564521     -1.3653259851
 N     31.4078185145    -21.6070604626     -0.7212986204
 C     31.5302159457    -22.8011785230     -1.5379328455
 C     32.5757063129    -23.7714595092     -0.9669153080
 C     33.7777456700    -22.9450781122     -0.6999883438
 C     33.6913866780    -21.5763416444     -0.4217593396
 C     32.4236237149    -20.8362929553     -0.2579723966
 O     25.9132442042    -19.7810123453      2.1982704831
 O     32.4489340679    -19.6962928337      0.1666519218
 C     35.1566916986    -23.1908391252     -0.7749907749
 N     35.8944029757    -22.0746637085     -0.4971593647
 N     34.9818184388    -21.0964485510     -0.2239319434
 C     35.4252171717    -19.8706304316      0.3114992487
 C     35.7718783040    -24.4601488787     -1.1372951746
 N     37.1535274643    -24.3395618050     -1.0774729851
 O     35.1427735817    -25.4662312201     -1.3921133784
 C     35.1785726364    -19.5457577361      1.6189680091
 C     35.6890319023    -18.3967397063      2.1651962866
 C     36.3801828104    -17.5512769809      1.3169719327
 C     36.6188894782    -17.8424731519     -0.0373741071
 C     36.1229589876    -19.0015586230     -0.5204017529
 O     36.7756169274    -16.3581056245      1.8801979560
 C     37.2075428463    -15.3490474027      0.9383660382
 H     23.3974084435    -17.9772804497     -0.4129449971
 H     23.2600373853    -16.4518585125      0.4680902483
 H     24.7722046714    -17.5336860044      2.2415306914
 H     23.7896118846    -18.8075970865      1.8177007862
 H     26.9792485044    -17.5443852226     -1.4590496546
 H     25.5536114075    -18.5612783587     -1.6787686313
 H     25.8741167360    -16.1853722127      0.2081437192
 H     25.0237212903    -16.2029640792     -1.3231729148
 H     28.3165572391    -19.8227267537      2.0993347842
 H     30.3407816059    -20.9420907684      1.6035870898
 H     29.5930787317    -21.0931131947     -2.6111033204
 H     27.3329382803    -19.8280578802     -2.1312148512
 H     30.5703561650    -23.3373500555     -1.5452333505
 H     31.8614741582    -22.5533529675     -2.5033653290
 H     32.1377778456    -24.2056604692     -0.0473608705
 H     32.7581903730    -24.5942503375     -1.6279200922
 H     37.6114399148    -23.4577870888     -0.8200567404
 H     37.7272862541    -25.1066259648     -1.2866540118
 H     34.6393405365    -20.2880786018      2.1877487114
 H     35.5642984839    -18.1397541505      3.2162369087
 H     37.2100231013    -17.2154682991     -0.6995879954
 H     36.2725016973    -19.2792619856     -1.5510241073
 H     36.4981711204    -15.2738147856      0.0818839180
 H     37.2300364625    -14.3598357939      1.5023312403
 H     38.2281002429    -15.5362830378      0.5271625062
 O     37.0128740952    -19.8624379783     11.9467931945
 H     37.0131012093    -19.2472133077     11.2379725302
 H     36.6042542350    -20.6870558308     11.6157301567
 O     25.2193151315    -26.5032843783      7.9971519971
 H     24.7658995241    -25.8247272113      7.4742433882
 H     26.1176108043    -26.3615793462      7.7689873573
 O     32.7637662030     -8.4819735992      4.3763238308
 H     33.7262919791     -8.6340930958      4.1494436425
 H     32.7688602363     -7.7779263320      5.0114809138
 O     38.6271818463    -29.7608239681      2.9649540179
 H     39.1214083810    -30.1410411262      2.2216223322
 H     37.8413910362    -30.3229979647      2.9940442696
 O     20.4453032011    -18.0564552535      0.9043983714
 H     21.0519380379    -17.3669575314      1.2244665072
 H     19.9056704417    -17.5313483488      0.2536431338
 O     42.1073749172    -14.0063772066     -1.1560159661
 H     42.4753211278    -13.1721753403     -0.8836851455
 H     42.8521424769    -14.3139470420     -1.6743675119
 O     28.3210890392    -31.4080175901     -3.4407467689
 H     28.2537335030    -31.6952176236     -4.4028538060
 H     28.1576644274    -32.1953952259     -2.9377329596
 O     25.6516482186     -9.4182240794     -5.4790862823
 H     25.0947443276     -9.1391574093     -6.1817814191
 H     25.1632428861     -9.6299710000     -4.7675603317
 O     40.6753831781    -23.0223947801     -8.0596087291
 H     41.3208390586    -23.7207600309     -8.1980221210
 H     40.4679009244    -22.7407633222     -8.9839280596
 O     27.0822575250    -21.5304170551    -12.1349211920
 H     26.5202817396    -22.2944130156    -12.0338480187
 H     26.9015352775    -20.9289441587    -11.4256027349
89
# ORCA AIMD Position Step 260, t=130.00 fs, E_Pot=-6055003.59071073 kJ mol^-1, Unit is Angstrom
 C     23.9651644319    -17.2527828859      0.2430458398
 C     24.4952031643    -18.0856688832      1.4517645080
 C     25.7214428336    -19.0231555534      1.2519454393
 N     26.5023908354    -18.8811259724      0.1401453660
 C     26.0526941083    -18.0157131740     -0.9713170054
 C     25.2632501701    -16.8325694087     -0.4632824947
 C     27.6850125826    -19.7125352752     -0.0427354998
 C     28.5796972227    -20.0161281445      1.0435456748
 C     29.7402038272    -20.6545802138      0.7884402087
 C     30.1007346631    -21.0565317675     -0.5504232616
 C     29.2228284717    -20.7748938714     -1.5974026750
 C     28.0383196915    -20.0650314764     -1.3284330615
 N     31.3935906550    -21.6215665946     -0.7184186315
 C     31.5426148514    -22.8004166314     -1.5222237997
 C     32.5530463075    -23.7778106509     -0.9598604107
 C     33.7773282966    -22.9324399163     -0.7350581081
 C     33.7018012794    -21.5816441890     -0.3950782933
 C     32.4547318340    -20.8482437297     -0.2735116244
 O     25.9172676478    -19.7563076744      2.2212437452
 O     32.4483333259    -19.7059777766      0.1726014590
 C     35.1188912410    -23.1966746179     -0.7884849926
 N     35.8721776262    -22.0701624865     -0.5030637336
 N     34.9733190142    -21.0933694206     -0.2290177996
 C     35.4301288702    -19.8540162247      0.3009051099
 C     35.7799212244    -24.4544219776     -1.1308115951
 N     37.1379105201    -24.3099675817     -1.0520991463
 O     35.1624196111    -25.4922585375     -1.3888738305
 C     35.1496022688    -19.5642488590      1.6009798561
 C     35.6753857249    -18.3901728070      2.1654539563
 C     36.3785380886    -17.5200755229      1.3310789075
 C     36.5959174139    -17.8340893263     -0.0314201981
 C     36.1157363341    -19.0096922943     -0.5527561008
 O     36.7634994728    -16.3191957437      1.8681577756
 C     37.1778649880    -15.3428113988      0.9315501645
 H     23.4242479097    -17.9321314059     -0.4618970313
 H     23.2438368729    -16.5198254147      0.5607917817
 H     24.8109299987    -17.4254788935      2.3847466910
 H     23.7800686559    -18.8101701700      1.9097751961
 H     26.9483406743    -17.6029425097     -1.3765462704
 H     25.5014338392    -18.6467647689     -1.7496315554
 H     25.8932880259    -16.1839690449      0.1679599271
 H     25.0798062430    -16.1952814590     -1.3361620217
 H     28.2443164060    -19.7432337585      2.0299569093
 H     30.3883124266    -20.9545822193      1.5911397041
 H     29.5236004448    -21.0847391391     -2.5803777646
 H     27.3537287882    -19.7822661849     -2.1489321035
 H     30.5578316378    -23.2674484022     -1.5055460810
 H     31.8217675432    -22.4520561104     -2.5906098978
 H     32.1884511842    -24.1616102357      0.0021147086
 H     32.7212300765    -24.6039600965     -1.6849399734
 H     37.6056136618    -23.4235961305     -0.8758399112
 H     37.6969516804    -25.1495428278     -1.2493842710
 H     34.6199479637    -20.3265449050      2.1793188007
 H     35.5467985150    -18.0536133550      3.1843554779
 H     37.1764128711    -17.1578912980     -0.6354453895
 H     36.2162720374    -19.3271909063     -1.6012662834
 H     36.4924604276    -15.2737026731      0.0953035771
 H     37.2234790183    -14.4618124513      1.5041166072
 H     38.1845598287    -15.5286780453      0.5648681223
 O     37.0133468483    -19.8783247339     11.9680643988
 H     37.0074674938    -19.1630262051     11.3025083619
 H     36.4788604389    -20.5571194756     11.5708102444
 O     25.2331289134    -26.5237657987      7.9501257949
 H     24.8046626084    -25.7932027480      7.5085571541
 H     26.1836365238    -26.3406851046      7.7969047104
 O     32.7796817289     -8.4677892633      4.2956402383
 H     33.6728622825     -8.5887989187      4.0418895738
 H     32.8227561301     -7.7472261332      4.9423248286
 O     38.6088619260    -29.7731632168      2.9275680329
 H     39.1557496422    -30.1628726147      2.2471862079
 H     37.8481614041    -30.3540502509      2.9571595305
 O     20.5008475922    -18.0647345133      0.8856992682
 H     21.1624648224    -17.4793427639      1.2559880450
 H     20.0680457877    -17.4928773765      0.2762798173
 O     42.1110530508    -14.0470126431     -1.1385653228
 H     42.3753436330    -13.1093105811     -1.0553857928
 H     42.8177941914    -14.4817649996     -1.6348883228
 O     28.3159994918    -31.4012034586     -3.4238629990
 H     28.3060283999    -31.6346971436     -4.3253354914
 H     28.1637459321    -32.2430770568     -2.9671596954
 O     25.6284493204     -9.3850917414     -5.4359558934
 H     25.0618092071     -9.0581823977     -6.1541417796
 H     24.9749074173     -9.7815832328     -4.6999348185
 O     40.7041883626    -23.0113981878     -8.0253470863
 H     41.3045335091    -23.7615745406     -8.0900891109
 H     40.4361675689    -22.8804037779     -8.9231133064
 O     27.1073999535    -21.5146636921    -12.1583982604
 H     26.5058071865    -22.2393308073    -11.9594364754
 H     26.9926203819    -20.8718892837    -11.4458965848
89
# ORCA AIMD Position Step 270, t=135.00 fs, E_Pot=-6055015.42156238 kJ mol^-1, Unit is Angstrom
 C     23.9972883869    -17.2485134792      0.2736224261
 C     24.4988932228    -18.0846137520      1.4831287688
 C     25.7355864618    -18.9878473223      1.2541962477
 N     26.5120770040    -18.9108431982      0.1623941624
 C     26.0378095141    -18.0650601819     -0.9814647796
 C     25.2392426163    -16.8180220781     -0.4979883059
 C     27.6975391505    -19.7077254614     -0.0330972728
 C     28.5608920920    -20.0271617421      1.0320515613
 C     29.7812921463    -20.6853726435      0.7925877057
 C     30.0909364352    -21.0683233328     -0.5289762313
 C     29.2061196973    -20.7745032878     -1.5662254663
 C     28.0296926905    -20.0805905934     -1.3040422171
 N     31.3660001447    -21.6113062270     -0.6988118005
 C     31.5459216466    -22.8052388627     -1.5299273229
 C     32.5401718913    -23.7692485365     -0.9580811052
 C     33.7686925649    -22.9165736789     -0.7661741515
 C     33.7105385341    -21.5952378454     -0.3684264012
 C     32.5042714551    -20.8592211150     -0.2883298417
 O     25.9314865969    -19.7366519409      2.2317317101
 O     32.4345513039    -19.7162611247      0.1775235996
 C     35.1049165913    -23.1797423880     -0.8010141424
 N     35.8372922805    -22.0736555645     -0.5060073834
 N     34.9620847022    -21.1184318074     -0.2432125501
 C     35.4266570779    -19.8465892478      0.2687509480
 C     35.7978415137    -24.4470267408     -1.1180200723
 N     37.1256394202    -24.3037387393     -1.0357874257
 O     35.1900283215    -25.5092597560     -1.3847385197
 C     35.1334560425    -19.5744451158      1.6110595022
 C     35.6588547883    -18.3856494562      2.1551566811
 C     36.3743785444    -17.4871746338      1.3335233040
 C     36.5807825378    -17.8155255591     -0.0161183519
 C     36.1067995070    -19.0245108134     -0.5833850802
 O     36.7486077184    -16.2936274130      1.8555625570
 C     37.1577777353    -15.3364639554      0.9286602616
 H     23.4603496754    -17.8564302674     -0.4384064974
 H     23.2909785423    -16.4522076868      0.6410700335
 H     24.7790442265    -17.4196869175      2.2410556319
 H     23.7048726722    -18.7466198449      1.9337085418
 H     27.0016402123    -17.6714810058     -1.4306642328
 H     25.4935892787    -18.5918351820     -1.7250427246
 H     25.9070692316    -16.2536834914      0.1758691347
 H     25.0787290410    -16.1930450640     -1.3819608743
 H     28.2188688748    -19.6699260365      2.0037341380
 H     30.4804274252    -20.9328809505      1.6089290061
 H     29.4075243778    -21.0433463033     -2.6197575938
 H     27.4520758423    -19.8014099169     -2.1527307192
 H     30.5261800595    -23.2144900828     -1.5651835746
 H     31.7455757969    -22.5070035387     -2.5311152265
 H     32.2532512567    -24.1597198191      0.0272275323
 H     32.7104913445    -24.5783226652     -1.6555464592
 H     37.5321030265    -23.4081155209     -0.9157195579
 H     37.6749443152    -25.1510746228     -1.2088632514
 H     34.5885939368    -20.2880299366      2.2050088292
 H     35.4783215401    -18.0444527199      3.1817902358
 H     37.1387836969    -17.1030169907     -0.6215165719
 H     36.2125254670    -19.3093284778     -1.6105888347
 H     36.4408901776    -15.2269493069      0.0928767225
 H     37.1929330681    -14.3840886693      1.5349215810
 H     38.1784151223    -15.5621220115      0.5657268013
 O     37.0136991629    -19.8908318552     11.9859012332
 H     37.0082135368    -19.1125080518     11.4087946285
 H     36.3531385950    -20.4459169619     11.5267188574
 O     25.2512669228    -26.5425242098      7.9031425065
 H     24.8169626167    -25.7546071378      7.5389304592
 H     26.1966893275    -26.3447302064      7.8501363884
 O     32.7900053149     -8.4517640287      4.2201947720
 H     33.7094310332     -8.5653605602      3.9099998882
 H     32.8668461780     -7.7337431201      4.8627514451
 O     38.5913150813    -29.7851909181      2.8915601073
 H     39.2065094078    -30.1815529344      2.2604267328
 H     37.8349180329    -30.3845688340      2.9307505162
 O     20.5575844006    -18.0717615819      0.8694204585
 H     21.2864159854    -17.6191506396      1.3204629753
 H     20.1596067761    -17.4440834812      0.2377231275
 O     42.1153288401    -14.0829086814     -1.1199144730
 H     42.2754185507    -13.1424489284     -1.2596391766
 H     42.7736459150    -14.6044576884     -1.5859815420
 O     28.3109489779    -31.3946683746     -3.4001962748
 H     28.3533883819    -31.5995318150     -4.3602644680
 H     28.1746247300    -32.2648851644     -3.0023967208
 O     25.5957781147     -9.3603311702     -5.3813033593
 H     25.0182351126     -9.0018639130     -6.0690284550
 H     24.9669377561     -9.7905644977     -4.8986347214
 O     40.7337583987    -23.0027704856     -7.9915048776
 H     41.2856305528    -23.7960494870     -7.9616426239
 H     40.3815042115    -22.9884289601     -8.8996750157
 O     27.1325570344    -21.4994476761    -12.1824452506
 H     26.4914528916    -22.1583403720    -11.8635956225
 H     27.0676137352    -20.8443070602    -11.4681262894
89
# ORCA AIMD Position Step 280, t=140.00 fs, E_Pot=-6055021.43883910 kJ mol^-1, Unit is Angstrom
 C     24.0315024478    -17.2550679429      0.3037029386
 C     24.4965850164    -18.0879475363      1.4839919172
 C     25.7256963668    -18.9675141306      1.3066777580
 N     26.5177496210    -18.9352982944      0.1673628432
 C     26.0476237722    -18.0882153905     -0.9740604147
 C     25.2303993467    -16.8065861288     -0.5243977791
 C     27.7030133970    -19.6941613687     -0.0083052789
 C     28.5456509276    -20.0343552825      1.0218275155
 C     29.7941040807    -20.7091203336      0.7919822296
 C     30.0788393488    -21.0657239243     -0.4918550602
 C     29.1956334680    -20.7772037578     -1.5391552308
 C     28.0309410711    -20.1044637666     -1.2972677479
 N     31.3644448417    -21.5955255933     -0.6791248312
 C     31.5111760285    -22.8096840374     -1.5326888006
 C     32.5435352763    -23.7450154826     -0.9577370659
 C     33.7494660728    -22.9123138213     -0.7884884973
 C     33.7056001799    -21.6145702819     -0.3552155119
 C     32.5159747412    -20.8507583760     -0.2891396308
 O     25.9542644663    -19.7154218194      2.2279327781
 O     32.4186407398    -19.7323404695      0.1775536833
 C     35.1163479789    -23.1670634516     -0.8195340638
 N     35.8118596116    -22.0853927178     -0.5087437768
 N     34.9575402235    -21.1408811861     -0.2543986655
 C     35.4033528560    -19.8635764195      0.2418021980
 C     35.7954171876    -24.4525190434     -1.1074391971
 N     37.1238413017    -24.3189965180     -1.0246506664
 O     35.2280701468    -25.5068252788     -1.3757031949
 C     35.1419923644    -19.5607064900      1.6215639695
 C     35.6373263523    -18.3812291399      2.1408320099
 C     36.3573201983    -17.4745220898      1.3223460796
 C     36.5708370778    -17.8001298188     -0.0109277790
 C     36.1044805101    -19.0151999961     -0.5894190658
 O     36.7270317040    -16.2826125648      1.8514585977
 C     37.1493217468    -15.3039618513      0.9307778118
 H     23.3762999309    -17.8529048463     -0.3827400384
 H     23.4761452635    -16.3949956906      0.6312771931
 H     24.8276266090    -17.2955674278      2.2489693121
 H     23.6835722016    -18.6455894650      1.8909645786
 H     26.9143017838    -17.7872225435     -1.5064241271
 H     25.4191120475    -18.6537206625     -1.7464076677
 H     25.9197946380    -16.3043020135      0.1575161335
 H     25.0056004970    -16.1914887185     -1.4178437000
 H     28.2864352952    -19.6742362770      2.0109922987
 H     30.5079509027    -20.8624141351      1.5730660840
 H     29.3422679609    -20.9953911906     -2.5727778078
 H     27.4516320600    -19.8264553846     -2.1978341907
 H     30.5174204626    -23.2528246855     -1.6371841162
 H     31.8014035165    -22.5681750002     -2.6083662276
 H     32.2628048405    -24.1780131308      0.0157430288
 H     32.7401837080    -24.6054631197     -1.6168067388
 H     37.5018005555    -23.3451799660     -0.9292929211
 H     37.6987845451    -25.0999587244     -1.1789461509
 H     34.5372686400    -20.2403345775      2.2421155700
 H     35.3938050121    -18.1195423249      3.1570397500
 H     37.0819735723    -17.1066400230     -0.6558648707
 H     36.2655505004    -19.2569925939     -1.6608787489
 H     36.4229921472    -15.1754263789      0.1174394061
 H     37.1770003538    -14.3741273679      1.4511261861
 H     38.1376794019    -15.5612862846      0.5284009782
 O     37.0083795413    -19.9027029451     11.9960204280
 H     37.0503046490    -19.0616365141     11.5537574742
 H     36.2794967247    -20.3441474969     11.5566650769
 O     25.2686450345    -26.5591821105      7.8574771157
 H     24.8526577569    -25.7438641615      7.5798677742
 H     26.1895231621    -26.3464847794      7.8898625592
 O     32.8040580487     -8.4351233963      4.1472939382
 H     33.6976373596     -8.5479101127      3.7820478186
 H     32.8931032370     -7.7321092548      4.7786349523
 O     38.5747882075    -29.7960362581      2.8570536201
 H     39.2242456417    -30.2103887674      2.2848227983
 H     37.8457980376    -30.4165166298      2.8857724330
 O     20.6114215916    -18.0808774148      0.8533927634
 H     21.3603198139    -17.7323444752      1.3335713093
 H     20.3145053456    -17.3862367898      0.2540306618
 O     42.1128248330    -14.1182788746     -1.0985096547
 H     42.2459811865    -13.2488798870     -1.4845612407
 H     42.7659603519    -14.6423309698     -1.5634907624
 O     28.3055689791    -31.3917792279     -3.3814851006
 H     28.4051900134    -31.5322743070     -4.3364189765
 H     28.1866546155    -32.2641431602     -3.0265201969
 O     25.5654765808     -9.3304685337     -5.3385557094
 H     25.0506782123     -8.9083974333     -6.0276535408
 H     24.8612107657     -9.9299040818     -4.8860390351
 O     40.7624717428    -22.9950439593     -7.9615038125
 H     41.2509026968    -23.8079271245     -7.8424780898
 H     40.3452123319    -23.1044051262     -8.8252113379
 O     27.1521043543    -21.4849142271    -12.1986293641
 H     26.5154510802    -22.0907979418    -11.8366077042
 H     27.1803603013    -20.8024135557    -11.5377425777
89
# ORCA AIMD Position Step 290, t=145.00 fs, E_Pot=-6055018.35162388 kJ mol^-1, Unit is Angstrom
 C     24.0605536587    -17.2681632238      0.3046985634
 C     24.5102459293    -18.0549770783      1.4767645194
 C     25.7095591706    -18.9574263327      1.3545755282
 N     26.5017856915    -18.9369455213      0.1668319270
 C     26.0407742002    -18.1049511026     -0.9711690067
 C     25.2459009111    -16.8245420472     -0.5417178669
 C     27.6950826379    -19.6821133341      0.0083630189
 C     28.5585864456    -20.0443196755      1.0306869549
 C     29.7550151432    -20.7055772308      0.8000412528
 C     30.0807290982    -21.0607617051     -0.4653715701
 C     29.1909567149    -20.7828815837     -1.5131909985
 C     28.0258917693    -20.1221497995     -1.3019356024
 N     31.3823974935    -21.5918927712     -0.6773423860
 C     31.4663190678    -22.8081696155     -1.5459065879
 C     32.5489017952    -23.7288376410     -0.9611960146
 C     33.7435115246    -22.9205273475     -0.7971363894
 C     33.6845487720    -21.6289401330     -0.3601121091
 C     32.4809670075    -20.8445636936     -0.2805326672
 O     25.9856035858    -19.7066948798      2.2380537622
 O     32.4049515335    -19.7364611574      0.1792919940
 C     35.1214245269    -23.1787799830     -0.8464262221
 N     35.8183858167    -22.1004894770     -0.5130554345
 N     34.9528932010    -21.1452661745     -0.2560223740
 C     35.3733961974    -19.8870965409      0.2341208080
 C     35.7922736072    -24.4572537927     -1.1003762014
 N     37.1354687217    -24.3225363721     -1.0127172573
 O     35.2597714677    -25.5025840083     -1.3650658408
 C     35.1605074217    -19.5460279697      1.6069731556
 C     35.6149350000    -18.3726836985      2.1241282316
 C     36.3286323825    -17.4753281165      1.3066964451
 C     36.5604974685    -17.7970631286     -0.0236949204
 C     36.1038748364    -18.9922420580     -0.5762767154
 O     36.7008633563    -16.2778431676      1.8549712613
 C     37.1433349132    -15.2682284729      0.9255181402
 H     23.3015198937    -17.8095982924     -0.2448341740
 H     23.5943197890    -16.2973254870      0.6438532841
 H     24.8367811749    -17.3498920652      2.2431683190
 H     23.6375690466    -18.6728502017      1.9341118619
 H     26.9289753376    -17.8265555711     -1.6236688786
 H     25.4121868865    -18.7079299806     -1.6001221735
 H     25.9358563433    -16.2279489220      0.0983616328
 H     24.9239654789    -16.2254876975     -1.3844732421
 H     28.3849051291    -19.7277174148      2.0489291073
 H     30.5169121905    -20.8091063844      1.5914048046
 H     29.4354152745    -21.0298765511     -2.5650558091
 H     27.4123549827    -19.8857016314     -2.1357737552
 H     30.5041745224    -23.3229779149     -1.6417049563
 H     31.8593818011    -22.5815589952     -2.5498102913
 H     32.2267424926    -24.1607923298     -0.0073539864
 H     32.7663900492    -24.5985990036     -1.5932562584
 H     37.4914390540    -23.4320276479     -0.9222482123
 H     37.8098375263    -25.1183102426     -1.1835577613
 H     34.5350933703    -20.1626467215      2.2201643235
 H     35.3441781536    -18.1608186556      3.1650022696
 H     37.0501872839    -17.1115766388     -0.7146403644
 H     36.3199249872    -19.1794150287     -1.6021549330
 H     36.4102620401    -15.1540964808      0.1226202936
 H     37.2153360483    -14.2901778564      1.4543380972
 H     38.1036634279    -15.5195001906      0.4711867675
 O     37.0021782550    -19.9153755750     12.0051204373
 H     37.1066581661    -18.9793626580     11.7026144027
 H     36.2078430601    -20.2603964822     11.5924843883
 O     25.2826641622    -26.5769366532      7.8126135999
 H     24.8778654633    -25.7221641570      7.6125321659
 H     26.2403238595    -26.3367089104      7.9367344421
 O     32.8185241681     -8.4213515409      4.0727878255
 H     33.6645271553     -8.5234458909      3.6759648769
 H     32.9295015221     -7.6972059439      4.7242576768
 O     38.5593540046    -29.8054315189      2.8239663768
 H     39.2371469189    -30.2472080975      2.3034432472
 H     37.8492044868    -30.4586983186      2.8348521927
 O     20.6620346450    -18.0932289289      0.8369244212
 H     21.4360050464    -17.7945845419      1.3332461229
 H     20.4957456656    -17.3234048304      0.2960448625
 O     42.1116856545    -14.1492245624     -1.0797407205
 H     42.1863334154    -13.3733328352     -1.6849683099
 H     42.7653959302    -14.7194953143     -1.5258953272
 O     28.3010293116    -31.3858762954     -3.3653144333
 H     28.4480552692    -31.4736184008     -4.2905381730
 H     28.1944544870    -32.3047307860     -3.0381603284
 O     25.5244876482     -9.3076102455     -5.2902198208
 H     25.1030731187     -8.8007850176     -5.9992680277
 H     24.9155020762     -9.9801569754     -4.9632839229
 O     40.7895144325    -22.9878416415     -7.9336681798
 H     41.2253552322    -23.8291341539     -7.7169717091
 H     40.3189943746    -23.2024042521     -8.7352446050
 O     27.1712722738    -21.4704664908    -12.2145950849
 H     26.5134375583    -22.0694940110    -11.8154971978
 H     27.3166807362    -20.7194934505    -11.5993602185
89
# ORCA AIMD Position Step 300, t=150.00 fs, E_Pot=-6055023.75002480 kJ mol^-1, Unit is Angstrom
 C     24.0802531796    -17.2507327972      0.2949223388
 C     24.5166418521    -18.0276294176      1.4878660805
 C     25.7061212923    -18.9522260729      1.3593845353
 N     26.4711290885    -18.9165891730      0.1784272716
 C     26.0380200933    -18.1085521516     -0.9785815604
 C     25.2795551444    -16.8692166190     -0.5481680606
 C     27.6793563647    -19.6810557992      0.0084417880
 C     28.5705283054    -20.0425040878      1.0606034063
 C     29.7107312670    -20.6901360572      0.8226672980
 C     30.0932632049    -21.0565181274     -0.4611338006
 C     29.2081590921    -20.8000817920     -1.5037527866
 C     28.0101458485    -20.1284549495     -1.2871262117
 N     31.3807835575    -21.6004177654     -0.6930549562
 C     31.4454673540    -22.8105446096     -1.5522755273
 C     32.5379223300    -23.7306194929     -0.9706733188
 C     33.7571280240    -22.9328082679     -0.7917792152
 C     33.6625758633    -21.6269071048     -0.3794029101
 C     32.4343868561    -20.8616212266     -0.2704269906
 O     26.0220065872    -19.7138212419      2.2734641587
 O     32.3902408934    -19.7186539781      0.1876826142
 C     35.1121321721    -23.2004636666     -0.8726295161
 N     35.8465746774    -22.1125114929     -0.5194981255
 N     34.9406546064    -21.1477412429     -0.2528042762
 C     35.3610054581    -19.8870503500      0.2398361720
 C     35.8174543933    -24.4518673483     -1.0971319710
 N     37.1652501252    -24.3389827116     -1.0027245773
 O     35.2712387829    -25.5152926190     -1.3572617774
 C     35.1727001404    -19.5450544303      1.5626970626
 C     35.5967384201    -18.3533187678      2.1115130290
 C     36.2971468245    -17.4686647494      1.2946366706
 C     36.5501020079    -17.7949123380     -0.0462040564
 C     36.0925373483    -18.9804031659     -0.5418612866
 O     36.6758406729    -16.2711407102      1.8563520930
 C     37.1330486695    -15.2317060819      0.9218092087
 H     23.2419785047    -17.7795728520     -0.2092367648
 H     23.6662859986    -16.3308452507      0.6567311666
 H     24.8377145819    -17.3984998544      2.3389851989
 H     23.7953743208    -18.6259989388      1.9192815185
 H     26.8565922688    -17.8724895541     -1.6021356907
 H     25.3268367799    -18.7980097431     -1.5215095853
 H     25.8959968508    -16.1420668962     -0.0207356248
 H     24.8818756356    -16.2803842568     -1.4120887333
 H     28.4069131045    -19.7641836748      2.0982483040
 H     30.4219103736    -20.7869618909      1.6068122677
 H     29.5649308191    -21.0868153231     -2.4703740968
 H     27.3041162619    -19.9462279551     -2.1248004531
 H     30.4811067052    -23.3174945971     -1.5908349350
 H     31.8327921663    -22.4993133044     -2.5294133026
 H     32.1870105097    -24.1183693984      0.0031434908
 H     32.7548204646    -24.5753598272     -1.6190877108
 H     37.5869421451    -23.3735963602     -0.8664309656
 H     37.7571560766    -25.0631454550     -1.1817002818
 H     34.5331532024    -20.1715520383      2.2070763724
 H     35.3667950424    -18.1258255805      3.1335146840
 H     37.0417146411    -17.1187567526     -0.7210887406
 H     36.3495504116    -19.1769155366     -1.6077697223
 H     36.3764406851    -15.1259196948      0.1176943564
 H     37.2569141863    -14.3180735594      1.4900113318
 H     38.1047496190    -15.4829009816      0.4447421419
 O     36.9993186236    -19.9240046051     12.0150498171
 H     37.1087001381    -19.0104976839     11.8519329144
 H     36.1387633208    -20.1270498827     11.6110799076
 O     25.3036649349    -26.5896815207      7.7691214541
 H     24.8934285465    -25.7291613917      7.6460872975
 H     26.1866822839    -26.3749174352      7.9672261149
 O     32.8276616142     -8.4050834963      4.0036551714
 H     33.7061527331     -8.4958829919      3.5440843779
 H     32.9730958635     -7.7079150449      4.6250769819
 O     38.5438615464    -29.8175044612      2.7902263900
 H     39.2644060929    -30.2631275606      2.3256056040
 H     37.8423659805    -30.4765176219      2.7968718954
 O     20.7154804169    -18.1018787229      0.8209934477
 H     21.4949847999    -17.9059565147      1.3609371011
 H     20.6335056400    -17.2641071181      0.3075514686
 O     42.1179242600    -14.1750135365     -1.0745579071
 H     42.0554776377    -13.5279262935     -1.7578157838
 H     42.7167962602    -14.8412722446     -1.4014931015
 O     28.2949260025    -31.3825482843     -3.3425669509
 H     28.5066802872    -31.4333701849     -4.3175539596
 H     28.2113273074    -32.2871543812     -3.0846168197
 O     25.4926870604     -9.2827899276     -5.2430778618
 H     25.0960513668     -8.7624600037     -5.9394836033
 H     24.8890719073     -9.9966311837     -5.0610384134
 O     40.8182572496    -22.9846955004     -7.9059901690
 H     41.1925019039    -23.8030390707     -7.5785550385
 H     40.2690292086    -23.2830222550     -8.6626351048
 O     27.1916141649    -21.4551878003    -12.2315661389
 H     26.5473028736    -21.9727490440    -11.7663768648
 H     27.3937764429    -20.7289225697    -11.6699312541
89
# ORCA AIMD Position Step 310, t=155.00 fs, E_Pot=-6055007.27077939 kJ mol^-1, Unit is Angstrom
 C     24.0919536152    -17.2221220278      0.2892536980
 C     24.5479218843    -18.0062976356      1.5154481392
 C     25.7275276546    -18.9666544012      1.3544423650
 N     26.4509127476    -18.8908016158      0.2015908010
 C     26.0101938018    -18.1267883741     -0.9810641113
 C     25.2994443552    -16.9069972751     -0.5685745319
 C     27.6600310659    -19.6899881276      0.0098187099
 C     28.5411556463    -20.0127427608      1.0974229568
 C     29.6994967268    -20.6837608777      0.8363776676
 C     30.0944765470    -21.0457649790     -0.4619207074
 C     29.2344946324    -20.8185876964     -1.4944309992
 C     27.9879418226    -20.1322946860     -1.2674327935
 N     31.3452716465    -21.6124647740     -0.7106840014
 C     31.4571447188    -22.8118903785     -1.5488386221
 C     32.5136352043    -23.7427663853     -0.9836784632
 C     33.7652663508    -22.9455661555     -0.7805116683
 C     33.6569514441    -21.6140662231     -0.4062730623
 C     32.4076334669    -20.8728460411     -0.2527594486
 O     26.0518329432    -19.7141553397      2.3059791227
 O     32.3708992014    -19.7050918427      0.1943726850
 C     35.1158918174    -23.2088824482     -0.8857376526
 N     35.8632576269    -22.1173350125     -0.5284134117
 N     34.9307956440    -21.1574816354     -0.2502719790
 C     35.3689885833    -19.8706680221      0.2410553303
 C     35.8575248603    -24.4599164742     -1.1034454121
 N     37.2016333832    -24.3283264071     -0.9876894823
 O     35.2735675656    -25.5311520042     -1.3495324556
 C     35.1617716643    -19.5530918706      1.5365683782
 C     35.5842968375    -18.3341911253      2.0894808307
 C     36.2712738333    -17.4430502425      1.2828483577
 C     36.5372617794    -17.7831024707     -0.0551166685
 C     36.0781598875    -18.9915778878     -0.5298652288
 O     36.6553380666    -16.2589415854      1.8475055493
 C     37.1178510008    -15.2140799805      0.9186696720
 H     23.3150959945    -17.7396243963     -0.2667733184
 H     23.6298147679    -16.2794254728      0.6838455816
 H     24.8343884864    -17.3669579272      2.4047696811
 H     23.7232913243    -18.7271400310      1.9784760879
 H     26.9095615384    -17.9004811591     -1.6297521782
 H     25.3031879444    -18.7509789207     -1.5250134576
 H     25.9130475821    -16.1167935865     -0.0859302976
 H     24.9271051798    -16.4389876273     -1.4627035496
 H     28.3209155468    -19.7570030616      2.1181264604
 H     30.3672041028    -20.8338715086      1.7104634356
 H     29.6104904102    -21.1367745690     -2.4845383292
 H     27.2898283947    -20.0344073496     -2.0607991055
 H     30.4503992039    -23.2501140965     -1.5471712718
 H     31.7063094072    -22.4388994946     -2.5968995670
 H     32.1746931583    -24.0958094744     -0.0069896469
 H     32.6983665246    -24.5954822068     -1.6675481958
 H     37.6159224334    -23.4783602804     -0.8137826757
 H     37.7703734552    -25.2029317394     -1.2267315519
 H     34.5944570870    -20.2168759355      2.1482309359
 H     35.4027098073    -18.0470652154      3.1361716484
 H     37.0778186819    -17.1053312896     -0.7176703959
 H     36.3001315582    -19.2425936545     -1.5320690785
 H     36.3661211400    -15.0465530319      0.1626686038
 H     37.2647061588    -14.3448032698      1.5710548289
 H     38.0689840563    -15.4717089342      0.4771614891
 O     36.9924627301    -19.9378537192     12.0245576201
 H     37.1295932937    -18.9557788697     11.9866792837
 H     36.1149073951    -19.9965293767     11.6492132766
 O     25.3186474917    -26.6025082811      7.7247150806
 H     24.8908148910    -25.7413445540      7.6729445094
 H     26.2451693381    -26.4052862777      8.0216542480
 O     32.8428025133     -8.3919114358      3.9292562709
 H     33.6475143050     -8.4621179665      3.4631874492
 H     33.0203448995     -7.6769904942      4.5655726331
 O     38.5294922589    -29.8310954418      2.7558912854
 H     39.2825598832    -30.2631964462      2.3560741777
 H     37.8288066411    -30.4846529299      2.7630326462
 O     20.7728350875    -18.1023785229      0.8034421849
 H     21.5179952828    -18.0577378045      1.4011528008
 H     20.7324106327    -17.2895285787      0.3398888216
 O     42.1229266892    -14.2013141587     -1.0652773677
 H     41.9352776665    -13.6701095110     -1.8726128198
 H     42.6745087391    -14.9641850825     -1.3007963665
 O     28.2909482877    -31.3762716140     -3.3288383323
 H     28.5375337362    -31.3862329451     -4.2236208011
 H     28.2221503504    -32.3237120119     -3.1105611109
 O     25.4671421542     -9.2552144305     -5.1920872245
 H     25.0536453925     -8.7282121349     -5.8932632348
 H     24.8013196038    -10.0547958627     -5.2103327822
 O     40.8439276681    -22.9844621075     -7.8824977961
 H     41.1699494197    -23.7718409107     -7.4284930634
 H     40.2555544887    -23.3222503485     -8.5384328770
 O     27.2134746777    -21.4427135539    -12.2546002530
 H     26.5559400145    -21.8819166208    -11.6816375797
 H     27.4697665694    -20.6897569994    -11.6784543558
89
# ORCA AIMD Position Step 320, t=160.00 fs, E_Pot=-6055013.74333083 kJ mol^-1, Unit is Angstrom
 C     24.1022169047    -17.1840742762      0.3047268009
 C     24.5660279075    -18.0151611002      1.5647976925
 C     25.7581194404    -18.9910008873      1.3767583413
 N     26.4583442033    -18.8797117113      0.2163636948
 C     25.9919231961    -18.1578688117     -0.9785053810
 C     25.3018547574    -16.9127152577     -0.5935016291
 C     27.6373149423    -19.6993326158      0.0271600680
 C     28.4930521541    -19.9751832822      1.1161552909
 C     29.7064651500    -20.6768259368      0.8603393508
 C     30.0788244109    -21.0301170485     -0.4498602257
 C     29.2347241687    -20.8226288344     -1.4953779038
 C     27.9895957230    -20.1541138150     -1.2455491184
 N     31.3094640871    -21.6147633828     -0.7105720408
 C     31.4702902262    -22.8018340878     -1.5538528652
 C     32.4954737342    -23.7576556493     -1.0052104405
 C     33.7550636912    -22.9585292786     -0.7748001951
 C     33.6645482046    -21.6068070045     -0.4331436219
 C     32.4028279219    -20.8630582658     -0.2334473579
 O     26.0715213673    -19.7004145465      2.3201939282
 O     32.3461387013    -19.7143210901      0.1949647779
 C     35.1446083370    -23.2049949770     -0.8824784230
 N     35.8530335583    -22.1128291205     -0.5386396395
 N     34.9381537729    -21.1634734005     -0.2498607135
 C     35.3794499428    -19.8679207014      0.2324980741
 C     35.8854752314    -24.4848526380     -1.1163899079
 N     37.2401772514    -24.3495912610     -0.9814697853
 O     35.2833638477    -25.5349224729     -1.3398364772
 C     35.1387913823    -19.5463828863      1.5518355582
 C     35.5698186836    -18.3245387900      2.0667007820
 C     36.2521912472    -17.4067430734      1.2623652114
 C     36.5229874513    -17.7646883244     -0.0546849334
 C     36.0725458873    -19.0021539726     -0.5420785325
 O     36.6377196533    -16.2410644330      1.8283855879
 C     37.0984281756    -15.2095644543      0.9391594869
 H     23.4090893637    -17.7526569930     -0.3511599157
 H     23.6081077115    -16.2775494853      0.6192663736
 H     24.8160057495    -17.3396649224      2.3475922797
 H     23.8108992663    -18.6131935621      1.8927313105
 H     26.8553755676    -17.9592443863     -1.5661845191
 H     25.2903615885    -18.7238203864     -1.6344351340
 H     25.9812116980    -16.2049048071     -0.1387944605
 H     24.9662553959    -16.5325503652     -1.6033028916
 H     28.1871401469    -19.7090237327      2.1330936750
 H     30.3011108955    -20.9250808956      1.7064147579
 H     29.4974304251    -21.1210118124     -2.4913882017
 H     27.2620228814    -20.0905925667     -2.0839831461
 H     30.4618496127    -23.2261006695     -1.5316827492
 H     31.5664438114    -22.5185857804     -2.5757174716
 H     32.1536274127    -24.1407374757     -0.0245530667
 H     32.6190752428    -24.6018036990     -1.6579714476
 H     37.7152105828    -23.4426122332     -0.7377904133
 H     37.7086817813    -25.1543575764     -1.2030124374
 H     34.6257881425    -20.3194404191      2.1574677651
 H     35.4218441852    -18.0263850158      3.0839742923
 H     37.1031829528    -17.1280528493     -0.6985391521
 H     36.2616029326    -19.3467316773     -1.5892610044
 H     36.3264038869    -14.9316400412      0.1730429242
 H     37.2435987599    -14.3544771390      1.6114660379
 H     38.0765916135    -15.4957323808      0.4794010169
 O     36.9837479601    -19.9403671768     12.0318836826
 H     37.1929302629    -19.0192492719     12.1561150909
 H     36.0782926658    -19.9276932357     11.6868441337
 O     25.3392009117    -26.6143649856      7.6820585536
 H     24.9046783073    -25.7582586428      7.7020307063
 H     26.1983588176    -26.4459948248      8.0463915511
 O     32.8538713839     -8.3757528647      3.8598268393
 H     33.6746883012     -8.4498396831      3.3202588975
 H     33.0460440813     -7.6721782082      4.4910683145
 O     38.5149678992    -29.8415079998      2.7228941301
 H     39.2987243476    -30.2917293376      2.3779572171
 H     37.8209050608    -30.5142016280      2.7172919576
 O     20.8270045734    -18.1114088873      0.7871241057
 H     21.5480660110    -18.1632385008      1.4366475137
 H     20.8662757646    -17.2238445670      0.3623281446
 O     42.1249549089    -14.2240920214     -1.0554653122
 H     41.8854099629    -13.9322821900     -1.9318216957
 H     42.6061873892    -15.0227011430     -1.2643037122
 O     28.2849913057    -31.3735740656     -3.3082424091
 H     28.6006501496    -31.3228934355     -4.2468374199
 H     28.2319912666    -32.3196701824     -3.1289243476
 O     25.4248238440     -9.2403874847     -5.1488410036
 H     25.0826126559     -8.6448585946     -5.8202483811
 H     24.9088630799     -9.9601763772     -5.2647287255
 O     40.8724674680    -22.9842610759     -7.8560744049
 H     41.1372082501    -23.7198119597     -7.2860816178
 H     40.2061782305    -23.3815822533     -8.4537364948
 O     27.2322539712    -21.4272356867    -12.2681157671
 H     26.5914447404    -21.8056059115    -11.6661712337
 H     27.5672686684    -20.6842802655    -11.7685154062
89
# ORCA AIMD Position Step 330, t=165.00 fs, E_Pot=-6054999.02470753 kJ mol^-1, Unit is Angstrom
 C     24.1232563300    -17.1664539484      0.3196010212
 C     24.5918314868    -18.0165519752      1.5770759104
 C     25.7733618167    -18.9903921929      1.4096201824
 N     26.4836765939    -18.8924293946      0.2172523772
 C     25.9706825753    -18.2023751304     -0.9671274469
 C     25.2908226970    -16.8940852028     -0.6317230016
 C     27.6194126996    -19.7058207288      0.0484864593
 C     28.4662608531    -19.9537710070      1.1189038821
 C     29.6836546358    -20.6535835662      0.8855707578
 C     30.0525697880    -21.0164823313     -0.4244287898
 C     29.1892858683    -20.8031277008     -1.4943029541
 C     27.9975759045    -20.1902387677     -1.2352757174
 N     31.3044256270    -21.6018948333     -0.6866271785
 C     31.4501594587    -22.7916527289     -1.5500007859
 C     32.4882172794    -23.7647219582     -1.0193296908
 C     33.7472425905    -22.9696922899     -0.7808512174
 C     33.6709254822    -21.6135322468     -0.4522369676
 C     32.4101660939    -20.8578378121     -0.2325995005
 O     26.0877123421    -19.6893418465      2.3332680085
 O     32.3187091337    -19.7328934357      0.1971024200
 C     35.1715467435    -23.2040347712     -0.8686372071
 N     35.8333438018    -22.1004323220     -0.5475407825
 N     34.9572951415    -21.1590518882     -0.2534276273
 C     35.3799164850    -19.8815261549      0.2335553437
 C     35.9029448988    -24.4955257371     -1.1220107850
 N     37.2670457725    -24.3696482105     -0.9777204564
 O     35.3015741931    -25.5335658699     -1.3317019690
 C     35.1121385572    -19.5389219193      1.5866976448
 C     35.5526339205    -18.3198404201      2.0451647629
 C     36.2316632424    -17.3817732500      1.2332809937
 C     36.5077367165    -17.7555724037     -0.0630205949
 C     36.0806228866    -19.0047361858     -0.5845904316
 O     36.6176749658    -16.2205971356      1.8067807372
 C     37.0805131575    -15.2037147383      0.9664321771
 H     23.4732314565    -17.7800919853     -0.3071974962
 H     23.5685908461    -16.2306403790      0.5582837434
 H     24.8713042399    -17.2614659224      2.4054175432
 H     23.6609111713    -18.6556706937      1.9387064967
 H     26.8953886305    -17.9709036781     -1.5645450189
 H     25.3254602513    -18.7880166275     -1.6598036435
 H     26.0922968640    -16.2529100681     -0.1842126601
 H     25.0042994082    -16.5186174344     -1.5894507514
 H     28.1229199572    -19.6721806875      2.0898372288
 H     30.3300422450    -21.0219274559      1.7159396886
 H     29.3691456763    -21.1053144228     -2.5375249267
 H     27.3166598164    -20.1040519616     -2.0443295694
 H     30.4823753498    -23.3089095291     -1.5079314159
 H     31.6036024219    -22.5711456740     -2.6754683697
 H     32.1278731672    -24.1937022393     -0.0809760806
 H     32.6002705116    -24.6511263148     -1.6962763086
 H     37.7156388449    -23.5322508859     -0.7103334339
 H     37.8418290924    -25.2287714599     -1.1836271816
 H     34.6786768533    -20.3002341597      2.1923853720
 H     35.3914059961    -18.0476047831      3.1012305349
 H     37.1233980362    -17.1317466577     -0.7141980224
 H     36.2538832866    -19.3351739802     -1.5717869004
 H     36.3630447233    -14.8885969077      0.2321335556
 H     37.2517977221    -14.3506754383      1.6109259024
 H     38.0003706344    -15.4794734382      0.4839484111
 O     36.9733431062    -19.9435297586     12.0390068239
 H     37.2582593735    -19.0667555227     12.3177697317
 H     36.0663046630    -19.8645742968     11.7361251508
 O     25.3567943800    -26.6271064293      7.6387934620
 H     24.9166516545    -25.7718937800      7.7280424541
 H     26.2010089563    -26.4764979764      8.0821752564
 O     32.8687101469     -8.3599740256      3.7880737311
 H     33.6379350902     -8.4253249348      3.2212877924
 H     33.0762790138     -7.6728404228      4.4069230004
 O     38.5009475615    -29.8523103980      2.6897450372
 H     39.2873381284    -30.3210557957      2.4074871588
 H     37.8330579882    -30.5369134124      2.6652029161
 O     20.8790060641    -18.1197918376      0.7684218758
 H     21.5562909042    -18.2057258496      1.4292225745
 H     21.0468928082    -17.2315921743      0.4678152622
 O     42.1262966982    -14.2488906840     -1.0503574265
 H     41.8149997580    -14.1373869751     -1.9683604570
 H     42.5663920806    -15.1083622659     -1.1756751401
 O     28.2806714373    -31.3709199532     -3.2935334661
 H     28.6358562750    -31.2670330992     -4.1720067300
 H     28.2436034392    -32.3071108405     -3.1515214053
 O     25.3888162473     -9.2121823667     -5.1049896014
 H     25.1407617686     -8.5273150125     -5.7415901494
 H     24.8857438247    -10.1111946374     -5.3332175753
 O     40.8985792934    -22.9875501208     -7.8308401981
 H     41.0998152142    -23.6418951223     -7.1648969419
 H     40.2006193551    -23.4112083300     -8.3273772706
 O     27.2511189331    -21.4110367939    -12.2805811695
 H     26.6077371156    -21.7603210182    -11.6592448887
 H     27.6835278439    -20.6586483924    -11.8673963488
89
# ORCA AIMD Position Step 340, t=170.00 fs, E_Pot=-6055018.30305699 kJ mol^-1, Unit is Angstrom
 C     24.1538435821    -17.1622820907      0.3275156128
 C     24.5924022568    -18.0014262754      1.5831766498
 C     25.7718769000    -18.9577241217      1.4245348872
 N     26.4980134944    -18.9181978877      0.2200324377
 C     25.9658519740    -18.2400742732     -0.9666017918
 C     25.2955414661    -16.8791778541     -0.6533305906
 C     27.6209311716    -19.7172014235      0.0516562230
 C     28.4678843076    -19.9525456934      1.1146174590
 C     29.6462130696    -20.6308872958      0.9066843448
 C     30.0211946068    -21.0063370486     -0.4007287268
 C     29.1426967176    -20.7849104753     -1.4880773055
 C     27.9774894358    -20.2133102283     -1.2146079907
 N     31.3166444164    -21.5864910597     -0.6523262922
 C     31.4104507649    -22.7886610673     -1.5553218026
 C     32.4924219173    -23.7707667155     -1.0347012584
 C     33.7583368515    -22.9772475015     -0.7965359393
 C     33.6726121255    -21.6284398934     -0.4587118330
 C     32.4232040147    -20.8744914529     -0.2559910815
 O     26.1030597889    -19.6891122675      2.3586075066
 O     32.2946583271    -19.7442895269      0.2074168118
 C     35.1734816850    -23.2130526274     -0.8522077279
 N     35.8323044189    -22.0870937652     -0.5531682379
 N     34.9633322562    -21.1507377872     -0.2632213900
 C     35.3793960751    -19.8852237804      0.2466244972
 C     35.9240352730    -24.4844669997     -1.1126982597
 N     37.2879357111    -24.4149588341     -0.9845465625
 O     35.3219895472    -25.5344075755     -1.3282414538
 C     35.1003904096    -19.5340482124      1.5942646084
 C     35.5327865887    -18.3052028377      2.0419174574
 C     36.2031258299    -17.3788070867      1.2070869253
 C     36.4982023279    -17.7578989651     -0.0981596683
 C     36.0828783481    -19.0028003777     -0.6059811110
 O     36.5891755967    -16.2079542435      1.7933391749
 C     37.0697575680    -15.1846761583      0.9937475868
 H     23.4426531345    -17.8288622283     -0.1949437562
 H     23.5874642990    -16.2607157003      0.5652209229
 H     24.8969351829    -17.3813695558      2.3637487481
 H     23.7910347432    -18.5413677300      1.9565945418
 H     26.8435906640    -17.9887668171     -1.5473122920
 H     25.3676352857    -18.9311954144     -1.5609356763
 H     26.0910674952    -16.2768045747     -0.2512288107
 H     24.9544538839    -16.3630268471     -1.6000046995
 H     28.1609771528    -19.6389036065      2.1166286341
 H     30.2983992045    -20.9868017055      1.6617587830
 H     29.3224559556    -21.0989190929     -2.4967496071
 H     27.2949802792    -20.0658646958     -2.0739397421
 H     30.4832928769    -23.3672740398     -1.4975964127
 H     31.6927475241    -22.5683403802     -2.5478042029
 H     32.1169121754    -24.2279334749     -0.0977585649
 H     32.6381248907    -24.5756215588     -1.7196755167
 H     37.7062918675    -23.5310394900     -0.6839479537
 H     37.9090687776    -25.1741156942     -1.1034179506
 H     34.6591148209    -20.2545268179      2.3170863462
 H     35.3591429702    -18.0766720650      3.0714323812
 H     37.0966305134    -17.1217620963     -0.7280970641
 H     36.3193068772    -19.2739391013     -1.6712050918
 H     36.3143775336    -14.8832142955      0.2144370416
 H     37.3014111779    -14.3133399733      1.6437260971
 H     38.0080988999    -15.4658186824      0.4436223248
 O     36.9655054360    -19.9491334439     12.0459023993
 H     37.2769771521    -19.1222998914     12.4749653202
 H     36.0595231523    -19.7548528058     11.7954170896
 O     25.3752656896    -26.6371106603      7.5963119503
 H     24.9184218436    -25.8059063856      7.7394772063
 H     26.2016956951    -26.5316571343      8.1159990667
 O     32.8805097929     -8.3470394790      3.7142706696
 H     33.6252384999     -8.3925839438      3.1206142313
 H     33.1320626608     -7.6347594026      4.3492010924
 O     38.4875341699    -29.8643011163      2.6561234009
 H     39.3002588599    -30.3365948002      2.4353851187
 H     37.8109925916    -30.5555227632      2.6188868306
 O     20.9325469264    -18.1261749152      0.7498373191
 H     21.5734272446    -18.3034070305      1.4695709756
 H     21.1835030896    -17.2166954311      0.5246056500
 O     42.1290977225    -14.2816093367     -1.0573038525
 H     41.7123471933    -14.2627324455     -1.9288990861
 H     42.5327368330    -15.1529675073     -0.9711503405
 O     28.2754309270    -31.3639773085     -3.2760911091
 H     28.6810600115    -31.2250839189     -4.1322421582
 H     28.2596282878    -32.3479228008     -3.1809208161
 O     25.3482723301     -9.1979229617     -5.0594006486
 H     25.1529717733     -8.5060331581     -5.6780834756
 H     24.9771206802     -9.9421012275     -5.4101802215
 O     40.9244510833    -22.9924336244     -7.8048033656
 H     41.0841300305    -23.5532927284     -7.0200370789
 H     40.1791684974    -23.4260385386     -8.2332737516
 O     27.2709885130    -21.3966415042    -12.2981104600
 H     26.6415601149    -21.6700034999    -11.6132109094
 H     27.7689298931    -20.6475406001    -11.9268398823
89
# ORCA AIMD Position Step 350, t=175.00 fs, E_Pot=-6054999.90355762 kJ mol^-1, Unit is Angstrom
 C     24.1821800758    -17.1751385038      0.3319764335
 C     24.6084120474    -17.9689970595      1.5602272578
 C     25.7770868685    -18.9317279287      1.4334856285
 N     26.4854446617    -18.9375759069      0.2369584232
 C     25.9692007731    -18.2619994159     -0.9717380989
 C     25.2989095801    -16.8850732470     -0.6713158051
 C     27.6334918321    -19.7309565128      0.0453278894
 C     28.4762387340    -19.9560769365      1.1256631505
 C     29.6187184557    -20.6234687792      0.8990124526
 C     29.9953940757    -20.9992709040     -0.3904526438
 C     29.1353581872    -20.7885776225     -1.4623739088
 C     27.9029897343    -20.2078958284     -1.2011041001
 N     31.3127988639    -21.5872681586     -0.6246969418
 C     31.3822091682    -22.7982720411     -1.5308746133
 C     32.5009852847    -23.7624074480     -1.0399615813
 C     33.7785273489    -22.9809983296     -0.8154456909
 C     33.6770407648    -21.6412764632     -0.4547388533
 C     32.4306573174    -20.8861502224     -0.2818273504
 O     26.1080414866    -19.6808714004      2.3786875048
 O     32.2831609547    -19.7576986873      0.2201552056
 C     35.1651398057    -23.2224046973     -0.8376717110
 N     35.8530244453    -22.0823255069     -0.5546077510
 N     34.9467324101    -21.1457809946     -0.2784564524
 C     35.3827126210    -19.8741891221      0.2555362108
 C     35.9437682778    -24.4830252233     -1.0941394231
 N     37.3035729888    -24.4416939532     -0.9901047459
 O     35.3429521508    -25.5309862954     -1.3283587513
 C     35.1015781494    -19.5346609611      1.5825358522
 C     35.5130469205    -18.2842315170      2.0400722850
 C     36.1715629020    -17.3902375628      1.1878318544
 C     36.4891825104    -17.7651014766     -0.1412756039
 C     36.0783651763    -19.0043641501     -0.6126096277
 O     36.5524578571    -16.2088792313      1.7900654185
 C     37.0686115713    -15.1486985946      0.9962013477
 H     23.4158360609    -17.8195285856     -0.1203099239
 H     23.6372047396    -16.2757166450      0.6616164280
 H     24.9807450788    -17.3429134566      2.4782043446
 H     23.7539390671    -18.5828765626      2.0591734036
 H     26.8304375908    -18.0318097634     -1.6231413895
 H     25.3223689437    -19.0409151583     -1.4674386883
 H     26.0884061538    -16.2150375805     -0.2314346006
 H     24.9126258095    -16.3217566023     -1.4982889249
 H     28.2724667270    -19.6188784925      2.1124986207
 H     30.3063061881    -20.8634039964      1.7411465990
 H     29.3834578149    -21.1221407317     -2.4794800221
 H     27.2719899687    -20.0260472827     -2.0304627262
 H     30.4222142284    -23.3156728525     -1.5421230179
 H     31.7348398981    -22.4321888499     -2.5632819047
 H     32.1738751749    -24.2395987919     -0.1171111338
 H     32.7060301122    -24.5505023463     -1.8238737029
 H     37.6665609298    -23.5340001543     -0.6794117216
 H     37.9226188799    -25.2447188831     -1.0491336462
 H     34.6318320442    -20.1438180932      2.3170731040
 H     35.3325855161    -18.0254098166      3.0968443081
 H     37.0544948530    -17.0784746064     -0.7768813652
 H     36.3393721948    -19.2080868181     -1.6117886101
 H     36.3185826656    -14.8852947057      0.2701635409
 H     37.3202165990    -14.3437590216      1.6558423535
 H     37.9656130902    -15.4351567113      0.4656375116
 O     36.9588958309    -19.9510592484     12.0557299189
 H     37.2678718252    -19.2404130666     12.5873090314
 H     36.0599224905    -19.6412556038     11.8563638458
 O     25.3977618535    -26.6466061583      7.5566941175
 H     24.9089698606    -25.8372644688      7.7430743182
 H     26.1527710220    -26.6002482710      8.1054546510
 O     32.8926490518     -8.3299547061      3.6445404549
 H     33.6341232872     -8.3618995685      2.9944963238
 H     33.1632297366     -7.6574848086      4.2387597238
 O     38.4742605158    -29.8788318393      2.6216301634
 H     39.3048184015    -30.3371524150      2.4694887722
 H     37.7939869724    -30.5505913020      2.5744296280
 O     20.9934567790    -18.1288853659      0.7356692136
 H     21.5097980037    -18.4457438037      1.4723520134
 H     21.2706495213    -17.2193394210      0.5522418257
 O     42.1316993858    -14.3149949983     -1.0634836163
 H     41.6372372039    -14.4122407128     -1.8686236750
 H     42.4716491144    -15.1706495769     -0.7984088830
 O     28.2693024603    -31.3631879988     -3.2573326624
 H     28.7397666028    -31.1756959881     -4.1044197364
 H     28.2759627788    -32.2972428777     -3.2165150738
 O     25.3154823648     -9.1735354426     -5.0058175883
 H     25.1451880979     -8.4541513380     -5.6556207334
 H     24.9596443947     -9.9601740386     -5.5659795947
 O     40.9505038798    -23.0012704363     -7.7747757772
 H     41.0679436105    -23.4150138986     -6.9272601246
 H     40.1588177564    -23.4277085016     -8.1434357289
 O     27.2914764947    -21.3819798849    -12.3161646230
 H     26.7126777665    -21.5455917759    -11.5766952663
 H     27.8116970591    -20.6714592781    -11.9715129661
89
# ORCA AIMD Position Step 360, t=180.00 fs, E_Pot=-6055022.58146169 kJ mol^-1, Unit is Angstrom
 C     24.1968086712    -17.1904185229      0.3434982798
 C     24.6383215113    -17.9368558318      1.5729231094
 C     25.7940205109    -18.9311247240      1.4501820878
 N     26.4603569111    -18.9421322019      0.2580720460
 C     25.9688587126    -18.2723562235     -0.9849279336
 C     25.3092591238    -16.9104240087     -0.6599938046
 C     27.6247070549    -19.7309702857      0.0594583191
 C     28.4800965145    -19.9569119608      1.1388654576
 C     29.6301756956    -20.6347086265      0.8935010566
 C     29.9923980447    -21.0018169345     -0.3928306115
 C     29.1346241102    -20.8044769220     -1.4318098041
 C     27.8422417024    -20.2048347382     -1.2059507751
 N     31.2833062359    -21.6110402940     -0.6076921046
 C     31.3863124500    -22.7946307456     -1.5042658804
 C     32.5166142479    -23.7538622528     -1.0579127202
 C     33.7891981499    -22.9782039980     -0.8311691628
 C     33.6833367925    -21.6457051213     -0.4483761745
 C     32.4202533904    -20.8782947492     -0.2895653841
 O     26.0998494265    -19.6550293396      2.3844153109
 O     32.2894232260    -19.7794361942      0.2286718749
 C     35.1768853703    -23.2243032338     -0.8274473955
 N     35.8735685577    -22.0877355395     -0.5501614715
 N     34.9292565376    -21.1431784398     -0.2941404556
 C     35.3832096840    -19.8648065597      0.2477613839
 C     35.9543831269    -24.5019773200     -1.0731680790
 N     37.3147278729    -24.4425624128     -0.9933762059
 O     35.3609209463    -25.5255057834     -1.3309667004
 C     35.1155711100    -19.5170846370      1.5626053711
 C     35.4921848028    -18.2663896550      2.0371297790
 C     36.1497415771    -17.3967844716      1.1698977275
 C     36.4761705756    -17.7610369520     -0.1664539097
 C     36.0681620643    -19.0025325073     -0.5954225340
 O     36.5129788172    -16.2182421366      1.7886091954
 C     37.0652196494    -15.1250119726      0.9906843469
 H     23.4091933044    -17.7628938456     -0.1548827239
 H     23.7283800016    -16.2682641861      0.7364770007
 H     24.9621497471    -17.3322101665      2.3529192637
 H     23.8431673991    -18.5235417593      2.0138996759
 H     26.8004992153    -18.1360418887     -1.6930696512
 H     25.2507927584    -18.9492761959     -1.4132219407
 H     26.0175285733    -16.2379266462     -0.2064821744
 H     24.8557577500    -16.3742792100     -1.5315827935
 H     28.3165424031    -19.5636695113      2.1497514697
 H     30.2738469267    -20.6902261236      1.7354788321
 H     29.4573791663    -21.1132365617     -2.4122419936
 H     27.1533484070    -19.9999687658     -2.0426124359
 H     30.3644210566    -23.2097918044     -1.6098690070
 H     31.6135932134    -22.3761306087     -2.4627886564
 H     32.2599665105    -24.2908358468     -0.1221427559
 H     32.7062958032    -24.4640372281     -1.8196917288
 H     37.7040647715    -23.5886868903     -0.6905960456
 H     37.8227258064    -25.3417806372     -0.9875205875
 H     34.5356836575    -20.1663820039      2.2509186515
 H     35.3233817138    -17.9401636947      3.0417228748
 H     36.9784251799    -17.0719616392     -0.8256014644
 H     36.3196459890    -19.2905569547     -1.6495428552
 H     36.2841396960    -14.7832334002      0.2708867265
 H     37.3050965253    -14.3149390947      1.7237859946
 H     37.9950900093    -15.4385823036      0.4675145166
 O     36.9461703036    -19.9505869742     12.0641938244
 H     37.3339379353    -19.3396240611     12.7509518851
 H     36.0805267374    -19.5851027837     11.8925758657
 O     25.4153455679    -26.6567010744      7.5124547127
 H     24.9085261014    -25.8716494328      7.7494822064
 H     26.1772995721    -26.6602416886      8.1556979175
 O     32.9084435291     -8.3159013630      3.5667288389
 H     33.5766930498     -8.3405997861      2.9130241235
 H     33.2061809099     -7.6183428797      4.1919881121
 O     38.4614193585    -29.8904830578      2.5871521941
 H     39.2937473046    -30.3608027719      2.5015441360
 H     37.7836489992    -30.5709767164      2.5232023661
 O     21.0511503852    -18.1333883247      0.7177906403
 H     21.4662903206    -18.5395392167      1.4877346919
 H     21.3750156584    -17.2482356929      0.6310854991
 O     42.1357049379    -14.3429783046     -1.0653903722
 H     41.5712951065    -14.6418697600     -1.8196603835
 H     42.3758295844    -15.2052467521     -0.6802469536
 O     28.2662854174    -31.3561649513     -3.2440497500
 H     28.7559566417    -31.1278558602     -4.0053139846
 H     28.2850603709    -32.3421687856     -3.2323342677
 O     25.2728070881     -9.1557185120     -4.9674365115
 H     25.1811914764     -8.3973846032     -5.5254567129
 H     25.0468949054     -9.8727278839     -5.5777527751
 O     40.9750259282    -23.0102172809     -7.7463026315
 H     41.0508333010    -23.2885892353     -6.8156603696
 H     40.1688475272    -23.4157833546     -8.0375416806
 O     27.3108789325    -21.3671852535    -12.3322290240
 H     26.7386639758    -21.4669208127    -11.5449110334
 H     27.9233988682    -20.6468687909    -12.0475434098
89
# ORCA AIMD Position Step 370, t=185.00 fs, E_Pot=-6055004.25452704 kJ mol^-1, Unit is Angstrom
 C     24.1986361703    -17.1969385680      0.3562600290
 C     24.6834880782    -17.9267155432      1.5848870736
 C     25.8010478681    -18.9280922278      1.4611142954
 N     26.4428129031    -18.9376450399      0.2631182449
 C     25.9568849160    -18.2636352119     -0.9845835861
 C     25.3122675046    -16.9457733334     -0.6401177220
 C     27.5851290305    -19.7200925960      0.0894066855
 C     28.4822864568    -19.9546720000      1.1486661904
 C     29.6546224621    -20.6388214547      0.8993274154
 C     30.0108632541    -21.0183249516     -0.3903990054
 C     29.1027805940    -20.8156114272     -1.4120338318
 C     27.8287555817    -20.2183285952     -1.2244224164
 N     31.2520409514    -21.6429371121     -0.5921471147
 C     31.3957740068    -22.7789103382     -1.4718697581
 C     32.5326906765    -23.7408997601     -1.0726000957
 C     33.7916902660    -22.9662687074     -0.8399614004
 C     33.6782942505    -21.6415080009     -0.4482700163
 C     32.3915016352    -20.8808473631     -0.2818453087
 O     26.0880437878    -19.6276476202      2.3945617854
 O     32.3098375942    -19.7945484684      0.2364002823
 C     35.2093473515    -23.2210388005     -0.8230224199
 N     35.8789148841    -22.0966924505     -0.5382304830
 N     34.9356402166    -21.1385084086     -0.3043400782
 C     35.3751423769    -19.8667372027      0.2277889518
 C     35.9591819786    -24.5083914349     -1.0512646740
 N     37.3156271110    -24.4425180180     -0.9973951714
 O     35.3692209535    -25.5329475051     -1.3364604842
 C     35.1184799474    -19.4980130315      1.5534746773
 C     35.4748200988    -18.2567488612      2.0181177224
 C     36.1429168256    -17.3883541895      1.1503830528
 C     36.4546088566    -17.7445370602     -0.1643506348
 C     36.0615605350    -19.0078120352     -0.5955454177
 O     36.4769250582    -16.2220423028      1.7770194609
 C     37.0533780795    -15.1129027529      0.9914070109
 H     23.4020678253    -17.7102675957     -0.2102580413
 H     23.8238333413    -16.2367867045      0.7047194483
 H     24.9971962564    -17.1222417694      2.3628050160
 H     23.8234439265    -18.5083832751      1.9941015415
 H     26.7639287078    -18.2377958687     -1.7036223862
 H     25.1072651113    -18.8518356330     -1.4697161419
 H     26.0440994950    -16.2373016287     -0.1817815238
 H     24.8928751153    -16.5418567680     -1.5578636765
 H     28.2999577531    -19.5250186300      2.1040383153
 H     30.3837424246    -20.6193094676      1.7337907454
 H     29.4802282311    -21.0901104774     -2.4042508556
 H     27.1118627073    -20.0683704711     -1.9975459639
 H     30.4038726884    -23.1888494086     -1.5915542795
 H     31.5583979737    -22.3726342173     -2.5190170669
 H     32.3256769941    -24.3327431852     -0.1821039081
 H     32.6778441185    -24.5056767395     -1.8957518890
 H     37.8636308411    -23.6024274201     -0.6548297071
 H     37.7105099894    -25.3362048428     -0.9278426206
 H     34.5009059133    -20.1919398722      2.0810783451
 H     35.2803032528    -17.8645644834      3.0286574785
 H     36.9173360352    -17.0665853359     -0.8832361530
 H     36.2305408949    -19.3912726393     -1.5662761264
 H     36.3327340864    -14.6830024391      0.2934877149
 H     37.2556089155    -14.3670348664      1.7238673021
 H     37.9695810899    -15.4226144113      0.4902942905
 O     36.9380056706    -19.9449318505     12.0792273802
 H     37.3411447393    -19.5299197208     12.8162460376
 H     36.0853583686    -19.5207810421     11.9294140675
 O     25.4385965734    -26.6669960142      7.4724994237
 H     24.9211663394    -25.9141135850      7.7541264623
 H     26.1047484921    -26.7142061328      8.1268983551
 O     32.9212709852     -8.2986221619      3.4942724916
 H     33.5864728574     -8.3179752131      2.7663500792
 H     33.2336798810     -7.6259727559      4.0988519833
 O     38.4480772423    -29.9010579433      2.5521517331
 H     39.2761003271    -30.3997392085      2.5345729514
 H     37.7845593552    -30.5967602056      2.4677826831
 O     21.1043161820    -18.1438122235      0.6961000087
 H     21.4338726825    -18.5717218734      1.5034395919
 H     21.5248244596    -17.2534886694      0.7768329230
 O     42.1342159421    -14.3822897647     -1.0720439673
 H     41.5655099908    -14.7829194948     -1.7098357375
 H     42.3036094545    -15.1636624128     -0.5449052349
 O     28.2597955405    -31.3554413100     -3.2253601194
 H     28.8258850202    -31.0556675041     -3.9821884625
 H     28.2950965633    -32.3091542411     -3.2524154671
 O     25.2303663109     -9.1384254294     -4.9297665060
 H     25.2261595831     -8.2740708963     -5.3944596474
 H     25.1104343137     -9.8353497141     -5.5650628621
 O     41.0024700938    -23.0197302278     -7.7126282922
 H     41.0317780136    -23.1355445738     -6.7573888543
 H     40.1413586007    -23.4216281253     -7.9473456223
 O     27.3324102275    -21.3464894832    -12.3413123153
 H     26.7839175163    -21.4038795474    -11.5739735069
 H     27.9907674785    -20.6937935826    -12.1794975553
89
# ORCA AIMD Position Step 380, t=190.00 fs, E_Pot=-6054991.39160545 kJ mol^-1, Unit is Angstrom
 C     24.1992240438    -17.1937171154      0.3565912536
 C     24.7178956838    -17.9064570141      1.6114710598
 C     25.7888806258    -18.9023632712      1.4604749352
 N     26.4318301183    -18.9316779514      0.2470491540
 C     25.9165546445    -18.2631461461     -0.9691196895
 C     25.3258927742    -16.9719380788     -0.6146018482
 C     27.5479505482    -19.7249757630      0.1023626906
 C     28.4841082929    -19.9515851210      1.1386087451
 C     29.6869175321    -20.6233779195      0.9210911650
 C     30.0130312017    -21.0392156929     -0.3750775085
 C     29.0624546485    -20.8276010200     -1.4120768986
 C     27.8534192370    -20.2380807445     -1.2087837989
 N     31.2442782107    -21.6650879826     -0.5710566529
 C     31.4055358622    -22.7606426334     -1.4655892059
 C     32.5513304880    -23.7398899212     -1.1026307916
 C     33.8013951680    -22.9511004233     -0.8429949412
 C     33.6625048835    -21.6326680269     -0.4593452917
 C     32.3637150118    -20.9115185137     -0.2644854763
 O     26.0803983363    -19.6113949409      2.4207742683
 O     32.3362997247    -19.7945643393      0.2463020442
 C     35.2309683149    -23.2163878576     -0.8237461682
 N     35.8754268670    -22.0988756329     -0.5180222397
 N     34.9597119907    -21.1353876222     -0.3069115224
 C     35.3652723525    -19.8683602257      0.2117174490
 C     35.9546803849    -24.4908995043     -1.0353779237
 N     37.3218556303    -24.4326306930     -0.9971976458
 O     35.3716559405    -25.5479090266     -1.3404037753
 C     35.1045488223    -19.4912357126      1.5352712834
 C     35.4602671314    -18.2481613477      1.9952104165
 C     36.1439207351    -17.3689524304      1.1362563954
 C     36.4291424464    -17.7273156649     -0.1614022886
 C     36.0529423536    -19.0162340051     -0.6003904435
 O     36.4465773510    -16.2094361304      1.7509244660
 C     37.0293381928    -15.1208999202      1.0034292245
 H     23.3967621708    -17.6962696341     -0.1712274030
 H     23.8359766561    -16.1713721765      0.6230174141
 H     25.0011555751    -17.1365971077      2.2761857959
 H     23.8363426408    -18.4630854965      2.0660159749
 H     26.7708297829    -18.2292989536     -1.6870023521
 H     25.1173107068    -18.7779728179     -1.4652158142
 H     26.0640632112    -16.2689356170     -0.2455390266
 H     24.9565149741    -16.6333757526     -1.6001504456
 H     28.2654117872    -19.4966875591      2.1191979141
 H     30.4695618848    -20.6720446998      1.6474853300
 H     29.3838422248    -21.0715889024     -2.4177422580
 H     27.1032078753    -20.2027828816     -2.0205274318
 H     30.4410267571    -23.3366309298     -1.4720287781
 H     31.6091715674    -22.4510598044     -2.5064101282
 H     32.3177513812    -24.3618860284     -0.2130682636
 H     32.6331539799    -24.4467219319     -1.8897271403
 H     37.8665054876    -23.7304373339     -0.6471799305
 H     37.7200180811    -25.4082684910     -0.8708522509
 H     34.4661234426    -20.2246259162      2.0551573358
 H     35.2142791295    -17.8810325026      2.9696254643
 H     36.8725046786    -17.0597902937     -0.8825124566
 H     36.2040637029    -19.4278008659     -1.6274641849
 H     36.3585074760    -14.6433179849      0.2731187816
 H     37.2636272506    -14.3606236391      1.7921545911
 H     37.9587889194    -15.4162525135      0.4978089217
 O     36.9291907440    -19.9453351299     12.0883383154
 H     37.3299861570    -19.6547726914     12.9342570832
 H     36.1161847227    -19.4265446696     12.0154641473
 O     25.4588881285    -26.6772446304      7.4290315709
 H     24.9053621878    -25.9402345843      7.7450266810
 H     26.1148090592    -26.7915564052      8.1521991257
 O     32.9363414977     -8.2830681093      3.4155786334
 H     33.5469544164     -8.2780662469      2.6873457379
 H     33.2805315275     -7.6165671936      4.0048817618
 O     38.4355865929    -29.9152364856      2.5160757025
 H     39.2536699641    -30.4105519102      2.5710642066
 H     37.7724950153    -30.5977920642      2.4120778498
 O     21.1632912990    -18.1484332976      0.6799515543
 H     21.3618616191    -18.6300418342      1.4801420396
 H     21.6012293457    -17.3360594761      0.8833458230
 O     42.1318668907    -14.4304187549     -1.0766139925
 H     41.5080901730    -14.8644213448     -1.6968531513
 H     42.2930318141    -15.0598467748     -0.3423488450
 O     28.2559340794    -31.3499640841     -3.2104892031
 H     28.8423524136    -31.0314361585     -3.8794882289
 H     28.3163845539    -32.3008778780     -3.2846752528
 O     25.1863121918     -9.1146970414     -4.8822142686
 H     25.2674753375     -8.2540647636     -5.2833166110
 H     25.1899823619     -9.7869049696     -5.6723358054
 O     41.0256171199    -23.0315657502     -7.6763057729
 H     41.0340787041    -22.9748711074     -6.7183277854
 H     40.1691351480    -23.3985370525     -7.8636800643
 O     27.3531748440    -21.3308433154    -12.3588283266
 H     26.8298735818    -21.3042491317    -11.5362935485
 H     28.0801496749    -20.6892574079    -12.2515376713
89
# ORCA AIMD Position Step 390, t=195.00 fs, E_Pot=-6055004.11624450 kJ mol^-1, Unit is Angstrom
 C     24.2023522715    -17.1689924983      0.3550207328
 C     24.7074981726    -17.8812063487      1.6265137233
 C     25.7780240746    -18.8799767564      1.4677244679
 N     26.4159513932    -18.9318810047      0.2320485838
 C     25.8912691171    -18.2774050007     -0.9479386344
 C     25.3380129015    -16.9786509203     -0.6067869142
 C     27.5436924044    -19.7565518118      0.0904627247
 C     28.4841355065    -19.9392441849      1.1289278243
 C     29.7098203295    -20.5952381080      0.9264661562
 C     29.9780758930    -21.0548371096     -0.3568765659
 C     29.0582223718    -20.8547938219     -1.4139731350
 C     27.8641610379    -20.2514960225     -1.1646907337
 N     31.2565794654    -21.6728399275     -0.5476865688
 C     31.4085201152    -22.7790598241     -1.4751018342
 C     32.5692204146    -23.7351440784     -1.1198748449
 C     33.8188473826    -22.9443466106     -0.8453351378
 C     33.6559781508    -21.6250425527     -0.4801997172
 C     32.3609962183    -20.9384195159     -0.2316315716
 O     26.0729328316    -19.5935454636      2.4429559475
 O     32.3620019299    -19.7969153910      0.2524947616
 C     35.2204610984    -23.2088429526     -0.8267225664
 N     35.8762339737    -22.0898131825     -0.4910296789
 N     34.9736769486    -21.1401452671     -0.3025198062
 C     35.3609969794    -19.8658093721      0.2046781200
 C     35.9420020766    -24.4812888991     -1.0367374267
 N     37.3270946289    -24.4551656723     -0.9974390505
 O     35.3771158855    -25.5472804187     -1.3355722131
 C     35.0697588983    -19.5022057437      1.5108252769
 C     35.4466699064    -18.2465042354      1.9640367836
 C     36.1389959040    -17.3532900873      1.1334227248
 C     36.4031237004    -17.7246215103     -0.1755791232
 C     36.0465596007    -19.0187712883     -0.6240560093
 O     36.4197946322    -16.1795438070      1.7182698402
 C     37.0081920304    -15.1265375247      1.0283583890
 H     23.3788722353    -17.7639971870     -0.0957898737
 H     23.7922277622    -16.1945739209      0.5638290578
 H     25.1168589817    -17.1133297941      2.3619615716
 H     23.9455007859    -18.3540330383      2.1982435308
 H     26.7181540124    -18.1257303348     -1.6068975493
 H     25.1104912274    -18.9134509459     -1.4702539751
 H     26.1212737206    -16.2632623249     -0.2906750513
 H     24.9832798798    -16.5783311370     -1.5721558328
 H     28.2722088364    -19.5415967303      2.0872945855
 H     30.5127503812    -20.7617381862      1.6667370653
 H     29.2376708680    -21.1203513199     -2.4579758565
 H     27.1840675773    -20.3120055738     -1.9902632494
 H     30.5703894246    -23.4327617298     -1.3633957087
 H     31.6357618336    -22.4770518565     -2.5003094596
 H     32.2896049124    -24.3313463580     -0.2523706977
 H     32.6554620752    -24.4405426888     -1.9968490307
 H     37.8667584403    -23.6436897826     -0.5350099249
 H     37.7195231087    -25.3226983729     -0.8813921395
 H     34.4975123062    -20.1535828268      2.1479977880
 H     35.1339699346    -17.9274090174      2.9704821195
 H     36.8704092321    -17.0175806578     -0.8618583642
 H     36.2377331018    -19.2931358537     -1.6359103344
 H     36.3336626693    -14.6862844724      0.2628109503
 H     37.2736967124    -14.4132646057      1.7732457517
 H     37.9460543642    -15.4321647895      0.5160487763
 O     36.9211108025    -19.9431167951     12.1010269559
 H     37.2738699300    -19.8108735512     12.9935905079
 H     36.1773037778    -19.3435666021     12.1122572277
 O     25.4812966862    -26.6854002313      7.3896165552
 H     24.9113020627    -26.0006568438      7.7108809628
 H     26.0775726274    -26.8748674413      8.1210793194
 O     32.9493504166     -8.2682507713      3.3355909347
 H     33.5340520518     -8.2423529202      2.5704334663
 H     33.3398104145     -7.5835449411      3.9334174087
 O     38.4233341424    -29.9298749240      2.4790769162
 H     39.2466195822    -30.4176381678      2.6112858492
 H     37.7364489965    -30.6000065132      2.3518102379
 O     21.2244702134    -18.1545378954      0.6683686905
 H     21.2362213334    -18.7668005188      1.4411795095
 H     21.6685780532    -17.3299404645      0.9473443451
 O     42.1294639664    -14.4820882288     -1.0795545043
 H     41.4955781383    -14.9548097548     -1.6053364328
 H     42.2345973322    -14.9110841969     -0.2401715198
 O     28.2496139801    -31.3439000293     -3.1921099880
 H     28.8947332158    -30.9840837845     -3.8197660077
 H     28.3402823432    -32.3219407283     -3.3220367402
 O     25.1428896822     -9.1014376654     -4.8424363100
 H     25.3034982608     -8.2235595284     -5.2112936871
 H     25.2500481641     -9.5717514977     -5.5980198641
 O     41.0507235220    -23.0434775940     -7.6368295010
 H     41.0489207880    -22.7973187034     -6.6896401236
 H     40.1627388647    -23.3915476119     -7.8015215786
 O     27.3738951447    -21.3150492978    -12.3765574845
 H     26.9402232919    -21.1700070345    -11.5343606576
 H     28.1176187340    -20.7128348694    -12.2924753852
89
# ORCA AIMD Position Step 400, t=200.00 fs, E_Pot=-6054984.56727549 kJ mol^-1, Unit is Angstrom
 C     24.2000170665    -17.1426214411      0.3624211346
 C     24.6936413162    -17.8214435974      1.6458884801
 C     25.7756193529    -18.8760772495      1.4853027354
 N     26.4017197752    -18.9487974103      0.2424586805
 C     25.8730670513    -18.3142067560     -0.9360567498
 C     25.3360572580    -16.9593490857     -0.6165119822
 C     27.5594053017    -19.7883822862      0.0831764653
 C     28.4949635558    -19.9275794562      1.1208093020
 C     29.7125605895    -20.5637101235      0.9182602624
 C     29.9466399076    -21.0726975439     -0.3516334186
 C     29.0822771821    -20.8962225860     -1.4078737937
 C     27.8632760667    -20.2725179167     -1.1253230697
 N     31.2669321251    -21.6764648314     -0.5296518116
 C     31.4269635673    -22.8204329278     -1.4801687484
 C     32.5932030497    -23.7318702791     -1.1422815579
 C     33.8286717538    -22.9486415496     -0.8519001605
 C     33.6732149326    -21.6225016850     -0.5032829458
 C     32.3904414711    -20.9405750107     -0.1910041132
 O     26.0637626686    -19.5665273293      2.4489667154
 O     32.3832700177    -19.8092842301      0.2557838557
 C     35.1971344569    -23.1987604375     -0.8278682590
 N     35.8823291331    -22.0800794000     -0.4639359445
 N     34.9618531223    -21.1481509776     -0.2913142502
 C     35.3609272206    -19.8685713947      0.1961346997
 C     35.9364422388    -24.4910487230     -1.0534906587
 N     37.3287906324    -24.4508279298     -0.9874078346
 O     35.3807381005    -25.5307330277     -1.3237928169
 C     35.0322122243    -19.5036152098      1.4897276896
 C     35.4260383060    -18.2534383669      1.9379737581
 C     36.1212162632    -17.3500934349      1.1319550920
 C     36.3821945739    -17.7274007938     -0.1987098620
 C     36.0429399860    -18.9952771880     -0.6475017888
 O     36.3882953218    -16.1501845412      1.6977772893
 C     36.9989341747    -15.1288240089      1.0321651076
 H     23.4635372646    -17.8212530019     -0.0444338343
 H     23.6830072255    -16.1721729549      0.5986257153
 H     25.2174259198    -17.1503710197      2.3577343149
 H     23.8895059328    -18.3207933178      2.3611079201
 H     26.7425161134    -18.0701334973     -1.6304525541
 H     25.1991385746    -19.0057931680     -1.4241192940
 H     26.1459715815    -16.3084424053     -0.2523125017
 H     24.9546625041    -16.4551580389     -1.5032640820
 H     28.2621153338    -19.5590379298      2.1367229363
 H     30.3969616078    -20.7816073391      1.7157172877
 H     29.1775003599    -21.2493777246     -2.4307955281
 H     27.1693478420    -20.2965469493     -1.9712448292
 H     30.5260726213    -23.4768946513     -1.3721731326
 H     31.5367128279    -22.4229907033     -2.5380355371
 H     32.2934496784    -24.3318505059     -0.2618409223
 H     32.7347502308    -24.3769469908     -1.9850036764
 H     37.6837039845    -23.7002464803     -0.5177842536
 H     37.8024493413    -25.4035788573     -0.8975961668
 H     34.5266373123    -20.1039668615      2.2556283217
 H     35.1160653429    -17.9764703549      2.9252289629
 H     36.8773681805    -17.0102172707     -0.8410224690
 H     36.2968063074    -19.1776336795     -1.7096931814
 H     36.3132780708    -14.7371591196      0.2922507936
 H     37.2785732670    -14.3596130266      1.7955950201
 H     37.9090617793    -15.4562476984      0.5440979690
 O     36.9127257368    -19.9394670553     12.1196149040
 H     37.2431780768    -19.9924518862     13.0109329283
 H     36.2151353543    -19.2586182611     12.1653860630
 O     25.5056916298    -26.6970830332      7.3474720451
 H     24.8933378916    -26.0248155108      7.7016373815
 H     26.0399991816    -26.9448411551      8.0929497917
 O     32.9665180795     -8.2484449184      3.2569830179
 H     33.5074093112     -8.2149892850      2.4447739755
 H     33.3525460729     -7.6143517104      3.8163882982
 O     38.4107622965    -29.9437715615      2.4412086697
 H     39.2043480753    -30.4395723696      2.6470147031
 H     37.7364890289    -30.6032989231      2.2959367145
 O     21.2850965446    -18.1638375070      0.6594378783
 H     21.1237283588    -18.7983807778      1.3344290530
 H     21.6898214352    -17.3940260100      1.0572036844
 O     42.1313692124    -14.5266271646     -1.0839075521
 H     41.4630651979    -15.1133530766     -1.4724009967
 H     42.1245143658    -14.8255931151     -0.1531245391
 O     28.2455081786    -31.3438681394     -3.1767267321
 H     28.9309110600    -30.9293114817     -3.7308090175
 H     28.3448507039    -32.2518551839     -3.3342194753
 O     25.0978233274     -9.0769459470     -4.7973149122
 H     25.3306258647     -8.1427754117     -5.0309898229
 H     25.3318160730     -9.5752618436     -5.6995760254
 O     41.0758706691    -23.0543279835     -7.5926013155
 H     41.0530121108    -22.6481084227     -6.7386158367
 H     40.1749899288    -23.3736112150     -7.7206136495
 O     27.3965756440    -21.2958321432    -12.3910971093
 H     27.0031191070    -21.0751492166    -11.5389587894
 H     28.1820466406    -20.7433662882    -12.3847745110
89
# ORCA AIMD Position Step 410, t=205.00 fs, E_Pot=-6054986.38122100 kJ mol^-1, Unit is Angstrom
 C     24.1902647811    -17.1095903827      0.3921987235
 C     24.6783830211    -17.7650425247      1.6848500101
 C     25.7620892118    -18.8727469458      1.4936522054
 N     26.3999679187    -18.9832132560      0.2772325055
 C     25.8829157301    -18.3400518791     -0.9439237356
 C     25.3161258040    -16.9299197816     -0.6235104175
 C     27.5689207925    -19.7923032421      0.1087406527
 C     28.5112373096    -19.9133962901      1.1328758851
 C     29.6862677807    -20.5351697519      0.9016678993
 C     29.9659631559    -21.0990857851     -0.3535349882
 C     29.0920701029    -20.9407066510     -1.3947707767
 C     27.8657529205    -20.3175730028     -1.1334934973
 N     31.2727340083    -21.6878833803     -0.5178099818
 C     31.4357638075    -22.8565228363     -1.4848582526
 C     32.6195394543    -23.7296452456     -1.1573050925
 C     33.8227542183    -22.9526638974     -0.8629745663
 C     33.7016621511    -21.6240608539     -0.5185302327
 C     32.4329718282    -20.9416224522     -0.1687885812
 O     26.0579124006    -19.5414198296      2.4537930565
 O     32.4001503722    -19.8156559347      0.2666792795
 C     35.1979254910    -23.1952654613     -0.8258370333
 N     35.8832931862    -22.0822677900     -0.4443547649
 N     34.9388086630    -21.1512322932     -0.2745440409
 C     35.3595572961    -19.8738485236      0.1782539016
 C     35.9510647853    -24.4945872976     -1.0715583731
 N     37.3152496746    -24.4548871202     -0.9796869102
 O     35.3677977497    -25.5224084074     -1.3147569616
 C     35.0039642389    -19.4911299163      1.4776823482
 C     35.4014227183    -18.2610162015      1.9166278521
 C     36.0918527352    -17.3546304155      1.1195624310
 C     36.3700591749    -17.7161645792     -0.2072917055
 C     36.0379671286    -18.9630494169     -0.6754079379
 O     36.3457314061    -16.1409075723      1.7010713476
 C     37.0035881810    -15.1127315762      1.0225242188
 H     23.5182578316    -17.8560100238     -0.0878155671
 H     23.6169347212    -16.2313070932      0.6215308642
 H     25.2865601677    -17.0943245236      2.2942029027
 H     23.9549472532    -18.1630081620      2.2732584276
 H     26.6837068825    -18.1791025095     -1.6043535863
 H     25.1926247006    -19.0486159040     -1.4561376623
 H     26.1516732427    -16.3936214800     -0.1549236578
 H     24.9230570819    -16.3648633899     -1.4967255407
 H     28.2588283183    -19.5806826744      2.1014343055
 H     30.2920293726    -20.7431249057      1.7907945945
 H     29.2517478823    -21.4243780237     -2.3538086388
 H     27.1193148557    -20.1919785866     -1.9059408960
 H     30.4949195692    -23.3890669274     -1.4644087217
 H     31.3886061956    -22.4188902576     -2.4592608358
 H     32.3647561645    -24.3597918933     -0.3033505023
 H     32.8462294954    -24.4226872203     -2.0031583827
 H     37.6541138085    -23.6149325468     -0.4081419388
 H     37.7863441583    -25.2932192740     -0.9151050697
 H     34.5358480657    -20.1320981041      2.2050436934
 H     35.1404004868    -17.9629311013      2.9407325539
 H     36.8911667738    -17.0306548306     -0.8697434837
 H     36.2877093826    -19.1867424307     -1.6931296666
 H     36.2966039974    -14.6813175826      0.2546453059
 H     37.2268500595    -14.3451707269      1.7345991100
 H     37.9434790632    -15.4805725576      0.5232542112
 O     36.9018241760    -19.9325147389     12.1375327585
 H     37.2118771967    -20.1890098059     13.0413745229
 H     36.2915788834    -19.2116456519     12.2217652073
 O     25.5273128057    -26.7061254664      7.3032882229
 H     24.9081959025    -26.0820388368      7.6778064891
 H     26.0188949342    -27.0283217354      8.1007315399
 O     32.9821629176     -8.2334154165      3.1701620732
 H     33.4584221988     -8.1869741870      2.3594357981
 H     33.4159495922     -7.5648993565      3.7661473756
 O     38.3987599495    -29.9550526063      2.4028810765
 H     39.1592880500    -30.4793700607      2.6832161056
 H     37.7275314695    -30.6328489032      2.2367595880
 O     21.3430428659    -18.1728622111      0.6431025594
 H     21.0202611765    -18.8277702701      1.3062775809
 H     21.6952919675    -17.4847721895      1.2244655586
 O     42.1286010169    -14.5776676715     -1.0832655064
 H     41.4717555507    -15.2422430121     -1.3547285238
 H     42.0452112791    -14.6800622753     -0.1269617098
 O     28.2423314859    -31.3346349363     -3.1609149439
 H     28.9374195827    -30.8947121474     -3.6216028299
 H     28.3641528334    -32.3055909617     -3.3685539424
 O     25.0593018131     -9.0529822431     -4.7720208664
 H     25.3180627741     -8.1619927954     -4.8047212838
 H     25.3398723498     -9.4633546383     -5.5200484676
 O     41.1007182987    -23.0662211492     -7.5493713677
 H     41.0595645040    -22.4811262857     -6.7582667552
 H     40.1956213846    -23.3574821644     -7.6411596938
 O     27.4205225637    -21.2736572956    -12.4023600751
 H     27.0381512505    -21.0034756620    -11.5547811387
 H     28.2618499123    -20.7919158261    -12.5230990691
89
# ORCA AIMD Position Step 420, t=210.00 fs, E_Pot=-6054976.46039122 kJ mol^-1, Unit is Angstrom
 C     24.1764148179    -17.0985227531      0.4197498431
 C     24.7069160105    -17.7075719652      1.6944955243
 C     25.7306392610    -18.8577445705      1.4940747227
 N     26.4014812980    -19.0183464214      0.3067290614
 C     25.8819759557    -18.3526028843     -0.9494763261
 C     25.2927517232    -16.9110959916     -0.6149868519
 C     27.5749793947    -19.7813616720      0.1383275021
 C     28.5082836161    -19.8939203540      1.1466131926
 C     29.6687906165    -20.5287207364      0.8900913624
 C     30.0255610841    -21.1200853328     -0.3427050326
 C     29.0835140872    -20.9947626272     -1.3823551129
 C     27.8654671278    -20.3646413881     -1.1525390944
 N     31.2906284835    -21.7102501751     -0.5077851882
 C     31.4242014933    -22.8658900852     -1.4767209098
 C     32.6430928276    -23.7489598777     -1.1821903979
 C     33.8222007107    -22.9469553890     -0.8765972811
 C     33.7102847143    -21.6286123364     -0.5209698181
 C     32.4620658776    -20.9533808857     -0.1771121365
 O     26.0559171674    -19.5257025115      2.4705099159
 O     32.4147381452    -19.8128944843      0.2877955455
 C     35.2257232693    -23.2026403621     -0.8228152988
 N     35.8742996536    -22.0957047490     -0.4340534481
 N     34.9360346867    -21.1492769031     -0.2563656524
 C     35.3539692068    -19.8599955805      0.1569789439
 C     35.9655790287    -24.4845433325     -1.0811536971
 N     37.2969805176    -24.4204904763     -0.9618234488
 O     35.3392246165    -25.5269984324     -1.3128159992
 C     34.9918070162    -19.4806681622      1.4556518251
 C     35.3747748412    -18.2541600008      1.9163886364
 C     36.0556119725    -17.3526099472      1.0983115957
 C     36.3697792322    -17.6868904057     -0.2067993573
 C     36.0178375296    -18.9514516003     -0.6887171035
 O     36.2994675974    -16.1456002736      1.7161604108
 C     37.0061552685    -15.0969062679      0.9844581119
 H     23.5308940213    -17.7930204333     -0.0910122746
 H     23.5452954258    -16.1902618094      0.6137823185
 H     25.2997607079    -16.9196800249      2.2791129292
 H     23.7836888930    -18.1308393462      2.3536945226
 H     26.7781475700    -18.2984358202     -1.6658041607
 H     25.1292063339    -18.9798288906     -1.4640459775
 H     26.1489696442    -16.4097821322     -0.1137136481
 H     24.9788841875    -16.3661009424     -1.4899669187
 H     28.2586913450    -19.5430924290      2.1668707919
 H     30.2827629781    -20.6716900441      1.7628352819
 H     29.3486298179    -21.5383866109     -2.2946199695
 H     27.1089974614    -20.1492280298     -1.8993549728
 H     30.4477638200    -23.3904961587     -1.4685649316
 H     31.4224368788    -22.4104642517     -2.5277021094
 H     32.4433589321    -24.4210838174     -0.3268330880
 H     32.8917860781    -24.4489804364     -1.9762811998
 H     37.6691687592    -23.6949910941     -0.4278075834
 H     37.8232770549    -25.3272362488     -0.9004710551
 H     34.4852777758    -20.2339109442      2.0718209854
 H     35.1926801431    -17.9333921046      2.9252448061
 H     36.8945505627    -17.0380272044     -0.8996621364
 H     36.2548242608    -19.2942808577     -1.7099863107
 H     36.3945069764    -14.6427735469      0.2369990346
 H     37.2057253178    -14.3013119395      1.7362501852
 H     37.9112197987    -15.4465413931      0.5427057166
 O     36.8963751412    -19.9321727788     12.1562310765
 H     37.1037847276    -20.2982688969     12.9910006807
 H     36.3572441993    -19.1473177423     12.3496773454
 O     25.5525446221    -26.7181589694      7.2652083737
 H     24.9028362693    -26.1177679726      7.6428371920
 H     25.9636146284    -27.0885371828      8.0167936363
 O     32.9973767918     -8.2149408325      3.0909444463
 H     33.4530499762     -8.1404439189      2.2230120404
 H     33.4449134709     -7.5857039477      3.6336332120
 O     38.3869178936    -29.9701215234      2.3645017157
 H     39.1132768078    -30.4925842013      2.7192418189
 H     37.7159548863    -30.6296369249      2.1728861103
 O     21.3976238593    -18.1852659243      0.6376613989
 H     20.9186504053    -18.8237073402      1.1705504481
 H     21.6890648971    -17.5809429486      1.3441287776
 O     42.1189970864    -14.6352557130     -1.0759368582
 H     41.5193813011    -15.3274534870     -1.3142335274
 H     42.0342919997    -14.4822356832     -0.1275012811
 O     28.2357687990    -31.3342549652     -3.1438822824
 H     28.9957383104    -30.8496057735     -3.5428358439
 H     28.3853919881    -32.2281893722     -3.3891988378
 O     25.0106324457     -9.0306635628     -4.7291502388
 H     25.3684829003     -8.0869841241     -4.6227769721
 H     25.4408079077     -9.4157956290     -5.5684422227
 O     41.1254104492    -23.0735954719     -7.4994602043
 H     41.0893273061    -22.3676492751     -6.8620112764
 H     40.1987619822    -23.3601242394     -7.5769326558
 O     27.4452197066    -21.2527654686    -12.4167387959
 H     27.1342348672    -20.9057192206    -11.5908581612
 H     28.2728372597    -20.8430567596    -12.5945972923
89
# ORCA AIMD Position Step 430, t=215.00 fs, E_Pot=-6054986.59879964 kJ mol^-1, Unit is Angstrom
 C     24.1585117563    -17.0871391975      0.4271817618
 C     24.7294189646    -17.6612977748      1.7095336610
 C     25.7059329868    -18.8434577268      1.5147009426
 N     26.3855254814    -19.0356254220      0.3063125336
 C     25.8837055225    -18.3461219399     -0.9533256471
 C     25.2947993919    -16.9155761583     -0.5845583158
 C     27.5792011440    -19.7771526105      0.1394053178
 C     28.4859335426    -19.8700740856      1.1693960051
 C     29.6834113982    -20.5464216107      0.8862556359
 C     30.0682514684    -21.1199337000     -0.3217383735
 C     29.0823241666    -21.0624639360     -1.3631753309
 C     27.8602370785    -20.3948407340     -1.1443982178
 N     31.3296628851    -21.7398168035     -0.4991709018
 C     31.4027800853    -22.8539520535     -1.4785707218
 C     32.6540432130    -23.7837599495     -1.2026883976
 C     33.8432608762    -22.9414015536     -0.8937340053
 C     33.6972727363    -21.6339324357     -0.5125583623
 C     32.4658400618    -20.9525023439     -0.2005672563
 O     26.0484361398    -19.5103635721      2.4903705333
 O     32.4279087510    -19.8223662867      0.3084992623
 C     35.2470379259    -23.2124639304     -0.8224261923
 N     35.8677747561    -22.1075646108     -0.4283574462
 N     34.9603433799    -21.1503037069     -0.2436907845
 C     35.3427009880    -19.8245400672      0.1395873482
 C     35.9475152852    -24.4823141137     -1.0806539088
 N     37.2973057789    -24.3981957502     -0.9455941419
 O     35.3135599890    -25.5234373542     -1.3148420895
 C     34.9886312228    -19.4827690314      1.4273978675
 C     35.3489705749    -18.2414546879      1.9248788103
 C     36.0160274380    -17.3350867056      1.0825543095
 C     36.3735162805    -17.6645794683     -0.2185612111
 C     35.9905007906    -18.9607220058     -0.6939704510
 O     36.2614221939    -16.1459525282      1.7213578549
 C     36.9968399589    -15.0855658179      0.9647568016
 H     23.4241260619    -17.7793336600     -0.0370434420
 H     23.5976861343    -16.1785977827      0.5799380357
 H     25.1889713083    -16.8726200540      2.2333186266
 H     23.9735315763    -17.9775490159      2.2816299592
 H     26.7060086088    -18.3279082989     -1.5912418825
 H     25.0555631781    -18.8933543204     -1.4117123490
 H     26.1119816025    -16.3411093648     -0.1608957369
 H     25.0310862659    -16.3858120090     -1.5381798143
 H     28.3128993090    -19.5126015064      2.1475100864
 H     30.4129190296    -20.5980465658      1.7018174295
 H     29.3398825444    -21.5390722023     -2.2967513509
 H     27.1648440198    -20.2659558808     -1.9748696401
 H     30.4917241756    -23.4479925821     -1.3868378788
 H     31.5874789204    -22.4912489738     -2.4710808481
 H     32.4863563823    -24.4487018608     -0.3460078654
 H     32.8699756011    -24.4679684597     -2.0367519815
 H     37.7428817722    -23.6211034799     -0.4117801020
 H     37.7579936042    -25.2776744919     -0.9077892828
 H     34.4392055802    -20.2482061199      1.9502227239
 H     35.1996326807    -17.9087461678      2.9570608012
 H     36.8908820432    -16.9911846184     -0.8903906466
 H     36.2252056271    -19.3320702895     -1.6796073084
 H     36.3979728936    -14.6218623785      0.1203971338
 H     37.2071015740    -14.3438817294      1.7123262609
 H     37.9785866832    -15.4653858030      0.5475261293
 O     36.8882962131    -19.9280980165     12.1693053999
 H     37.0027936149    -20.4265305418     13.0183990392
 H     36.4571874825    -19.1233211997     12.4903693601
 O     25.5751194817    -26.7277070833      7.2233413252
 H     24.8874051397    -26.1454758142      7.5943080436
 H     25.9618563462    -27.1976081085      8.0041007788
 O     33.0131791668     -8.1988519590      3.0047390305
 H     33.4114720107     -8.1006377811      2.1482725987
 H     33.5017925742     -7.5604546709      3.5450753086
 O     38.3758406719    -29.9864012240      2.3263527600
 H     39.0699139534    -30.4926569997      2.7544499658
 H     37.6897918025    -30.6197135824      2.1034987623
 O     21.4471905593    -18.1988870475      0.6426051217
 H     20.8087236857    -18.8503715264      0.9728219239
 H     21.6942557802    -17.6546269674      1.3786846350
 O     42.1142400661    -14.6881409465     -1.0683952050
 H     41.5232031595    -15.4528424021     -1.2267389058
 H     41.9896515425    -14.3229086708     -0.1768163863
 O     28.2326069717    -31.3260388678     -3.1279089550
 H     28.9898352432    -30.8450995426     -3.4284468371
 H     28.4170185922    -32.2340850454     -3.4276047531
 O     24.9672113476     -9.0049332516     -4.6915903770
 H     25.3709266370     -8.2007409435     -4.5038447321
 H     25.5042310782     -9.2321517343     -5.4667359534
 O     41.1475559118    -23.0816343193     -7.4501794259
 H     41.1239622390    -22.2504444068     -6.9517398980
 H     40.2387316183    -23.3564069537     -7.5137640925
 O     27.4646270615    -21.2374786282    -12.4345562101
 H     27.2563717654    -20.7684372243    -11.5949560638
 H     28.3434434387    -20.8434746648    -12.6447204543
89
# ORCA AIMD Position Step 440, t=220.00 fs, E_Pot=-6054989.48554018 kJ mol^-1, Unit is Angstrom
 C     24.1444300929    -17.0840528231      0.4072169508
 C     24.7592911466    -17.6233193938      1.6888734022
 C     25.7117419195    -18.8314592081      1.5474664339
 N     26.3469342660    -19.0325206454      0.2833579793
 C     25.8621945724    -18.3209476222     -0.9206661186
 C     25.3140777813    -16.9341108076     -0.5656207723
 C     27.5689906313    -19.7813541444      0.1178796798
 C     28.4889212915    -19.8702202587      1.1724271088
 C     29.7166726210    -20.5607245632      0.9063326656
 C     30.0707691351    -21.1130223062     -0.3122062707
 C     29.0882504402    -21.1231462840     -1.3244119201
 C     27.8685564630    -20.4208432297     -1.1162668202
 N     31.3690433163    -21.7596753590     -0.4907371277
 C     31.4132715353    -22.8551568291     -1.4667876660
 C     32.6565953914    -23.8151754189     -1.2156149036
 C     33.8668645893    -22.9500614144     -0.9161571351
 C     33.6970582579    -21.6381519376     -0.5003856139
 C     32.4551507921    -20.9391692373     -0.2244228899
 O     26.0312379960    -19.4921325578      2.5104341476
 O     32.4368188335    -19.8478570669      0.3226623844
 C     35.2374242972    -23.2133077038     -0.8257928940
 N     35.8807252312    -22.1082542530     -0.4229151582
 N     34.9855246661    -21.1582086139     -0.2421776075
 C     35.3233884839    -19.7990873823      0.1287191683
 C     35.9159211065    -24.4852338231     -1.0666969434
 N     37.3029800657    -24.3798381552     -0.9290839883
 O     35.2979376847    -25.5079818629     -1.3195360902
 C     34.9893082941    -19.4747969321      1.4127529534
 C     35.3236269569    -18.2345624615      1.9303864519
 C     35.9771188977    -17.3101516178      1.0765805757
 C     36.3665124720    -17.6649397792     -0.2392530353
 C     35.9768362483    -18.9539856243     -0.6991112424
 O     36.2379038278    -16.1294094907      1.7055360021
 C     36.9811178403    -15.0949201165      0.9469650958
 H     23.3738038822    -17.7535050176      0.0679421574
 H     23.6788223253    -16.0821704649      0.5867544059
 H     25.2648437207    -16.7706041333      2.2937741511
 H     23.9187068767    -18.0032762898      2.4749042887
 H     26.7403714368    -18.2492648444     -1.6587786179
 H     25.0072110908    -18.8834200670     -1.3702379717
 H     26.1063843309    -16.2348370761     -0.1709006120
 H     25.0311765429    -16.4862771762     -1.4979897729
 H     28.3368070624    -19.4309109356      2.1833099718
 H     30.5226974314    -20.5314467852      1.6313081384
 H     29.2505202318    -21.5023363759     -2.3541910433
 H     27.2358804993    -20.4581883695     -2.0004972409
 H     30.5270738876    -23.4784089693     -1.3441737439
 H     31.6528827476    -22.5049562459     -2.5101392173
 H     32.4877137244    -24.4706417079     -0.3515227435
 H     32.8012885588    -24.4410365072     -2.1194850899
 H     37.7234010706    -23.5729742955     -0.4834544174
 H     37.7561695548    -25.2901619858     -0.9107857474
 H     34.3956547454    -20.2042565817      1.9638360191
 H     35.1428171851    -17.9356222394      2.9527254392
 H     36.8797344439    -16.9328179001     -0.8632579553
 H     36.2384574739    -19.2956986344     -1.7027017784
 H     36.4195648698    -14.7179203293      0.1273003174
 H     37.2063347835    -14.3371787910      1.7201444993
 H     37.9158401005    -15.4864593670      0.6152808974
 O     36.8797151529    -19.9244916955     12.1936076321
 H     36.9030912570    -20.5356418777     12.9239414451
 H     36.5638550457    -19.1109983807     12.5749072754
 O     25.5986051391    -26.7388533975      7.1859803592
 H     24.9114497481    -26.2045603895      7.5444058848
 H     25.9064493543    -27.2505192478      7.9210013260
 O     33.0292272604     -8.1814091792      2.9209132261
 H     33.3792356683     -8.0689749406      2.0279227282
 H     33.5457038555     -7.5479981748      3.4635792634
 O     38.3652001158    -29.9999546007      2.2877427023
 H     39.0101154790    -30.5152726498      2.7874369628
 H     37.6740121198    -30.6292118874      2.0429195623
 O     21.4907052729    -18.2186743349      0.6453219646
 H     20.7268936028    -18.8117686180      0.7754245133
 H     21.6667675297    -17.7290392524      1.4731654532
 O     42.1122370091    -14.7389564427     -1.0654562646
 H     41.5450873796    -15.4994274376     -1.0223807564
 H     41.8829715253    -14.2769005964     -0.2687436518
 O     28.2282490862    -31.3218035198     -3.1118066537
 H     29.0194661199    -30.8009828070     -3.3259657792
 H     28.4323286749    -32.2163119332     -3.4560553899
 O     24.9276747490     -8.9818366194     -4.6589400070
 H     25.3752778640     -8.1566105713     -4.2737519645
 H     25.5037397683     -9.1645174096     -5.3978400331
 O     41.1728522576    -23.0873927624     -7.3991642683
 H     41.1450547871    -22.1711151671     -7.0749932674
 H     40.2423684036    -23.3514154073     -7.4439095946
 O     27.4902421800    -21.2140624352    -12.4464467653
 H     27.3500485925    -20.6973582472    -11.6671589703
 H     28.3442123882    -20.9065357305    -12.7210435252
89
# ORCA AIMD Position Step 450, t=225.00 fs, E_Pot=-6055000.96268175 kJ mol^-1, Unit is Angstrom
 C     24.1490633695    -17.0650613471      0.3921478730
 C     24.7663048079    -17.5946785631      1.7008968891
 C     25.7400557836    -18.8072721992      1.5610700140
 N     26.3087270936    -19.0244238644      0.2633374451
 C     25.8429994392    -18.2899569908     -0.8861403164
 C     25.3372271705    -16.9516402900     -0.5546744120
 C     27.5451537236    -19.7902506227      0.1003925883
 C     28.5227028692    -19.8905310565      1.1601276843
 C     29.7439683533    -20.5532732929      0.9416351466
 C     30.0584692813    -21.1234439832     -0.3157727495
 C     29.0874762338    -21.1618709134     -1.2816688818
 C     27.8944594107    -20.4588945314     -1.0838770484
 N     31.3785829838    -21.7587202149     -0.4835661819
 C     31.4663715443    -22.8739028854     -1.4538626602
 C     32.6574437920    -23.8288050924     -1.2226706300
 C     33.8653522271    -22.9663519354     -0.9382158189
 C     33.7250012161    -21.6456240478     -0.4959196895
 C     32.4569398919    -20.9404169745     -0.2448394179
 O     26.0104635169    -19.4773767588      2.5365953169
 O     32.4371588852    -19.8706211187      0.3338866077
 C     35.2151273595    -23.2026693145     -0.8296153042
 N     35.9115457565    -22.1036029005     -0.4198556236
 N     34.9898719464    -21.1649758766     -0.2507146576
 C     35.3008327664    -19.8051761896      0.1218818419
 C     35.9070883876    -24.4772802135     -1.0406794069
 N     37.2894966073    -24.3793802675     -0.9215189761
 O     35.2870322441    -25.4928305839     -1.3271792082
 C     34.9828437923    -19.4538973776      1.4245574096
 C     35.3028578664    -18.2277542937      1.9191350111
 C     35.9440867677    -17.2929387536      1.0742107112
 C     36.3417005032    -17.6714831782     -0.2453440889
 C     35.9850635730    -18.9235637869     -0.7182804670
 O     36.2240592999    -16.0994138072      1.6740966712
 C     36.9595189722    -15.1221105458      0.9590765004
 H     23.3484965851    -17.7476522353      0.0721794555
 H     23.7704838484    -16.0708970646      0.5942870964
 H     25.3503834978    -16.8838661020      2.2023185304
 H     24.0973217939    -17.9392303316      2.4173511854
 H     26.6036576312    -18.1794200514     -1.6094136409
 H     25.0597616281    -18.8699897855     -1.3603113271
 H     26.0440801662    -16.2538537175     -0.1632421484
 H     24.9445721471    -16.5436301680     -1.5319425440
 H     28.3445897449    -19.3926683330      2.0763888977
 H     30.5655744985    -20.4753736985      1.6453136991
 H     29.1858884345    -21.4826880398     -2.2915177434
 H     27.2109065891    -20.5719224474     -1.9258929443
 H     30.5141068153    -23.4322009597     -1.3864322922
 H     31.5155008123    -22.4830428417     -2.4737651654
 H     32.4750199085    -24.5115475346     -0.3802322022
 H     32.7358048043    -24.3924185677     -2.1384170188
 H     37.6809967928    -23.5362481559     -0.5469540355
 H     37.8272169146    -25.2600714630     -0.8895604319
 H     34.4110106689    -20.1283371385      2.0482905481
 H     35.0376245561    -17.9743691142      2.9462942464
 H     36.8516217323    -16.9441045664     -0.8571949342
 H     36.2618418039    -19.2236934511     -1.7257159899
 H     36.3547832077    -14.7680111192      0.0715212118
 H     37.1478530863    -14.3167848746      1.6549489890
 H     37.9397975196    -15.5722328399      0.6265444130
 O     36.8711366477    -19.9222087339     12.2154454410
 H     36.8091006234    -20.6415694710     12.8515130855
 H     36.6650129710    -19.0807243254     12.6761561207
 O     25.6241127621    -26.7512209566      7.1441273941
 H     24.8814883156    -26.2205407406      7.5232965074
 H     25.8727087687    -27.3273021324      7.8813005542
 O     33.0475231766     -8.1619947949      2.8385326454
 H     33.3420457001     -8.0335951274      1.9233233340
 H     33.5587628667     -7.5705043063      3.3449550002
 O     38.3548130579    -30.0131273881      2.2491810956
 H     38.9271988975    -30.5427671995      2.8077789315
 H     37.6785416085    -30.6383571698      1.9945528885
 O     21.5283258404    -18.2400874574      0.6471916322
 H     20.7043373922    -18.7057225198      0.6542236176
 H     21.5574161439    -17.8842961470      1.5336278007
 O     42.1091093749    -14.7901654503     -1.0618760244
 H     41.5716539134    -15.5807580033     -0.8433151662
 H     41.7896315590    -14.1903202200     -0.3445937698
 O     28.2262135775    -31.3191847414     -3.0979423586
 H     29.0207029918    -30.7802893368     -3.2110147012
 H     28.4394712483    -32.1495402408     -3.4618436832
 O     24.8940722900     -8.9455386462     -4.6212604691
 H     25.2604632684     -8.2738593881     -4.0618492600
 H     25.5288595241     -9.1456937983     -5.3913924508
 O     41.1969105118    -23.0900014145     -7.3480028074
 H     41.1635663327    -22.1518375654     -7.2061542068
 H     40.2678118550    -23.3367337655     -7.3689224788
 O     27.5166608978    -21.1907092549    -12.4589545205
 H     27.3913194431    -20.6145748838    -11.6818833380
 H     28.3840884905    -20.9806936498    -12.8447617130
89
# ORCA AIMD Position Step 460, t=230.00 fs, E_Pot=-6054954.76106026 kJ mol^-1, Unit is Angstrom
 C     24.1760632916    -17.0438194019      0.3993371962
 C     24.7846223317    -17.5902592503      1.6937123327
 C     25.7692132062    -18.7761500620      1.5514433850
 N     26.2978016642    -19.0289205287      0.2709227674
 C     25.8242353983    -18.2720384880     -0.8591727990
 C     25.3184314285    -16.9500367039     -0.5659165353
 C     27.5318893640    -19.8083010297      0.1039038062
 C     28.5558718955    -19.9135563681      1.1211642433
 C     29.7642928060    -20.5323612155      0.9638813875
 C     30.0627408127    -21.1513099449     -0.2987195248
 C     29.0769534052    -21.1779629006     -1.2426889906
 C     27.8993380313    -20.4993353695     -1.0522263400
 N     31.3596123946    -21.7446494102     -0.4832017402
 C     31.5130039974    -22.8954778114     -1.4387658632
 C     32.6574091767    -23.8205519400     -1.2247308660
 C     33.8432560340    -22.9747401807     -0.9496076908
 C     33.7545533210    -21.6590231467     -0.5081480735
 C     32.4798666955    -20.9607055965     -0.2522457255
 O     25.9921187269    -19.4632648254      2.5602128266
 O     32.4300628273    -19.8828956352      0.3424519371
 C     35.2165723530    -23.1899734383     -0.8299133253
 N     35.9377844617    -22.1027206033     -0.4242542227
 N     34.9804816567    -21.1632607167     -0.2641084285
 C     35.2895610681    -19.8209871078      0.1168504332
 C     35.9181039796    -24.4673326733     -1.0162295473
 N     37.2629253961    -24.3938767073     -0.9172291466
 O     35.2798895564    -25.4790881049     -1.3343019615
 C     34.9698272113    -19.4391860995      1.4378743997
 C     35.2858871447    -18.2023350054      1.9022407517
 C     35.9214782373    -17.2851132328      1.0709387227
 C     36.3041766752    -17.6622568788     -0.2260636767
 C     35.9912242520    -18.9055503051     -0.7342550826
 O     36.2064269387    -16.0733805884      1.6444374895
 C     36.9406277999    -15.1581823304      0.9569835752
 H     23.4044357456    -17.6785624745     -0.0020800959
 H     23.7584391957    -16.0365521852      0.5889797486
 H     25.5340000572    -16.8322251814      2.1536393035
 H     24.0460807129    -17.9367691593      2.5230028453
 H     26.6478878279    -18.1590923019     -1.6307031035
 H     25.0415439562    -18.8647960654     -1.4102401101
 H     26.1056641440    -16.2615270168     -0.1319869043
 H     24.9311522189    -16.5713400215     -1.4844940234
 H     28.3453846340    -19.3485766392      2.0557348556
 H     30.5314633010    -20.4514688773      1.7332386350
 H     29.2378098654    -21.5984660458     -2.2584370550
 H     27.1246926037    -20.5839427063     -1.8073465010
 H     30.5402252950    -23.3707079908     -1.4120437743
 H     31.4042894579    -22.4370178606     -2.4484953067
 H     32.4700600519    -24.5518359558     -0.4340802606
 H     32.7560027352    -24.4257268085     -2.1660597868
 H     37.6566446394    -23.4728797703     -0.6002350212
 H     37.8556535669    -25.1678232636     -0.8663114458
 H     34.4615223180    -20.1028454603      2.1319586073
 H     34.9581531213    -17.9640239043      2.9057205752
 H     36.8339477337    -16.9809024230     -0.8955006104
 H     36.2808309645    -19.1645938709     -1.7475318060
 H     36.3921864927    -14.8200584399      0.0908975143
 H     37.0789715330    -14.2623973064      1.5901732491
 H     37.8846543644    -15.5716072608      0.6339219634
 O     36.8637843608    -19.9164865524     12.2342408816
 H     36.6908831051    -20.6882176402     12.8089100643
 H     36.7713725730    -19.1641125768     12.7949028205
 O     25.6452145641    -26.7613514462      7.1073273491
 H     24.9181291923    -26.2739591066      7.4520065621
 H     25.8415382061    -27.4018953802      7.8136230327
 O     33.0611558683     -8.1477678819      2.7514908326
 H     33.3092712175     -7.9911853087      1.8501758730
 H     33.6408837818     -7.5181882174      3.2727563456
 O     38.3453070892    -30.0274140178      2.2115344429
 H     38.8622913873    -30.5544942366      2.8360819077
 H     37.6527214961    -30.6437109755      1.9250725938
 O     21.5580309562    -18.2635536408      0.6533942740
 H     20.6445915971    -18.6295818434      0.4936037654
 H     21.4830805826    -18.0232858760      1.5952141262
 O     42.0956418261    -14.8416728392     -1.0473620489
 H     41.6757914401    -15.6412284555     -0.7347253283
 H     41.7829539444    -14.1188484237     -0.5228090609
 O     28.2219791629    -31.3092252031     -3.0803852521
 H     29.0136717330    -30.7837656245     -3.1047411097
 H     28.4901519475    -32.1753646810     -3.5184427499
 O     24.8584115196     -8.9178905880     -4.5903158443
 H     25.2374474481     -8.3476241818     -3.9100308767
 H     25.4964604923     -9.0344490146     -5.2200247418
 O     41.2197756711    -23.0929844689     -7.2966116963
 H     41.1994899471    -22.1069902445     -7.3408167783
 H     40.2937189915    -23.3419882326     -7.2956602653
 O     27.5416465265    -21.1683683955    -12.4714160634
 H     27.4930401758    -20.5401293395    -11.7531722944
 H     28.3849477092    -21.0314140916    -12.9118334303
89
# ORCA AIMD Position Step 470, t=235.00 fs, E_Pot=-6054991.05782291 kJ mol^-1, Unit is Angstrom
 C     24.2107102081    -17.0125747881      0.4275578702
 C     24.8179239992    -17.5920046013      1.6981723059
 C     25.7843798627    -18.7646130019      1.5498238032
 N     26.3185768802    -19.0457568272      0.3021943214
 C     25.8231274450    -18.2853161084     -0.8752568324
 C     25.2911318906    -16.9147141426     -0.5688864677
 C     27.5450423921    -19.8374471804      0.1287558828
 C     28.5560009023    -19.9057353740      1.0919160230
 C     29.7883599339    -20.5162249119      0.9590737816
 C     30.0828295050    -21.1802737023     -0.2469670752
 C     29.0743664987    -21.1937824243     -1.2266083047
 C     27.8547223421    -20.5305449844     -1.0243335192
 N     31.3459778311    -21.7342101492     -0.4914785926
 C     31.5085378822    -22.8887780432     -1.4335426879
 C     32.6646832344    -23.8141926314     -1.2378563404
 C     33.8405938815    -22.9721364568     -0.9439021605
 C     33.7515499968    -21.6711866486     -0.5357529624
 C     32.5014590896    -20.9777911714     -0.2334675149
 O     25.9787287746    -19.4393991797      2.5641234684
 O     32.4226350780    -19.8950421067      0.3425797327
 C     35.2436752806    -23.1853550914     -0.8268737919
 N     35.9398652832    -22.1044734824     -0.4375538472
 N     34.9796772610    -21.1553725590     -0.2789944475
 C     35.2956881102    -19.8217786467      0.1170030141
 C     35.9204349171    -24.4724207146     -1.0090395698
 N     37.2433183125    -24.3898070869     -0.9074792232
 O     35.2779598562    -25.4625130184     -1.3363411755
 C     34.9587327144    -19.4391643445      1.4348162650
 C     35.2637244406    -18.1674009793      1.8888412522
 C     35.9102698105    -17.2725605931      1.0683720898
 C     36.2685053835    -17.6386674721     -0.2079313384
 C     35.9772622535    -18.9168745197     -0.7264882833
 O     36.1720078887    -16.0690713220      1.6328148349
 C     36.9308531562    -15.1687744567      0.9355024851
 H     23.4432883428    -17.6338956650     -0.0618728455
 H     23.7123247346    -16.0480653669      0.5830899636
 H     25.4811684468    -16.8399200574      2.0577772979
 H     24.0985772944    -17.8433134461      2.4855622451
 H     26.6751424210    -18.2036338132     -1.5389266628
 H     25.0469030771    -18.8210549890     -1.4024234725
 H     26.1174492471    -16.3390403402     -0.2078275184
 H     24.9485530776    -16.4714243211     -1.5461592547
 H     28.3929766025    -19.3998366239      2.0044018538
 H     30.4496680887    -20.4652570591      1.8107475444
 H     29.2943650252    -21.7307803407     -2.1184441378
 H     27.0644351960    -20.5783939773     -1.7731047992
 H     30.5539121968    -23.4525350220     -1.3469467253
 H     31.5137162534    -22.4479575296     -2.4384323292
 H     32.4799999412    -24.5644517231     -0.4473576336
 H     32.8364578137    -24.4147065347     -2.1012929832
 H     37.6035666812    -23.5251272548     -0.6696809011
 H     37.8957123219    -25.2209696300     -0.8602256426
 H     34.5106232501    -20.1379125391      2.1388854245
 H     34.9371650842    -17.8645515351      2.8786838822
 H     36.8026338160    -16.9985241877     -0.8860710578
 H     36.2816406932    -19.1487928072     -1.7554060752
 H     36.4237542946    -14.8334133240     -0.0045912362
 H     37.0415983498    -14.2808749720      1.5433793124
 H     37.9328241834    -15.5537082567      0.6316248033
 O     36.8562632253    -19.9161457869     12.2515613776
 H     36.5854263138    -20.6713472627     12.7492092713
 H     36.8680944535    -19.2254089012     12.9531683625
 O     25.6696873462    -26.7760851911      7.0715171229
 H     24.8957730953    -26.2786049314      7.3984590685
 H     25.8151654774    -27.4519781781      7.7145379358
 O     33.0789403598     -8.1288329598      2.6717218672
 H     33.2878812756     -7.9398479804      1.7351080869
 H     33.6451850595     -7.5500111091      3.1309225859
 O     38.3353018443    -30.0449609785      2.1747096923
 H     38.7929451327    -30.5437345966      2.8522346762
 H     37.6409372307    -30.6178020308      1.8560626555
 O     21.5680007852    -18.2920954027      0.6653712841
 H     20.7275240441    -18.5201738171      0.3128313375
 H     21.4661942288    -18.1592222067      1.6085090762
 O     42.0866146033    -14.8934792159     -1.0384124533
 H     41.7459370365    -15.6708448503     -0.5884429510
 H     41.7394729925    -14.0722466605     -0.6496729842
 O     28.2182320025    -31.3084359901     -3.0670903764
 H     29.0354111564    -30.7745115256     -2.9979639952
 H     28.5047057029    -32.0686132076     -3.5087720492
 O     24.8096732765     -8.8892584387     -4.5515159539
 H     25.2507826145     -8.4407588080     -3.7591756429
 H     25.6368900959     -8.9208719878     -5.1744096256
 O     41.2429552113    -23.0888657654     -7.2458679476
 H     41.2368969653    -22.1725777179     -7.4673226271
 H     40.3120370776    -23.3497642103     -7.2218556764
 O     27.5636805888    -21.1495286640    -12.4858081563
 H     27.6310089460    -20.4481603619    -11.8270494570
 H     28.3950910412    -21.0450511659    -12.9448443067
89
# ORCA AIMD Position Step 480, t=240.00 fs, E_Pot=-6054983.05427383 kJ mol^-1, Unit is Angstrom
 C     24.2284928670    -16.9836565185      0.4527644409
 C     24.8554118218    -17.5929854048      1.6856617336
 C     25.7822830312    -18.7746119092      1.5600183678
 N     26.3557533754    -19.0625121906      0.3351336946
 C     25.8343503453    -18.3099724433     -0.8990465108
 C     25.2810509031    -16.8697811696     -0.5905927199
 C     27.5610646598    -19.8644733885      0.1624462498
 C     28.5508171126    -19.8807471189      1.0841270511
 C     29.8014681524    -20.5046300943      0.9439635017
 C     30.0904989835    -21.1993916723     -0.1939330336
 C     29.0746917970    -21.2059963161     -1.1991811872
 C     27.7941175020    -20.5691063394     -1.0148989984
 N     31.3603783543    -21.7380642499     -0.5032083472
 C     31.4593853136    -22.8701184127     -1.4375546408
 C     32.6823550819    -23.8080714107     -1.2353976616
 C     33.8735379753    -22.9699908321     -0.9255369753
 C     33.7258056047    -21.6651629590     -0.5652648407
 C     32.4981438195    -20.9882725214     -0.1982301741
 O     25.9744848214    -19.4126513164      2.5585367783
 O     32.4205918303    -19.9069737114      0.3377320405
 C     35.2677115500    -23.1908029899     -0.8239896005
 N     35.9219698852    -22.0989995218     -0.4552381645
 N     34.9893169188    -21.1496597473     -0.2964052947
 C     35.3119469196    -19.8120701771      0.1251855936
 C     35.9110078443    -24.4799980980     -1.0195621849
 N     37.2502788826    -24.4018923463     -0.8943405558
 O     35.2735391568    -25.4546627748     -1.3353852084
 C     34.9565926778    -19.4371634098      1.4244901457
 C     35.2270973760    -18.1490037107      1.8827788476
 C     35.9020341925    -17.2554164906      1.0671666979
 C     36.2397204541    -17.6276950147     -0.2149370212
 C     35.9517388869    -18.9317259281     -0.6969829513
 O     36.1293339304    -16.0733797379      1.6348229063
 C     36.9341291672    -15.1558384883      0.8840647508
 H     23.4804336142    -17.6285520769      0.0137820635
 H     23.6905976653    -16.0508780502      0.6432183001
 H     25.4616668181    -16.7254026695      2.0928046118
 H     24.1170603491    -17.7696216106      2.4921042579
 H     26.7449285576    -18.2454619748     -1.5187594967
 H     25.0179693544    -18.8853320595     -1.4013689747
 H     26.1968445418    -16.2934964934     -0.2598900932
 H     24.9956214108    -16.3939202487     -1.5113960816
 H     28.4032737764    -19.4070914860      2.0773460525
 H     30.4266368203    -20.4958787095      1.8384251185
 H     29.2765349337    -21.8536836007     -2.0810193255
 H     27.0617923047    -20.6059738082     -1.8126256441
 H     30.6176218458    -23.5285130685     -1.3071920135
 H     31.6688758414    -22.5077066000     -2.4671368592
 H     32.5133642486    -24.5161974371     -0.4259504554
 H     32.9095348524    -24.4289169026     -2.1566045663
 H     37.6582702543    -23.4363019650     -0.6759254246
 H     37.7764842915    -25.1970008279     -0.8902856140
 H     34.5303492165    -20.1902117576      2.0733255957
 H     34.9598539927    -17.7581701055      2.8659805496
 H     36.7856993676    -16.9329147091     -0.8582952183
 H     36.2446840058    -19.1774516450     -1.7008911140
 H     36.4699235614    -14.8711695969     -0.0666777400
 H     37.0353721975    -14.2875530416      1.5530132033
 H     37.9460706567    -15.5402448191      0.6817406525
 O     36.8488081472    -19.9090773917     12.2752783015
 H     36.4623228513    -20.7240611669     12.6780295353
 H     36.9818369298    -19.3237158131     13.0204694101
 O     25.6921916476    -26.7864552317      7.0334520011
 H     24.9085813899    -26.3143446020      7.3377990190
 H     25.7843336062    -27.5400814200      7.6602257596
 O     33.0943234120     -8.1126967552      2.5845590689
 H     33.2420101058     -7.9112233094      1.6652420996
 H     33.7116246243     -7.5150952257      3.0647720854
 O     38.3267869135    -30.0591968453      2.1373214630
 H     38.7112100464    -30.5557931360      2.8694691577
 H     37.6194035601    -30.6195766871      1.7960238081
 O     21.5791595714    -18.3214875015      0.6758558280
 H     20.7405146000    -18.4290884897      0.1758289646
 H     21.3985286924    -18.3053846776      1.6209341035
 O     42.0825360749    -14.9444140828     -1.0362047325
 H     41.7758731394    -15.6005223821     -0.3809388935
 H     41.6571042524    -14.1381858771     -0.7300041508
 O     28.2165374709    -31.2988341530     -3.0501669009
 H     28.9997537128    -30.7840453462     -2.8865137934
 H     28.5444410166    -32.0831651092     -3.5621741855
 O     24.7849683144     -8.8559413047     -4.5124667550
 H     25.1251045954     -8.5834241151     -3.7053184209
 H     25.5363401152     -8.8334626542     -5.0375820360
 O     41.2663100477    -23.0886812485     -7.1945195588
 H     41.2573037271    -22.1957891177     -7.6005921633
 H     40.3434902862    -23.3376728066     -7.1522867811
 O     27.5875919992    -21.1271050927    -12.4976990417
 H     27.7273656578    -20.3742499385    -11.8940973814
 H     28.4158362043    -21.0983917901    -13.0236120149
89
# ORCA AIMD Position Step 490, t=245.00 fs, E_Pot=-6054977.46014687 kJ mol^-1, Unit is Angstrom
 C     24.2353316492    -16.9615750463      0.4646708646
 C     24.8923477799    -17.5597031376      1.6750929463
 C     25.7710143797    -18.7816214260      1.5567303227
 N     26.3896091760    -19.0655537437      0.3511511810
 C     25.8527756524    -18.3329566058     -0.9123994646
 C     25.3178458370    -16.8378127932     -0.6134470821
 C     27.5494670061    -19.8814840954      0.1791830672
 C     28.5713715181    -19.8504910485      1.1236002604
 C     29.7951661820    -20.4879211548      0.9517090861
 C     30.0793994223    -21.2133082717     -0.1815361213
 C     29.0590216127    -21.2220212555     -1.1646019175
 C     27.7669535136    -20.6241495803     -1.0152525299
 N     31.3790690296    -21.7528642288     -0.5086172658
 C     31.4340114259    -22.8625918846     -1.4510850801
 C     32.7099532591    -23.8014699499     -1.2278205329
 C     33.9103163313    -22.9718595088     -0.9061498598
 C     33.7157424466    -21.6397168011     -0.5841493012
 C     32.4749609748    -21.0072659441     -0.1741122079
 O     25.9823366765    -19.4021713804      2.5712489300
 O     32.4225566936    -19.9063554153      0.3394310595
 C     35.2685075565    -23.2000373822     -0.8234646908
 N     35.9054431338    -22.0801410766     -0.4717807123
 N     34.9929389445    -21.1453536737     -0.3161178516
 C     35.3246000154    -19.8136749892      0.1453887919
 C     35.9158441167    -24.4695228564     -1.0371707903
 N     37.2649548885    -24.3963987894     -0.8772260846
 O     35.2606887052    -25.4666857350     -1.3357128209
 C     34.9595825125    -19.4276044849      1.4226471107
 C     35.1842288246    -18.1493510212      1.8807212750
 C     35.8829067669    -17.2539430836      1.0616127582
 C     36.2216075825    -17.6261229035     -0.2416083454
 C     35.9335420081    -18.9210741968     -0.6666092878
 O     36.0966769794    -16.0604144977      1.6343692008
 C     36.9396720861    -15.1354097896      0.8427400236
 H     23.4624213060    -17.6736826108      0.1376405367
 H     23.7220524648    -16.0207940314      0.7519253279
 H     25.4764500502    -16.7615383871      2.1482969565
 H     24.1182519443    -17.7964663349      2.5046913418
 H     26.7302693761    -18.2708684409     -1.5881204939
 H     25.0875271691    -18.9596007669     -1.3659041500
 H     26.1579559172    -16.2531983579     -0.2819935397
 H     24.9592675923    -16.3406642029     -1.5482674044
 H     28.3762731628    -19.4091825746      2.0631445763
 H     30.4685683072    -20.5078765029      1.7874654100
 H     29.1755505371    -21.8333702126     -2.0270175336
 H     27.0651840685    -20.6637271984     -1.8521627394
 H     30.5551249562    -23.5330779034     -1.3614095076
 H     31.6123971674    -22.5426687364     -2.4842283666
 H     32.5499230185    -24.4957092316     -0.3775686628
 H     32.8779885259    -24.3573484097     -2.1119250730
 H     37.6878327695    -23.5652841305     -0.6870440046
 H     37.7913479034    -25.3217905574     -0.9339308182
 H     34.4961374653    -20.2122155040      2.0236843695
 H     34.9659469861    -17.7582667726      2.8637582135
 H     36.7434677220    -16.9070043067     -0.8437218628
 H     36.2054253820    -19.2478962166     -1.6842642639
 H     36.4855703099    -14.8989849674     -0.1220620507
 H     37.0182498394    -14.2818512731      1.5031831525
 H     37.9342103266    -15.5761243251      0.7459002188
 O     36.8394267901    -19.9077416852     12.3013912603
 H     36.3818989395    -20.6895603465     12.5677329186
 H     37.0840518548    -19.4179974146     13.0875062036
 O     25.7152031263    -26.8007406604      6.9982354890
 H     24.9269578876    -26.3550717452      7.2825040982
 H     25.7389887376    -27.5605601734      7.5580399241
 O     33.1116249431     -8.0945899135      2.5016756022
 H     33.2054853075     -7.8736806801      1.5697896090
 H     33.7375341956     -7.5211199120      2.9615553321
 O     38.3188918288    -30.0729098361      2.1000919266
 H     38.6093078735    -30.5715928552      2.8703031901
 H     37.6098811467    -30.6236960942      1.7517114142
 O     21.5877442428    -18.3526410607      0.6826468774
 H     20.7815608242    -18.3286150826      0.1648048851
 H     21.2495821474    -18.4734209031      1.5846712482
 O     42.0747532938    -14.9979509399     -1.0285002759
 H     41.8480832078    -15.4977299964     -0.2458151115
 H     41.5911473840    -14.1928429155     -0.8246856193
 O     28.2148164420    -31.2951409251     -3.0362761927
 H     28.9897017216    -30.7817375146     -2.7748136064
 H     28.5593684614    -32.0161076032     -3.5688614892
 O     24.7521239448     -8.8233004276     -4.4754397095
 H     25.0040735748     -8.6977132862     -3.4750591031
 H     25.5625163587     -8.7655861878     -5.0478076782
 O     41.2908992578    -23.0832801145     -7.1451200230
 H     41.2727804652    -22.3026441714     -7.7050697887
 H     40.3587003062    -23.3249253715     -7.0828455423
 O     27.6192955188    -21.0997478984    -12.5102687213
 H     27.7731715333    -20.3448345529    -11.9657831905
 H     28.3616628364    -21.1868589536    -13.0857922038
89
# ORCA AIMD Position Step 500, t=250.00 fs, E_Pot=-6054984.98875413 kJ mol^-1, Unit is Angstrom
 C     24.2442650705    -16.9456858000      0.4645761976
 C     24.9121943919    -17.5170588930      1.6850135579
 C     25.7668855436    -18.7818733881      1.5470739136
 N     26.4079237493    -19.0471108925      0.3431963244
 C     25.8848675382    -18.3393571593     -0.9075576728
 C     25.3558854157    -16.8368189321     -0.6404512991
 C     27.5316250358    -19.8972750620      0.1782902502
 C     28.5934703116    -19.8304187098      1.1683687166
 C     29.7845998084    -20.4750937079      0.9777005705
 C     30.0559263764    -21.2185725995     -0.2055729513
 C     29.0225532570    -21.2445186128     -1.1276651214
 C     27.7730060410    -20.6743702562     -0.9964639523
 N     31.3659751529    -21.7715527766     -0.5028263582
 C     31.4461565866    -22.8827250135     -1.4656120466
 C     32.7259867442    -23.7829841501     -1.2004449609
 C     33.9114291514    -22.9641724932     -0.8946768067
 C     33.7335571425    -21.6173721464     -0.5892901503
 C     32.4572379066    -21.0220936545     -0.1714988577
 O     25.9974985139    -19.4058245521      2.5961004895
 O     32.4235216153    -19.8988098841      0.3490281408
 C     35.2584306957    -23.1993620936     -0.8238364861
 N     35.9060057887    -22.0565182134     -0.4866567517
 N     34.9823440275    -21.1319463728     -0.3327133108
 C     35.3303734041    -19.8275410619      0.1718668123
 C     35.9317336083    -24.4619699333     -1.0578268204
 N     37.2776853520    -24.4296888851     -0.8668614900
 O     35.2536507282    -25.4803339702     -1.3343686371
 C     34.9540203575    -19.4305689313      1.4369165767
 C     35.1525336315    -18.1521488047      1.8766436860
 C     35.8491435944    -17.2658878201      1.0515495297
 C     36.2084216941    -17.6207208728     -0.2582559970
 C     35.9303985716    -18.9014429060     -0.6663521069
 O     36.0787644651    -16.0279023478      1.6195242340
 C     36.9356321097    -15.1292769475      0.8276564121
 H     23.4593530749    -17.6385278536      0.2080409426
 H     23.8083348061    -16.0096389962      0.7931618483
 H     25.6008143165    -16.8440179609      2.2225931524
 H     24.2059026092    -17.8546315348      2.3783071449
 H     26.6560895449    -18.2988838940     -1.6637204514
 H     25.1164147986    -19.0075578415     -1.3387562216
 H     26.1739292910    -16.1789960848     -0.2476014519
 H     24.9337674859    -16.4077138761     -1.5481496493
 H     28.3399312082    -19.3200526389      2.1252409892
 H     30.5667804550    -20.4609705979      1.7510840799
 H     29.1255062694    -21.8042544333     -2.0827577620
 H     27.0752620226    -20.7412418800     -1.8205904135
 H     30.5042239126    -23.4187355469     -1.4285903541
 H     31.4121599316    -22.4867016751     -2.5083723466
 H     32.5666982163    -24.4871447287     -0.3914909315
 H     32.8406886392    -24.3921961718     -2.1496718338
 H     37.8214837159    -23.5396905993     -0.6360434434
 H     37.7715461136    -25.2510575600     -0.9722465291
 H     34.4325641776    -20.1560407813      2.0356444723
 H     34.9047558552    -17.8571311501      2.9014403928
 H     36.7152500231    -16.9227839713     -0.9278445290
 H     36.1652219877    -19.2715341663     -1.6396910625
 H     36.4924413978    -14.9068376315     -0.1676301203
 H     36.9900460887    -14.1972168509      1.4104254671
 H     37.9304496481    -15.6207779031      0.7455754132
 O     36.8323314484    -19.9013391211     12.3204760464
 H     36.2892737808    -20.6761313021     12.5345427705
 H     37.1627698396    -19.5713646363     13.1876275671
 O     25.7393889562    -26.8141437523      6.9615051255
 H     24.9035931880    -26.3525750540      7.2252990892
 H     25.7158495811    -27.6377840510      7.4845376851
 O     33.1282551409     -8.0777776762      2.4195181506
 H     33.1796577684     -7.8227170391      1.4836205921
 H     33.7626593136     -7.5207555305      2.8428265002
 O     38.3103346566    -30.0889840196      2.0641057898
 H     38.5234839420    -30.5670216236      2.8711624154
 H     37.5964914965    -30.6085082276      1.6894578833
 O     21.5874815288    -18.3858484568      0.6945845684
 H     20.8206014747    -18.2380677641      0.1304440123
 H     21.1490344983    -18.6419562461      1.5112659996
 O     42.0617699332    -15.0493822919     -1.0142890005
 H     41.9722774847    -15.4628167832     -0.1331390181
 H     41.5557507434    -14.2101694064     -0.9997844594
 O     28.2121664605    -31.2894133954     -3.0216853131
 H     28.9750856139    -30.8029265415     -2.6746167456
 H     28.5939858383    -31.9580986309     -3.5763141802
 O     24.7191006928     -8.7904315806     -4.4291058707
 H     24.9169823034     -8.8321213292     -3.5539630553
 H     25.5598253925     -8.6831014611     -4.8993438807
 O     41.3134993077    -23.0769903576     -7.0977456664
 H     41.3051597637    -22.4126511826     -7.7896128301
 H     40.3869438399    -23.3233542278     -7.0034743230
 O     27.6439985505    -21.0779263468    -12.5226393212
 H     27.8696074365    -20.2599987775    -12.0257279604
 H     28.3661703194    -21.2441995912    -13.1616709804
89
# ORCA AIMD Position Step 510, t=255.00 fs, E_Pot=-6054981.44153856 kJ mol^-1, Unit is Angstrom
 C     24.2819228309    -16.9292361905      0.4589614380
 C     24.9451771201    -17.4950067458      1.6931120879
 C     25.7826756474    -18.7850104262      1.5557857913
 N     26.4135106007    -19.0130181639      0.3195377409
 C     25.9106468664    -18.3312571836     -0.8908665384
 C     25.3825536865    -16.8663720694     -0.6480770615
 C     27.5367228112    -19.9136655244      0.1830160488
 C     28.5816124168    -19.8152284652      1.2021560453
 C     29.7916795203    -20.4783768470      1.0033927059
 C     30.0305191357    -21.2066662040     -0.2246821131
 C     28.9917627452    -21.2941055098     -1.1218153958
 C     27.7757349026    -20.6962258625     -0.9427578918
 N     31.3238002223    -21.7871637794     -0.4879102317
 C     31.4726481648    -22.9027726892     -1.4792597240
 C     32.7155143556    -23.7697748788     -1.1955289947
 C     33.8812485381    -22.9409612499     -0.8934576864
 C     33.7481115420    -21.6109555548     -0.5812742011
 C     32.4552409647    -21.0095392014     -0.1832238545
 O     26.0121743255    -19.4084695345      2.6040143932
 O     32.4204829161    -19.9016677850      0.3586533691
 C     35.2581821599    -23.1822669033     -0.8251640332
 N     35.9202238387    -22.0409075199     -0.5025476221
 N     34.9714811446    -21.1071494182     -0.3407664411
 C     35.3351825050    -19.8327099682      0.1885730855
 C     35.9405429897    -24.4749887911     -1.0758858478
 N     37.2919853897    -24.4539954136     -0.8576426416
 O     35.2646418289    -25.4784247047     -1.3299327449
 C     34.9355852857    -19.4511683432      1.4578638014
 C     35.1356111391    -18.1516820222      1.8774026891
 C     35.8120404266    -17.2593384930      1.0448563326
 C     36.1989692261    -17.6065787216     -0.2627912519
 C     35.9268703059    -18.9024899377     -0.6755918225
 O     36.0685784492    -15.9913831169      1.5885281120
 C     36.9214680127    -15.1352634625      0.8262541077
 H     23.4333460300    -17.5695029055      0.1711295305
 H     23.8660935820    -15.9253252110      0.7211756220
 H     25.6877594820    -16.8638426849      2.2507881379
 H     24.1083070122    -17.8965753149      2.4541943187
 H     26.7000754087    -18.3286551070     -1.7045373473
 H     25.0821540596    -18.9422681726     -1.2938555403
 H     26.1585474566    -16.1963225044     -0.2933397206
 H     24.9543134897    -16.5116622067     -1.5991294133
 H     28.3857084265    -19.2591985512      2.0838217357
 H     30.6029466426    -20.3645902671      1.6890439780
 H     29.1493814227    -21.7399899422     -2.0743198490
 H     27.0537915937    -20.8182771696     -1.7525592461
 H     30.4883864573    -23.4085319408     -1.3901088613
 H     31.3518472179    -22.4269547984     -2.4728819889
 H     32.5278078810    -24.5115582520     -0.3859653526
 H     32.8546505402    -24.3861770413     -2.0463825485
 H     37.7836921057    -23.6548271743     -0.6264472060
 H     37.8426660476    -25.3276554843     -1.0263672645
 H     34.3567410285    -20.1054654663      2.1218060523
 H     34.8244455697    -17.9485196416      2.8857269388
 H     36.6675963714    -16.9707615982     -0.9921384367
 H     36.1754353917    -19.2417715984     -1.7033042604
 H     36.5251974121    -14.9435355011     -0.1592781006
 H     36.9775738909    -14.1596139074      1.3102722503
 H     37.8926019092    -15.5878330825      0.7021173773
 O     36.8272254597    -19.8945532235     12.3441036282
 H     36.2167765157    -20.6265900819     12.5132487959
 H     37.1904391907    -19.7666489770     13.2021493604
 O     25.7578311244    -26.8277471177      6.9290032903
 H     24.9647917990    -26.3882246028      7.1381328392
 H     25.6982254556    -27.6730484558      7.3770930118
 O     33.1419021016     -8.0628906288      2.3338788949
 H     33.1524320091     -7.7817608724      1.4281067406
 H     33.8356061787     -7.4807443345      2.7549361678
 O     38.3019045767    -30.1064233563      2.0292866521
 H     38.4482278880    -30.5482133132      2.8739589570
 H     37.5724283640    -30.5835483933      1.6089896824
 O     21.5754965075    -18.4219021967      0.7093582651
 H     20.9055559779    -18.1288263630      0.0525877357
 H     21.1064389719    -18.8237198268      1.4558509944
 O     42.0477201839    -15.1003493582     -0.9999349540
 H     42.0743617117    -15.3504052594     -0.0838082761
 H     41.5588993316    -14.3087070092     -1.1135259509
 O     28.2088746537    -31.2808669651     -3.0041309806
 H     28.9406460229    -30.8388842259     -2.5887147219
 H     28.6589940767    -31.9303356902     -3.6178554086
 O     24.6805910228     -8.7576211153     -4.3980792345
 H     24.9187394340     -8.9606323810     -3.4141334367
 H     25.5580009149     -8.6077754306     -4.7298928307
 O     41.3353998158    -23.0697708612     -7.0505741183
 H     41.3408890064    -22.5368418248     -7.8744270025
 H     40.4209666789    -23.3226062131     -6.9233784978
 O     27.6684559107    -21.0552470634    -12.5341549669
 H     27.9923621436    -20.2482372294    -12.1617750528
 H     28.3461575775    -21.2436094583    -13.1735934579
89
# ORCA AIMD Position Step 520, t=260.00 fs, E_Pot=-6055005.91577291 kJ mol^-1, Unit is Angstrom
 C     24.3376655983    -16.9030553859      0.4474898226
 C     24.9592850301    -17.5109609561      1.7242566717
 C     25.8132547607    -18.7833155617      1.5737638992
 N     26.4200162041    -18.9838286873      0.3060058879
 C     25.9300784093    -18.3129989810     -0.8826586696
 C     25.3940767433    -16.9188821519     -0.6462235886
 C     27.5568047419    -19.9123333577      0.2162393442
 C     28.5590113951    -19.8209402108      1.2012722094
 C     29.7916532588    -20.4857767688      1.0068554473
 C     30.0127119726    -21.1856866142     -0.2164623092
 C     28.9789021977    -21.3538828034     -1.1294589359
 C     27.7578005803    -20.7022499028     -0.8814543910
 N     31.2886589261    -21.7910566053     -0.4661915386
 C     31.4728696642    -22.9057263382     -1.4777858237
 C     32.6806363375    -23.7649657365     -1.1932704177
 C     33.8575626555    -22.9170547894     -0.8982380007
 C     33.7313582635    -21.6090789478     -0.5610016338
 C     32.4530045838    -20.9823621950     -0.2042214821
 O     26.0272147698    -19.4100358017      2.5900005342
 O     32.4134173850    -19.9127380215      0.3658718512
 C     35.2659036464    -23.1567256112     -0.8324948905
 N     35.9338364105    -22.0342688182     -0.5198796387
 N     34.9775212090    -21.0852247379     -0.3416177054
 C     35.3357249346    -19.8248493199      0.1904031115
 C     35.9468663663    -24.4882444293     -1.0791619018
 N     37.3008909426    -24.5012624718     -0.8577530040
 O     35.2855836596    -25.4703008885     -1.3278346601
 C     34.9094834417    -19.4725454537      1.4797397578
 C     35.1289243926    -18.1584135319      1.8772050473
 C     35.7844390180    -17.2217906335      1.0408863435
 C     36.1836323387    -17.6047424325     -0.2582250136
 C     35.9227893634    -18.9195584166     -0.6865718254
 O     36.0550358889    -15.9657275730      1.5528999427
 C     36.9009377541    -15.1433748807      0.8214223550
 H     23.4760752941    -17.4781892924      0.1196636373
 H     23.9626125037    -15.8964612045      0.5700492197
 H     25.6298417330    -16.8239678569      2.2053969262
 H     24.2353930248    -17.7172497252      2.3881918147
 H     26.7110256754    -18.3571063919     -1.5931025309
 H     25.0384628084    -18.8261753460     -1.2670554262
 H     26.2135192691    -16.2139886334     -0.3925124120
 H     25.0187964090    -16.5993635816     -1.6356479676
 H     28.4438879662    -19.1591782404      2.0891118176
 H     30.6306395529    -20.2813926816      1.6940533202
 H     29.1999267899    -21.7714505037     -2.1310476427
 H     26.9971275398    -20.8448513078     -1.6338877579
 H     30.5980400325    -23.5317864370     -1.3244160732
 H     31.5064226419    -22.4399647671     -2.4661522738
 H     32.4676412176    -24.4522159472     -0.3836837649
 H     32.9429912337    -24.4459294499     -2.0599903291
 H     37.7704267729    -23.6062225710     -0.5936848007
 H     37.8314003943    -25.3242744431     -1.0646086322
 H     34.3442352864    -20.0867933368      2.1508670534
 H     34.7636366387    -17.8920228953      2.8785887118
 H     36.6369980859    -16.9376754574     -0.9949565935
 H     36.1744419182    -19.1641518308     -1.6909537161
 H     36.5011385906    -14.9801100598     -0.2227695851
 H     36.9743946637    -14.1638410541      1.2975951453
 H     37.9420413760    -15.5589751289      0.6813756400
 O     36.8187178983    -19.8912056010     12.3684620736
 H     36.1462009191    -20.5638342466     12.4424482343
 H     37.2709266354    -19.9202700360     13.2526090275
 O     25.7829204486    -26.8439126671      6.8941181870
 H     24.9276401191    -26.3771427175      7.0805373015
 H     25.6720678721    -27.7134640729      7.2818119483
 O     33.1616407715     -8.0435552419      2.2537301695
 H     33.1146845944     -7.7370084947      1.3276531310
 H     33.8211879741     -7.5163561685      2.6325231718
 O     38.2938910458    -30.1232615934      1.9939980479
 H     38.3524552452    -30.5365436289      2.8560619808
 H     37.5643331194    -30.5584374429      1.5594392754
 O     21.5604273851    -18.4578267360      0.7225714927
 H     20.9995932812    -18.0804801822      0.0770359530
 H     21.0404764692    -18.9769831689      1.3363407851
 O     42.0402211405    -15.1596961294     -0.9921047036
 H     42.1244193274    -15.1657567868     -0.0157279537
 H     41.5093663018    -14.3418034760     -1.1424424373
 O     28.2089285622    -31.2784252368     -2.9928629873
 H     28.9238000232    -30.8524465682     -2.4807809395
 H     28.6536545060    -31.8284771064     -3.5833191676
 O     24.6487264182     -8.7275779889     -4.3499167947
 H     24.7907293211     -9.0802046080     -3.4753626253
 H     25.5837142592     -8.5001104202     -4.6353458469
 O     41.3593275217    -23.0602023774     -7.0077200154
 H     41.3579366531    -22.7040565192     -7.8807405849
 H     40.4390838144    -23.3163748286     -6.8568355166
 O     27.6937726265    -21.0324151609    -12.5462424214
 H     28.0899748891    -20.1902637699    -12.2433050454
 H     28.3350710858    -21.2935352643    -13.2292073843
89
# ORCA AIMD Position Step 530, t=265.00 fs, E_Pot=-6054968.01157871 kJ mol^-1, Unit is Angstrom
 C     24.4041650022    -16.8830948654      0.4294928953
 C     24.9773156362    -17.5237491231      1.7243709786
 C     25.8428201859    -18.7595651652      1.5750061383
 N     26.4349021991    -18.9741581723      0.3270192944
 C     25.9304424927    -18.3024088041     -0.8705253204
 C     25.4189734426    -16.9567270636     -0.6498698832
 C     27.5643899522    -19.8844441847      0.2662872602
 C     28.5586121289    -19.8326469039      1.1970233731
 C     29.7752806223    -20.4817934352      0.9981205923
 C     30.0037309380    -21.1781579306     -0.1962503828
 C     28.9688472241    -21.3972579224     -1.1349686792
 C     27.7415336545    -20.7222537001     -0.8414300620
 N     31.2828124907    -21.7828603457     -0.4454468576
 C     31.4548719576    -22.8935960518     -1.4604337960
 C     32.6585953876    -23.7702715128     -1.1993149056
 C     33.8566726206    -22.9094817361     -0.9041457264
 C     33.7029623223    -21.5992107759     -0.5342718953
 C     32.4353171734    -20.9687988243     -0.2284197110
 O     26.0482615587    -19.4219178501      2.5720868983
 O     32.4024871157    -19.9147788631      0.3739943388
 C     35.2717737515    -23.1395017611     -0.8500380626
 N     35.9375520041    -22.0280657029     -0.5361906778
 N     34.9915322033    -21.0822923861     -0.3401708876
 C     35.3258273077    -19.8129484734      0.1861735247
 C     35.9615418615    -24.4792022550     -1.0631472725
 N     37.3025232115    -24.5335252990     -0.8592506820
 O     35.3004169861    -25.4723456875     -1.3334422669
 C     34.8939070001    -19.4687178395      1.4872557946
 C     35.1258089069    -18.1596753274      1.8811865780
 C     35.7666738245    -17.1860220964      1.0321095819
 C     36.1618459562    -17.6130929027     -0.2485804900
 C     35.9194111662    -18.9197270296     -0.6773166318
 O     36.0308897827    -15.9561223425      1.5268023794
 C     36.8933173632    -15.1430163533      0.7862611826
 H     23.5222877817    -17.4477895640      0.0963448790
 H     24.0739860139    -15.8205043952      0.5070633168
 H     25.6323317379    -16.6999586210      2.1814375355
 H     24.1161842362    -17.6433365906      2.5744525456
 H     26.8032650022    -18.3485418737     -1.6121462525
 H     25.0449012225    -18.8317254323     -1.3037296015
 H     26.2602229704    -16.2626499879     -0.4783479060
 H     25.0445222514    -16.6501735735     -1.6232529073
 H     28.4866856819    -19.1501912674      2.0020307815
 H     30.5653970797    -20.2748309501      1.6738135050
 H     29.1720163505    -21.8446445530     -2.0845729706
 H     26.8874930875    -20.8149042412     -1.5240256284
 H     30.6520112236    -23.6482722352     -1.3736112562
 H     31.6463624419    -22.5112575831     -2.5000445741
 H     32.4244572559    -24.4018599126     -0.3095224962
 H     32.9385724320    -24.4079928650     -2.0083279238
 H     37.7316646060    -23.6623743779     -0.6112246625
 H     37.8330346576    -25.3552900318     -1.0895826799
 H     34.3520233200    -20.1757108062      2.1390100324
 H     34.7641161625    -17.7593041736      2.8142727751
 H     36.6077211223    -16.8921363658     -0.9136123932
 H     36.1736642502    -19.1781664908     -1.7279740946
 H     36.5020533117    -14.9903543321     -0.1922613674
 H     36.9422826446    -14.1949372490      1.3437618117
 H     37.8908228837    -15.5316795647      0.7234591672
 O     36.8144486777    -19.8876921801     12.4003710202
 H     36.0633022383    -20.5095071821     12.3629834649
 H     37.2976123984    -20.0676564619     13.1886724829
 O     25.8032834745    -26.8564431234      6.8604689877
 H     24.9754033097    -26.4201214183      7.0065517399
 H     25.6335353260    -27.7556184636      7.1896014925
 O     33.1752931974     -8.0281878097      2.1678457670
 H     33.0783042186     -7.7072037894      1.2745893426
 H     33.8999321813     -7.4763700904      2.5665161152
 O     38.2881190934    -30.1381804888      1.9588317100
 H     38.2458725975    -30.5352444276      2.8410137313
 H     37.5342381295    -30.5501587583      1.5099609230
 O     21.5535699105    -18.4964537391      0.7407139136
 H     20.9745877928    -18.0305126790      0.0816948181
 H     20.9226482272    -19.1054805960      1.1669207859
 O     42.0292082325    -15.2123057975     -0.9766148368
 H     42.1855610396    -15.0047990832     -0.0506723857
 H     41.5041717048    -14.4504772145     -1.1905339684
 O     28.2071064456    -31.2691149271     -2.9741053855
 H     28.8667589983    -30.8889364872     -2.4006020511
 H     28.7186716357    -31.8135503999     -3.6426565929
 O     24.6257312992     -8.6965926410     -4.3064032877
 H     24.6624504472     -9.1883569199     -3.4724755941
 H     25.4742284966     -8.4230042282     -4.5378222316
 O     41.3820097124    -23.0519892340     -6.9624821455
 H     41.3754994832    -22.8549655514     -7.9297382247
 H     40.4726322572    -23.3051624068     -6.7916196514
 O     27.7263694496    -21.0049542899    -12.5602418535
 H     28.1269257067    -20.1730874972    -12.3098897921
 H     28.2648664640    -21.3792716811    -13.2665595242
89
# ORCA AIMD Position Step 540, t=270.00 fs, E_Pot=-6054998.56024184 kJ mol^-1, Unit is Angstrom
 C     24.4559799110    -16.8696566372      0.4169796175
 C     24.9718268428    -17.5000793159      1.7373515797
 C     25.8624660741    -18.7232357624      1.5748613977
 N     26.4539926369    -18.9759619152      0.3710158401
 C     25.9428559880    -18.3303558690     -0.8775655561
 C     25.4657517979    -16.9596247414     -0.6654833880
 C     27.5537844832    -19.8580980798      0.2904434831
 C     28.5817329988    -19.8376213590      1.2007075053
 C     29.7484849781    -20.4731158105      0.9777772660
 C     29.9970523158    -21.1974536630     -0.1875357940
 C     28.9455010387    -21.4030926536     -1.1088555163
 C     27.7269384402    -20.7511979730     -0.8195694913
 N     31.2964396759    -21.7722014966     -0.4379807831
 C     31.4375350232    -22.8817363413     -1.4462842621
 C     32.6594980080    -23.7685030739     -1.1740940507
 C     33.8682208078    -22.9145300382     -0.9074605238
 C     33.6976954982    -21.5954266523     -0.5152489202
 C     32.4068005261    -20.9674267309     -0.2380395048
 O     26.0752714481    -19.4417846261      2.5546046646
 O     32.3860530250    -19.9043753441      0.3804269682
 C     35.2729583310    -23.1409494859     -0.8758886419
 N     35.9315195048    -22.0168775382     -0.5491528785
 N     34.9935513667    -21.0952181248     -0.3355085913
 C     35.3073018858    -19.8034065964      0.1842581745
 C     35.9680559761    -24.4675407738     -1.0428027723
 N     37.2974036905    -24.5486666816     -0.8593937748
 O     35.3094288065    -25.4757808043     -1.3433025960
 C     34.8895787596    -19.4479930361      1.4808006013
 C     35.1263475327    -18.1368955525      1.8811542326
 C     35.7498832834    -17.1916169239      1.0197112426
 C     36.1389771332    -17.6132749969     -0.2325869971
 C     35.9192587125    -18.9050573130     -0.6672626698
 O     35.9969444197    -15.9568878581      1.5121305613
 C     36.8881943376    -15.1263629773      0.7558237330
 H     23.5642312325    -17.4278732753      0.1118587705
 H     24.2024534752    -15.8299582222      0.5696070762
 H     25.6177376650    -16.7540716750      2.1156629454
 H     24.2846867524    -17.6420471462      2.4456867969
 H     26.7254029072    -18.3012455200     -1.5707795840
 H     25.1723376396    -18.9526585836     -1.3340899683
 H     26.3144458210    -16.3005073469     -0.4952797747
 H     24.9871444126    -16.6408879059     -1.6274220623
 H     28.5018056488    -19.1199765780      2.0387607968
 H     30.5568622897    -20.3201659547      1.7131106718
 H     29.0847351146    -21.9863231215     -2.0402265881
 H     26.8441700702    -20.7952703440     -1.4408995028
 H     30.5885958321    -23.5612197662     -1.5014544958
 H     31.5985250071    -22.5422603312     -2.4552134021
 H     32.4639760354    -24.3611366862     -0.2892394113
 H     32.8417996351    -24.4482517888     -2.0478837529
 H     37.8052069941    -23.7082428199     -0.6322996534
 H     37.8276367189    -25.4134098539     -1.1078964957
 H     34.4223957664    -20.2171014428      2.0585723455
 H     34.7725515750    -17.6839597486      2.8172793792
 H     36.6133367214    -16.8787856854     -0.8796422729
 H     36.1467578722    -19.2318985000     -1.6508310620
 H     36.4852346668    -14.9154981710     -0.2783867263
 H     36.8966277785    -14.2241757129      1.3497511109
 H     37.9156650534    -15.5911187534      0.7521492357
 O     36.8072646266    -19.8826054828     12.4253933119
 H     36.0451481526    -20.4413010850     12.3359157603
 H     37.3073503503    -20.2533205825     13.1772535883
 O     25.8244941308    -26.8736224637      6.8280414602
 H     24.9797124928    -26.4162619731      6.9362478018
 H     25.6214941337    -27.7680000404      7.0828609120
 O     33.1926349593     -8.0112106074      2.0879154592
 H     33.0575217525     -7.6567132523      1.2057295719
 H     33.9016375662     -7.4859924404      2.4393064776
 O     38.2796975540    -30.1561114753      1.9257603392
 H     38.1612232183    -30.5088761121      2.8088585197
 H     37.5277598024    -30.5150726620      1.4511401510
 O     21.5356946832    -18.5354321195      0.7556484708
 H     21.0278171698    -18.0141337487      0.1544693681
 H     20.8802779416    -19.1991779777      0.9841069578
 O     42.0167539655    -15.2588386860     -0.9547085588
 H     42.2982386600    -14.9397750558     -0.0878417878
 H     41.4705674867    -14.5491195525     -1.3395406469
 O     28.2062556847    -31.2651858969     -2.9618145421
 H     28.8428575622    -30.9261463134     -2.3247342108
 H     28.7355785978    -31.7136949196     -3.5988099427
 O     24.5891409539     -8.6648868336     -4.2650318159
 H     24.6005645568     -9.3181461884     -3.4786230770
 H     25.5213995996     -8.3412869793     -4.4065225219
 O     41.4035564106    -23.0423311795     -6.9254207784
 H     41.4102982150    -23.0244259914     -7.8747375502
 H     40.5017860120    -23.2985153909     -6.7092182277
 O     27.7550440375    -20.9811808053    -12.5736077852
 H     28.1995501290    -20.1518962583    -12.4010764909
 H     28.2154550891    -21.4148160333    -13.2854487128
89
# ORCA AIMD Position Step 550, t=275.00 fs, E_Pot=-6055007.10720573 kJ mol^-1, Unit is Angstrom
 C     24.4908747941    -16.8671917792      0.4218810053
 C     24.9926086201    -17.4629949726      1.7088993401
 C     25.8719535668    -18.6990088536      1.5987408211
 N     26.4703075870    -18.9719254850      0.4021525410
 C     25.9631860422    -18.3864944534     -0.8802106005
 C     25.5091443856    -16.9426473358     -0.6964347093
 C     27.5496517886    -19.8597026973      0.2825333547
 C     28.5915588523    -19.8097013329      1.2217922973
 C     29.7542781267    -20.4739082930      0.9625913678
 C     29.9894162016    -21.2350011159     -0.1932331007
 C     28.9142333422    -21.3934293053     -1.0675435690
 C     27.7044559157    -20.7624698705     -0.7918247335
 N     31.3029972815    -21.7668752885     -0.4479706630
 C     31.4319778095    -22.8748978828     -1.4316972218
 C     32.6695103853    -23.7645032989     -1.1450115283
 C     33.8795388322    -22.9227997556     -0.9101633577
 C     33.7150466961    -21.6103639316     -0.5120284158
 C     32.3924224355    -20.9606177612     -0.2189117775
 O     26.1016929185    -19.4559980841      2.5344499457
 O     32.3632729062    -19.8904121835      0.3787782768
 C     35.2734925216    -23.1531704952     -0.9013615453
 N     35.9215975606    -22.0080467058     -0.5595371821
 N     34.9762947685    -21.1066663986     -0.3228798057
 C     35.2879735877    -19.7933177731      0.1834516825
 C     35.9542923951    -24.4711839359     -1.0353410251
 N     37.3022579272    -24.5525942865     -0.8566101390
 O     35.3171267368    -25.4703147873     -1.3515249061
 C     34.8992188781    -19.4150810529      1.4579291335
 C     35.1216141626    -18.1002704114      1.8838704504
 C     35.7312601983    -17.2243311578      1.0179550506
 C     36.1277504182    -17.5989603862     -0.2309012407
 C     35.9122125297    -18.8937150671     -0.6494194382
 O     35.9604908047    -15.9578235749      1.4971544746
 C     36.8804530142    -15.1130727039      0.7306138671
 H     23.5733412264    -17.3758424959      0.1220937169
 H     24.2558445086    -15.8100899949      0.6737888590
 H     25.7500981601    -16.7334243148      2.1799479111
 H     24.1612542626    -17.7620415198      2.5306885067
 H     26.8248730270    -18.2999321614     -1.6401854519
 H     25.2442266407    -19.1030628839     -1.3352314946
 H     26.3991683476    -16.2969955719     -0.4811191751
 H     24.9894177413    -16.6107533385     -1.5748151682
 H     28.5254349244    -19.1901458147      2.0840349275
 H     30.5142062857    -20.4129092957      1.6952035963
 H     28.9562378871    -22.0681765536     -1.9004630157
 H     26.8538586955    -20.8661529712     -1.4735024193
 H     30.4509143479    -23.3821918843     -1.5200213821
 H     31.4936294959    -22.4056869593     -2.4692939612
 H     32.5228575384    -24.4097858830     -0.2489153262
 H     32.7201802998    -24.4462409111     -1.9865890057
 H     37.9279160542    -23.7512150743     -0.6612801133
 H     37.7183595954    -25.3933505813     -1.0878333047
 H     34.4494522480    -20.2122570584      2.0734388253
 H     34.7997951855    -17.7424984706      2.8447383521
 H     36.6322745719    -16.9238448759     -0.8989730225
 H     36.1758466962    -19.2749667692     -1.6599469256
 H     36.5454797963    -14.8574924555     -0.2524069491
 H     36.8994299878    -14.1739024487      1.3214409962
 H     37.8377647090    -15.5943286984      0.7128253104
 O     36.8050653498    -19.8758500316     12.4532841188
 H     36.0000038160    -20.4036894212     12.3183997797
 H     37.2669345176    -20.4341639230     13.1050364926
 O     25.8442430899    -26.8891841903      6.7965168653
 H     24.9976269141    -26.4003962371      6.8558376849
 H     25.6143517473    -27.8141726849      6.9829829785
 O     33.2077004133     -7.9964706609      2.0080460227
 H     33.0328151899     -7.6032149874      1.1325633671
 H     33.9395575544     -7.4676377823      2.3383369988
 O     38.2707175094    -30.1746979880      1.8935257573
 H     38.0930431908    -30.4756706188      2.7928331329
 H     37.5179523172    -30.4714140174      1.3719255591
 O     21.5129607284    -18.5768849643      0.7708385291
 H     21.0918779635    -17.9252595332      0.1755093037
 H     20.8958906817    -19.3212467568      0.8498654839
 O     42.0026760054    -15.3037712428     -0.9327132545
 H     42.3892251050    -14.8579581983     -0.1686726148
 H     41.4848667538    -14.6765284491     -1.4483126600
 O     28.2029932199    -31.2584708809     -2.9465950234
 H     28.8180051657    -30.9658642155     -2.2494016461
 H     28.7922457260    -31.6571380333     -3.6058326616
 O     24.5562114895     -8.6379052930     -4.2216317351
 H     24.6032208593     -9.2947458146     -3.6051463322
 H     25.4554093878     -8.3449866702     -4.1992108791
 O     41.4242592846    -23.0333974330     -6.8878310689
 H     41.4503575421    -23.1817566648     -7.8461005857
 H     40.5323183640    -23.2926117760     -6.6201344697
 O     27.7778669199    -20.9590379969    -12.5826160114
 H     28.3124579062    -20.1379567484    -12.5345677986
 H     28.2110834064    -21.4228855124    -13.3260602779
89
# ORCA AIMD Position Step 560, t=280.00 fs, E_Pot=-6054975.49329312 kJ mol^-1, Unit is Angstrom
 C     24.5150274879    -16.8526527631      0.4374620132
 C     25.0255072174    -17.4388844422      1.7119286376
 C     25.8780901635    -18.6948967961      1.6257179494
 N     26.4814789735    -18.9565688906      0.4000132199
 C     26.0071096400    -18.4392498857     -0.8934195574
 C     25.5444209054    -16.9340657414     -0.7158740766
 C     27.5602486073    -19.8749520114      0.2777004969
 C     28.5932427207    -19.7797001756      1.2290060956
 C     29.7753594217    -20.4847604915      0.9526538884
 C     29.9830301938    -21.2673998915     -0.1974235719
 C     28.8817475713    -21.3890339416     -1.0205646902
 C     27.6699638437    -20.7556353396     -0.7645551857
 N     31.2941520735    -21.7646136154     -0.4646393528
 C     31.4287401635    -22.8530697773     -1.4284213598
 C     32.6635834767    -23.7642540364     -1.1148649865
 C     33.8842678519    -22.9349251335     -0.9170563697
 C     33.7226290332    -21.6315195112     -0.5171495225
 C     32.4052010631    -20.9549405082     -0.1809766230
 O     26.1231692157    -19.4622617598      2.5247162172
 O     32.3368056426    -19.8741125599      0.3705907935
 C     35.2749059854    -23.1587583367     -0.9177297892
 N     35.9135540058    -22.0096701445     -0.5680578652
 N     34.9529835177    -21.1085135383     -0.3025449024
 C     35.2701892380    -19.7867542073      0.1785203777
 C     35.9436323443    -24.4718732125     -1.0422740321
 N     37.3095070187    -24.5372791706     -0.8484130211
 O     35.3180832882    -25.4657901391     -1.3580052176
 C     34.9082264446    -19.3849803842      1.4435339236
 C     35.1058045595    -18.0883497002      1.8900129265
 C     35.7220634721    -17.2290793791      1.0264027856
 C     36.1283376489    -17.5918108373     -0.2519701191
 C     35.9042115858    -18.8962085114     -0.6493018333
 O     35.9277607570    -15.9521922859      1.4747747551
 C     36.8578308844    -15.1010497333      0.7328189586
 H     23.5686994456    -17.3256831931      0.1190482610
 H     24.2535659862    -15.8277628498      0.6846140712
 H     25.6993045492    -16.7986438499      2.2339604553
 H     24.2660121395    -17.7174639113      2.3537318058
 H     26.8309780184    -18.4169657508     -1.5473131052
 H     25.2571930231    -19.1223112213     -1.2973282285
 H     26.4145585237    -16.3441273286     -0.5015392096
 H     25.0512716288    -16.5364674432     -1.6425842945
 H     28.5214208317    -19.2438855679      2.1938039047
 H     30.5705389211    -20.4849113615      1.7251657901
 H     28.8413251529    -22.1332916816     -1.8268360777
 H     26.9180732077    -20.9700897002     -1.5119449178
 H     30.4372633783    -23.2977625705     -1.3929555010
 H     31.4878068036    -22.3324691201     -2.3687661353
 H     32.5376601485    -24.4178310764     -0.2520506829
 H     32.7079151862    -24.4748154859     -1.9540571334
 H     37.9329102141    -23.8053334103     -0.6984852331
 H     37.6593020170    -25.5239864374     -1.0863751733
 H     34.4656997216    -20.0822184262      2.1208898901
 H     34.8321806923    -17.8224424532      2.9168362528
 H     36.6588334849    -16.9368653841     -0.9366767647
 H     36.2230217549    -19.2162481066     -1.6090164258
 H     36.5338191718    -14.8384023119     -0.3119529510
 H     36.9529450378    -14.1769652277      1.2675642446
 H     37.8560735141    -15.6003294870      0.6447539927
 O     36.8011734393    -19.8781186515     12.4844803335
 H     35.9653625849    -20.3067149880     12.2665532208
 H     37.2455983475    -20.5302113894     13.0067096381
 O     25.8614049978    -26.9044193237      6.7659971677
 H     25.0574108304    -26.4274103604      6.7792812185
 H     25.5996515275    -27.8169133649      6.8787149446
 O     33.2219524138     -7.9800243017      1.9265350305
 H     33.0068239526     -7.5798293360      1.0992653240
 H     33.9862010656     -7.4527035502      2.2556619547
 O     38.2631447247    -30.1927383935      1.8620922744
 H     38.0106572907    -30.4435978037      2.7548514699
 H     37.5055269196    -30.4289245891      1.3148431800
 O     21.4899283587    -18.6169964869      0.7849700284
 H     21.1478606990    -17.9037894507      0.2368270993
 H     20.9236849542    -19.3829536262      0.6902339878
 O     41.9906010918    -15.3532777507     -0.9117830497
 H     42.4200822404    -14.7388875060     -0.3075209513
 H     41.5284409615    -14.7503467423     -1.4854524559
 O     28.2031338096    -31.2522942310     -2.9302939449
 H     28.7572048294    -31.0117331311     -2.2043506427
 H     28.8314735513    -31.5882333335     -3.6066478506
 O     24.5252279358     -8.6032859342     -4.1845211463
 H     24.5438936419     -9.4778613404     -3.5850515596
 H     25.4337693834     -8.2734643377     -4.0557774458
 O     41.4443825993    -23.0243495958     -6.8529534431
 H     41.4757636411    -23.3431579996     -7.7693137946
 H     40.5773455023    -23.2844292598     -6.5520211432
 O     27.8072199997    -20.9341893499    -12.5962494912
 H     28.3591289973    -20.1695444923    -12.6327312526
 H     28.1587264309    -21.4363224566    -13.3213963082
89
# ORCA AIMD Position Step 570, t=285.00 fs, E_Pot=-6054977.17978446 kJ mol^-1, Unit is Angstrom
 C     24.5384624774    -16.8298040111      0.4378661394
 C     25.0788236385    -17.4406360000      1.7168611260
 C     25.8903177658    -18.7025713484      1.6182369144
 N     26.4908486113    -18.9403490893      0.3819395002
 C     26.0386962418    -18.4586206115     -0.8926906359
 C     25.5589613142    -16.9485496191     -0.7335619901
 C     27.5646778518    -19.8704478299      0.3020053922
 C     28.6166733692    -19.7744513253      1.2243169668
 C     29.7962991710    -20.4922445352      0.9664039748
 C     29.9809111894    -21.2770957721     -0.1882964753
 C     28.8481815803    -21.4105948539     -0.9874265513
 C     27.6466693184    -20.7537187170     -0.7508183788
 N     31.2851044184    -21.7528685740     -0.4691670033
 C     31.4313956280    -22.8264331955     -1.4117805714
 C     32.6409405442    -23.7693917585     -1.1025888176
 C     33.8778746010    -22.9513253342     -0.9270937957
 C     33.7034435037    -21.6413530404     -0.5170328245
 C     32.4248213924    -20.9658291574     -0.1459703403
 O     26.1388894497    -19.4661751723      2.5381200525
 O     32.3137479910    -19.8543823369      0.3607302122
 C     35.2736900285    -23.1506681495     -0.9229392749
 N     35.9082103522    -22.0166028116     -0.5720031779
 N     34.9405539540    -21.1092228988     -0.2816268691
 C     35.2529944293    -19.7874772681      0.1690265468
 C     35.9549582205    -24.4572689311     -1.0596350712
 N     37.3029970718    -24.5478649636     -0.8460883401
 O     35.3099338875    -25.4683588964     -1.3635186230
 C     34.9084998310    -19.3616874540      1.4457708803
 C     35.0877904827    -18.0973275167      1.9009186484
 C     35.7280306205    -17.1934907590      1.0240331085
 C     36.1324261728    -17.5969359303     -0.2741166568
 C     35.8998137703    -18.8981869643     -0.6615046557
 O     35.9038391714    -15.9329078802      1.4497348871
 C     36.8335595273    -15.1046408980      0.7291845795
 H     23.6182123490    -17.3203857988      0.1387628294
 H     24.2428127981    -15.7761817509      0.6156208037
 H     25.6702431610    -16.7143176219      2.3506341494
 H     24.1368509835    -17.6746443945      2.3711550445
 H     26.9490304448    -18.5720000814     -1.5711363682
 H     25.1941815912    -19.0668947071     -1.2868005787
 H     26.4928037884    -16.3489200790     -0.5058962153
 H     25.2039273956    -16.5330301437     -1.6601460945
 H     28.4841058277    -19.3000014465      2.1715027777
 H     30.5695886777    -20.5081910060      1.6855804608
 H     28.8011394184    -22.1245059014     -1.7939288269
 H     26.8913324311    -20.9958128762     -1.4927307574
 H     30.5087520250    -23.4181671646     -1.2905293340
 H     31.5785083730    -22.3691917120     -2.4316798518
 H     32.4695182117    -24.3913563990     -0.2039839269
 H     32.7921208038    -24.4803336286     -1.9361921572
 H     37.9540115941    -23.7294871394     -0.7171640560
 H     37.6236710963    -25.4248821741     -1.0115191755
 H     34.4296819248    -20.0202948638      2.1864896763
 H     34.8792633440    -17.8598039432      2.9256931316
 H     36.6586983758    -16.9246372450     -0.9333592816
 H     36.2856834455    -19.1886335260     -1.6618332697
 H     36.4675489310    -14.8854896661     -0.2647286687
 H     36.9855686924    -14.1583921236      1.3051535419
 H     37.8059481333    -15.5757080660      0.6153082480
 O     36.7943936987    -19.8797781212     12.5140346272
 H     35.9436538198    -20.1939041327     12.2111963530
 H     37.2602499606    -20.6507407131     12.9287876973
 O     25.8839654874    -26.9213977499      6.7362110663
 H     25.0315551424    -26.4033896349      6.7027782300
 H     25.5770825217    -27.8362657555      6.7804083764
 O     33.2402980806     -7.9634172992      1.8518748576
 H     32.9683111518     -7.5299835591      1.0152960658
 H     33.9740774048     -7.4742465637      2.1518797722
 O     38.2562506252    -30.2100824231      1.8309348273
 H     37.9214368087    -30.4146700043      2.7091178875
 H     37.4951591506    -30.3872773828      1.2759700648
 O     21.4731790977    -18.6557091912      0.8020283580
 H     21.1357528550    -17.9352376745      0.2805331683
 H     20.9220194600    -19.3954690800      0.4992422783
 O     41.9802549007    -15.3968844095     -0.8884135647
 H     42.4595826047    -14.6766457435     -0.4373000452
 H     41.5371070801    -14.8401792690     -1.5744262214
 O     28.2038389422    -31.2481130701     -2.9199718664
 H     28.7309886788    -31.0419858755     -2.1171483996
 H     28.8278002170    -31.5060529871     -3.5626697924
 O     24.5007980164     -8.5871469170     -4.1351592400
 H     24.4497841152     -9.3888545962     -3.7536354358
 H     25.3581133648     -8.1923119338     -3.9378072450
 O     41.4652953893    -23.0168257516     -6.8223079025
 H     41.5024322874    -23.4749698126     -7.6546246326
 H     40.5978677701    -23.2815238443     -6.4729125362
 O     27.8364892374    -20.9108734107    -12.6107462896
 H     28.4172162102    -20.1217121214    -12.6871443588
 H     28.0841249473    -21.5140057624    -13.3385261876
89
# ORCA AIMD Position Step 580, t=290.00 fs, E_Pot=-6054998.38022115 kJ mol^-1, Unit is Angstrom
 C     24.5730209824    -16.8028934788      0.4173716392
 C     25.1053106226    -17.4415188650      1.7470619623
 C     25.9125465730    -18.7185543895      1.5942986273
 N     26.5028697885    -18.9351829355      0.3743775355
 C     26.0562161677    -18.4435761882     -0.9010905843
 C     25.5933543164    -16.9735441956     -0.7378369535
 C     27.5620790160    -19.8531165642      0.3359427396
 C     28.6551852368    -19.7979206709      1.2084820625
 C     29.8022573633    -20.4965165545      0.9867731324
 C     29.9744902081    -21.2618547653     -0.1677186198
 C     28.8225984161    -21.4526448964     -0.9672789239
 C     27.6404124777    -20.7600236825     -0.7420467922
 N     31.2844748652    -21.7332367035     -0.4604782667
 C     31.4450797433    -22.8215662991     -1.4006996906
 C     32.6186714299    -23.7761254351     -1.1000393992
 C     33.8586016804    -22.9601535902     -0.9293054762
 C     33.6771692851    -21.6410655068     -0.5051752825
 C     32.4254462630    -20.9778054851     -0.1223265176
 O     26.1475850220    -19.4620055459      2.5595199662
 O     32.3015468869    -19.8420414609      0.3486932299
 C     35.2673182525    -23.1393511463     -0.9225737270
 N     35.9025911903    -22.0168507416     -0.5677815000
 N     34.9379850364    -21.1187535986     -0.2673658465
 C     35.2395958375    -19.7878749051      0.1594173246
 C     35.9678077597    -24.4488165424     -1.0883392039
 N     37.2889120686    -24.5362873620     -0.8409393585
 O     35.3017070047    -25.4643038346     -1.3654292756
 C     34.8909218280    -19.3660782398      1.4622981060
 C     35.0922336605    -18.0883375038      1.8958111167
 C     35.7337301566    -17.1598299909      1.0068645180
 C     36.1335479600    -17.5999650048     -0.2727659620
 C     35.9037705466    -18.9042806771     -0.6935659342
 O     35.8877363193    -15.9014115440      1.4330221066
 C     36.8092135943    -15.1047233165      0.7301597215
 H     23.6530561416    -17.3832025635      0.1608113493
 H     24.2906632688    -15.7561749907      0.5290799574
 H     25.6256347047    -16.7045863785      2.3524595951
 H     24.2060930153    -17.6389519090      2.3428735465
 H     26.8656897116    -18.6230074602     -1.5769373284
 H     25.1809378604    -18.9930853680     -1.2818099236
 H     26.4674107707    -16.4151089124     -0.4913222118
 H     25.2722555457    -16.5691848124     -1.7306524837
 H     28.4629783610    -19.2671023805      2.1520741350
 H     30.6249208188    -20.4655169991      1.7285798557
 H     28.8485716558    -22.1140759121     -1.8381922468
 H     26.7805951381    -20.9203270949     -1.3956403436
 H     30.6175674741    -23.5369820469     -1.3346323939
 H     31.5939030659    -22.5299136964     -2.4482662327
 H     32.3860336463    -24.3270089488     -0.1764702544
 H     32.8304021987    -24.4687820827     -1.9021523129
 H     37.8433835458    -23.7524388183     -0.7441441368
 H     37.7499730277    -25.5003759909     -0.9610970973
 H     34.4093953351    -20.0375841564      2.1406111293
 H     34.8900896072    -17.8192535176      2.9413723019
 H     36.6504076820    -16.9099518950     -0.9341562026
 H     36.2634179133    -19.2054959529     -1.6469259078
 H     36.3551453400    -14.8789897118     -0.2554142089
 H     36.9413505159    -14.2298355744      1.3180734520
 H     37.7842509227    -15.6126250244      0.6154537569
 O     36.7932371595    -19.8830066717     12.5456637369
 H     35.9319425266    -20.1272853947     12.1705664854
 H     37.1784789557    -20.6992358091     12.7947059077
 O     25.8977329141    -26.9358746528      6.7071326346
 H     25.1187171394    -26.4274568662      6.6306164278
 H     25.5739046019    -27.8409281960      6.6828471510
 O     33.2511933901     -7.9503265995      1.7741154743
 H     32.9594827917     -7.4973955907      0.9903334460
 H     34.0447305746     -7.4296313071      2.0725001222
 O     38.2477698753    -30.2279726738      1.8017867402
 H     37.8581552646    -30.3775863259      2.6736974826
 H     37.4894384192    -30.3382747103      1.2084677826
 O     21.4538923341    -18.6977275824      0.8164536239
 H     21.1190976306    -17.9099124064      0.3216931865
 H     20.9702986943    -19.3931375460      0.3493878456
 O     41.9688351333    -15.4238068449     -0.8701173265
 H     42.5149809794    -14.7267670399     -0.5203942267
 H     41.5477431334    -15.0631435236     -1.6334887724
 O     28.2006921941    -31.2414862419     -2.9020495678
 H     28.6820085188    -31.0904886312     -2.0984312541
 H     28.9086131565    -31.4469911784     -3.5782067486
 O     24.4727960227     -8.5529920192     -4.0985160542
 H     24.4130807351     -9.5267916664     -3.7662584135
 H     25.2958302859     -8.1808790940     -3.7921741038
 O     41.4821833053    -23.0102746988     -6.7914854912
 H     41.5505764040    -23.6129978869     -7.5651413790
 H     40.6507932876    -23.2568273172     -6.3883634855
 O     27.8660665171    -20.8874369417    -12.6253866730
 H     28.4462858415    -20.1567877033    -12.7703668986
 H     28.0223860906    -21.5191687981    -13.3169271908
89
# ORCA AIMD Position Step 590, t=295.00 fs, E_Pot=-6055021.53213331 kJ mol^-1, Unit is Angstrom
 C     24.6122177645    -16.8006955083      0.3861887133
 C     25.1124702666    -17.4330017906      1.7604739039
 C     25.9354312631    -18.7314225522      1.5922539228
 N     26.5195886191    -18.9427090074      0.3820404374
 C     26.0420682529    -18.4072870919     -0.9052804200
 C     25.6348822271    -16.9981220335     -0.7440984552
 C     27.5746875134    -19.8559676471      0.3448271595
 C     28.6687528470    -19.8145500537      1.2093228051
 C     29.8201867172    -20.5045607902      1.0161279208
 C     29.9613922159    -21.2398306774     -0.1499405892
 C     28.8156143253    -21.5009387004     -0.9592560780
 C     27.6391623345    -20.7619138210     -0.7198086139
 N     31.2841699651    -21.7218916858     -0.4525304638
 C     31.4643209355    -22.8535770536     -1.3995701860
 C     32.6125316951    -23.7739780068     -1.0913437303
 C     33.8365511891    -22.9516556513     -0.9152987175
 C     33.6680886202    -21.6425864879     -0.4827927715
 C     32.4008012274    -20.9726452472     -0.1127646156
 O     26.1499583450    -19.4453876777      2.5702995334
 O     32.3029093113    -19.8417301007      0.3356757640
 C     35.2548235680    -23.1371300902     -0.9236599541
 N     35.8938760753    -22.0084790500     -0.5563451705
 N     34.9339914194    -21.1321374816     -0.2602996472
 C     35.2344169265    -19.7793791067      0.1548887425
 C     35.9601684310    -24.4588022584     -1.1222966949
 N     37.2812433868    -24.5384559302     -0.8384814170
 O     35.2962853491    -25.4495069851     -1.3657429343
 C     34.8688946142    -19.3829747770      1.4672949772
 C     35.1174819689    -18.0589122084      1.8787920583
 C     35.7260879584    -17.1545992145      0.9874728070
 C     36.1360199837    -17.5961004881     -0.2614758852
 C     35.9018660446    -18.9130416773     -0.7108557959
 O     35.8716383584    -15.8724199769      1.4307947079
 C     36.7845093737    -15.1044880252      0.7191044863
 H     23.7294418423    -17.3786351500      0.1729778364
 H     24.3563360192    -15.7350210310      0.4776630182
 H     25.7198659919    -16.7121941109      2.3365400933
 H     24.2403733154    -17.7019166301      2.3893408621
 H     26.8268321038    -18.5611355739     -1.6873149038
 H     25.1770676814    -18.9888227555     -1.2635188690
 H     26.5478221021    -16.3931924148     -0.4449944590
 H     25.2738127258    -16.6526228106     -1.7001452139
 H     28.5514092430    -19.2145456096      2.0910104157
 H     30.5952820531    -20.3880277781      1.7187540171
 H     28.9262120348    -22.0935658142     -1.8629837782
 H     26.7164391591    -20.8457607109     -1.2863241515
 H     30.6050801143    -23.5247812319     -1.4122520295
 H     31.5283457391    -22.5735227365     -2.4628231452
 H     32.3616927585    -24.2989180930     -0.1639450951
 H     32.7502048542    -24.5280397570     -1.9076504305
 H     37.8180072575    -23.6432706903     -0.7330801942
 H     37.7711464651    -25.3616100924     -0.8968365304
 H     34.3729866677    -20.1423048390      2.0979619124
 H     34.8737430815    -17.7430722641      2.8771839861
 H     36.6333180921    -16.9227065827     -0.9443928359
 H     36.2262359754    -19.2768294042     -1.7103460597
 H     36.3424080645    -14.8055183510     -0.2432198202
 H     36.9026425647    -14.1833525985      1.3549072349
 H     37.7385546046    -15.6415219420      0.6002766951
 O     36.7885750969    -19.8826857958     12.5743844519
 H     35.9500146516    -20.0566375804     12.1460574052
 H     37.1247412407    -20.8073534084     12.6840005727
 O     25.9153403384    -26.9540757112      6.6790609102
 H     25.1265522927    -26.3804627313      6.5520540874
 H     25.5836646707    -27.8525941529      6.5884631123
 O     33.2678938114     -7.9351165911      1.7019665494
 H     32.9437246148     -7.4475231141      0.9361567915
 H     34.0256884928     -7.4412985448      1.9599925635
 O     38.2357696626    -30.2464533725      1.7735441321
 H     37.8217815423    -30.3339655646      2.6310146232
 H     37.5166626003    -30.2804565757      1.1440864124
 O     21.4284681652    -18.7346956069      0.8214118708
 H     21.1633609470    -17.9170325513      0.4447501219
 H     21.0613762524    -19.4222896109      0.2648452504
 O     41.9567102037    -15.4537167959     -0.8495500200
 H     42.5814455942    -14.7484894739     -0.6119261930
 H     41.5586877686    -15.2520520066     -1.7233065721
 O     28.2013402431    -31.2372793814     -2.8923324497
 H     28.6628706884    -31.1295218060     -2.0497779465
 H     28.8998412617    -31.3609063519     -3.4992035020
 O     24.4389191521     -8.5283396283     -4.0616251686
 H     24.4630053765     -9.4593758959     -3.8329361283
 H     25.2512189081     -8.2323297317     -3.6106727896
 O     41.4995187064    -23.0074170024     -6.7660731346
 H     41.5975544915    -23.6912017558     -7.4117071090
 H     40.6898308721    -23.2332014045     -6.2952015663
 O     27.8892816353    -20.8660285254    -12.6340009658
 H     28.5234303033    -20.1729776918    -12.8966138999
 H     28.0047405755    -21.5176396311    -13.3419406299
89
# ORCA AIMD Position Step 600, t=300.00 fs, E_Pot=-6055018.93831959 kJ mol^-1, Unit is Angstrom
 C     24.6587233963    -16.8161391933      0.3687954812
 C     25.1177539146    -17.4235349375      1.7483493571
 C     25.9462934968    -18.7221478305      1.6125777457
 N     26.5409402017    -18.9560730010      0.3893366478
 C     26.0233961783    -18.3887304977     -0.9079207864
 C     25.6860451937    -16.9943207394     -0.7336582893
 C     27.6076777546    -19.8809631801      0.3310338214
 C     28.6578803333    -19.8134818294      1.2298620100
 C     29.8312596235    -20.5115511503      1.0385488742
 C     29.9525954243    -21.2357018883     -0.1460278235
 C     28.8241104733    -21.5294549596     -0.9493165529
 C     27.6452002141    -20.7699147874     -0.6901202546
 N     31.2742647918    -21.7306742990     -0.4545524311
 C     31.4644791355    -22.8952874613     -1.4103150917
 C     32.6205956147    -23.7781215438     -1.0830876182
 C     33.8276783462    -22.9360086710     -0.8913945523
 C     33.6708606269    -21.6452239512     -0.4514681905
 C     32.3704117719    -20.9632417080     -0.1248290343
 O     26.1506358039    -19.4250507792      2.5749278703
 O     32.3132129973    -19.8399224194      0.3280443450
 C     35.2390311964    -23.1418309468     -0.9274563975
 N     35.8816534821    -22.0042932109     -0.5441937824
 N     34.9235101288    -21.1331036090     -0.2552971695
 C     35.2338895641    -19.7716282403      0.1596733863
 C     35.9436774750    -24.4628920449     -1.1438432437
 N     37.2787758725    -24.5045250702     -0.8350008936
 O     35.2826801244    -25.4435026654     -1.3724423264
 C     34.8538760350    -19.3898432843      1.4579995326
 C     35.1403565838    -18.0498190885      1.8534796799
 C     35.7097391183    -17.1613024883      0.9761770058
 C     36.1425767709    -17.6002730926     -0.2681000633
 C     35.8946966969    -18.9204276115     -0.7129458507
 O     35.8486726147    -15.8613998013      1.4364957656
 C     36.7646385784    -15.0784325226      0.7097639184
 H     23.7067026216    -17.3511329785      0.1057505083
 H     24.4143211336    -15.7523521535      0.4661813315
 H     25.8351139419    -16.7623170831      2.2990314734
 H     24.2497627189    -17.7406834942      2.4446233067
 H     26.7840763780    -18.4502419381     -1.6938444189
 H     25.1609926403    -19.0100062723     -1.2275993963
 H     26.5482800661    -16.4137685640     -0.4997041191
 H     25.2318057604    -16.6540062787     -1.6936399324
 H     28.6760471723    -19.1157088005      2.0763976384
 H     30.6551291300    -20.3252757194      1.7561689213
 H     28.9672217872    -22.0898888132     -1.8672345832
 H     26.7321104853    -20.8660034960     -1.2733464639
 H     30.4914731237    -23.4336878503     -1.3902126321
 H     31.5031328474    -22.4561728536     -2.4454549148
 H     32.4075643834    -24.3280547745     -0.1403090504
 H     32.6293270662    -24.5380175145     -1.8336419201
 H     37.7437030930    -23.6471945836     -0.7068925804
 H     37.8268376544    -25.3988026384     -0.8798350118
 H     34.3809647099    -20.1395242439      2.0575398539
 H     34.8318562745    -17.6477705109      2.8290506722
 H     36.6235564248    -16.9227765238     -0.9662658547
 H     36.1594387035    -19.2775869324     -1.6807296378
 H     36.4032894319    -14.7230075987     -0.2616978335
 H     36.9205455729    -14.2066098276      1.2909088814
 H     37.6996513856    -15.6169533691      0.5609632147
 O     36.7845724953    -19.8929694832     12.6026973222
 H     35.9477797186    -19.9324342115     12.1162859982
 H     37.0822685294    -20.8001951812     12.5805522913
 O     25.9300603622    -26.9697485580      6.6514065176
 H     25.1887305163    -26.3832731452      6.4767271866
 H     25.5814726055    -27.8512403980      6.4927597917
 O     33.2810889468     -7.9213879641      1.6282695284
 H     32.9127030764     -7.4089820630      0.8843929748
 H     34.0745622972     -7.4216180950      1.8874623821
 O     38.2265395775    -30.2645709241      1.7449800938
 H     37.7651432838    -30.2910498545      2.5953973725
 H     37.5226387266    -30.2230132598      1.0842336610
 O     21.4068973415    -18.7751351927      0.8306787525
 H     21.1646194039    -17.8774225271      0.5147700905
 H     21.1417191672    -19.4300473587      0.1622471199
 O     41.9428696433    -15.4851604758     -0.8290913738
 H     42.5900730889    -14.7796000652     -0.7830667396
 H     41.6541720972    -15.3972164584     -1.7340621633
 O     28.1993708694    -31.2318428498     -2.8777158394
 H     28.6214242222    -31.1700181478     -2.0015048858
 H     28.9553162260    -31.2940541195     -3.5014280667
 O     24.4130174148     -8.5026815096     -4.0225605487
 H     24.4467965666     -9.4624179470     -3.8954802077
 H     25.1536378986     -8.2348669567     -3.4773148837
 O     41.5162476031    -23.0024229714     -6.7389277554
 H     41.6430754492    -23.8001436203     -7.2884443701
 H     40.7344556853    -23.2126171600     -6.2082773924
 O     27.9164698182    -20.8432893717    -12.6467665893
 H     28.5602226994    -20.2095632382    -12.9857898826
 H     27.9584769311    -21.5212473792    -13.3340356081
89
# ORCA AIMD Position Step 610, t=305.00 fs, E_Pot=-6055032.74362500 kJ mol^-1, Unit is Angstrom
 C     24.6913958426    -16.8379580945      0.3732583764
 C     25.1253359000    -17.4258042076      1.7225803321
 C     25.9474283301    -18.6934149392      1.6232138097
 N     26.5623836076    -18.9672111122      0.3898314374
 C     26.0168763462    -18.4068828970     -0.8988031251
 C     25.7086760502    -16.9641330685     -0.7223948556
 C     27.6357644592    -19.8953930525      0.3260192150
 C     28.6606710300    -19.7998960972      1.2684674607
 C     29.8302088710    -20.5075710579      1.0587386197
 C     29.9583777443    -21.2571588734     -0.1475874939
 C     28.8407165307    -21.5272948916     -0.9323825612
 C     27.6650959900    -20.8101121291     -0.6811185960
 N     31.2580856196    -21.7540799582     -0.4616953564
 C     31.4291752065    -22.9103336609     -1.4219758740
 C     32.6245703275    -23.7888804994     -1.0625067394
 C     33.8336365766    -22.9317714408     -0.8708376207
 C     33.6643511476    -21.6418754824     -0.4154159393
 C     32.3544522534    -20.9640388755     -0.1562813254
 O     26.1528987191    -19.4096281553      2.5879626678
 O     32.3258177870    -19.8296323553      0.3260708919
 C     35.2248807121    -23.1419751088     -0.9295449023
 N     35.8676255358    -22.0124033125     -0.5366810010
 N     34.9114439246    -21.1159184408     -0.2483892962
 C     35.2330137626    -19.7765219431      0.1723003809
 C     35.9324956918    -24.4477361304     -1.1421788934
 N     37.2725875584    -24.4700487029     -0.8371225106
 O     35.2590738987    -25.4543502718     -1.3886107459
 C     34.8569441434    -19.3688023193      1.4356021156
 C     35.1387860245    -18.0721596411      1.8397225985
 C     35.7010556292    -17.1598554175      0.9626579008
 C     36.1502688591    -17.6126166351     -0.2963189188
 C     35.8818196391    -18.9151461199     -0.6919804079
 O     35.8225817407    -15.8664311491      1.4369965448
 C     36.7503475454    -15.0443027804      0.6951036005
 H     23.7678757011    -17.2722552113      0.0250672741
 H     24.4551313343    -15.7760648948      0.5007470622
 H     25.8467465968    -16.8133226892      2.2277153172
 H     24.3577072848    -17.6347959104      2.4013646074
 H     26.8046906155    -18.4396283366     -1.6533629879
 H     25.1487237959    -18.9811076205     -1.2053445476
 H     26.6573517319    -16.3671374093     -0.5780193281
 H     25.2484698002    -16.5969302830     -1.6346371391
 H     28.6904483516    -19.0495696059      2.0390177055
 H     30.6558740901    -20.3413623421      1.6926927674
 H     28.9347491401    -22.1094369959     -1.8511151972
 H     26.8126089382    -20.9511538540     -1.3349724461
 H     30.4680870649    -23.3750801690     -1.3333894798
 H     31.5632212694    -22.3898714699     -2.3546825336
 H     32.4709439804    -24.3351384775     -0.1377046760
 H     32.6529752228    -24.5950523591     -1.8487185173
 H     37.7544677250    -23.5857311350     -0.6512289512
 H     37.7718240390    -25.3335364873     -0.8879610406
 H     34.3661729561    -20.0862372259      2.1121554022
 H     34.8021927418    -17.6305021321      2.7592549255
 H     36.6159606620    -16.9190540110     -0.9841112665
 H     36.1382938542    -19.2544116326     -1.7137464011
 H     36.4041898836    -14.6991049285     -0.3050867686
 H     36.9922683827    -14.1348955905      1.3152970433
 H     37.7100619049    -15.5828923689      0.5282940557
 O     36.7770460416    -19.9038971161     12.6284891745
 H     35.9760565869    -19.7832354260     12.1052788683
 H     37.0658537202    -20.8075370272     12.4961782675
 O     25.9456908204    -26.9856107781      6.6239311244
 H     25.2404645396    -26.3858015389      6.4029372305
 H     25.5739361712    -27.8455328191      6.3967731602
 O     33.2945442354     -7.9051811604      1.5534661035
 H     32.9040718274     -7.3944295120      0.8679534515
 H     34.0955448433     -7.4187925938      1.8055991929
 O     38.2167367514    -30.2826288690      1.7169022939
 H     37.7113276970    -30.2464263671      2.5302306293
 H     37.5356766266    -30.1649112870      1.0486964513
 O     21.3877984603    -18.8146059187      0.8415752672
 H     21.1460267400    -17.9421497206      0.5492320862
 H     21.2080797697    -19.3400002415      0.0674614583
 O     41.9313068616    -15.5133247426     -0.8118934355
 H     42.6078886166    -14.8217689677     -0.8929238196
 H     41.7029609273    -15.5783804522     -1.7557232620
 O     28.2013380219    -31.2270918881     -2.8634167472
 H     28.5665623967    -31.2097888553     -1.9975634562
 H     28.9620142813    -31.2174366500     -3.4561058070
 O     24.3901992680     -8.4783498681     -3.9795790579
 H     24.3844972806     -9.5019166532     -4.0176552103
 H     25.0568810365     -8.1825279522     -3.3510107697
 O     41.5318981331    -23.0014001193     -6.7136147010
 H     41.6847143368    -23.8551505294     -7.1264303687
 H     40.7971705157    -23.1827794834     -6.1352257318
 O     27.9464902496    -20.8216530286    -12.6647617042
 H     28.5834295998    -20.2140686762    -13.0264088403
 H     27.8779967205    -21.5415215732    -13.2896154264
89
# ORCA AIMD Position Step 620, t=310.00 fs, E_Pot=-6055005.71367273 kJ mol^-1, Unit is Angstrom
 C     24.7160904047    -16.8363115560      0.3934494125
 C     25.1518019071    -17.4371228911      1.6750574419
 C     25.9535089164    -18.6786594656      1.6186942758
 N     26.5745927571    -18.9708083694      0.3886648060
 C     26.0342058631    -18.4344271838     -0.8766657307
 C     25.7300210281    -16.9240870079     -0.7125896808
 C     27.6445879319    -19.8928346558      0.3388116398
 C     28.6806578405    -19.7868603458      1.2989096496
 C     29.8139821160    -20.5038654956      1.0561532895
 C     29.9742847771    -21.2879703698     -0.1316951926
 C     28.8660043870    -21.5131388511     -0.9212955322
 C     27.6929199436    -20.8677558401     -0.6866281573
 N     31.2467997688    -21.7771599937     -0.4634586017
 C     31.3930813676    -22.8968383441     -1.4080332508
 C     32.6203407444    -23.8091043809     -1.0518202242
 C     33.8340846629    -22.9389233420     -0.8565077416
 C     33.6458263817    -21.6381581356     -0.3865614712
 C     32.3568970830    -20.9627218010     -0.1867581967
 O     26.1545914260    -19.3912418794      2.6047793705
 O     32.3351873968    -19.8257818638      0.3196252263
 C     35.2151478608    -23.1344710506     -0.9252114902
 N     35.8539558996    -22.0221361081     -0.5328228435
 N     34.9026121999    -21.0965455968     -0.2410337453
 C     35.2344650170    -19.7918358474      0.1813005348
 C     35.9132380343    -24.4360570389     -1.1247143520
 N     37.2528676463    -24.4246554298     -0.8462080457
 O     35.2441693368    -25.4593202604     -1.4075316725
 C     34.8626931617    -19.3467904774      1.4266109766
 C     35.1223711203    -18.0894534037      1.8267596509
 C     35.7055728946    -17.1571361361      0.9411161143
 C     36.1522392293    -17.6126707009     -0.3200854254
 C     35.8709931693    -18.9109867135     -0.6786554042
 O     35.8043679062    -15.8752312286      1.4232708090
 C     36.7475434983    -15.0041016987      0.6851771420
 H     23.7852139966    -17.2841369082     -0.0350789228
 H     24.4738789495    -15.7767892793      0.5784574858
 H     25.8697240066    -16.7068578903      2.1968733315
 H     24.2558660876    -17.5461985926      2.4669169380
 H     26.8468218668    -18.5741183649     -1.6338381330
 H     25.1056198762    -18.9646840716     -1.2254607010
 H     26.6566163703    -16.3903941300     -0.6037104525
 H     25.2758009763    -16.5103872306     -1.6341022315
 H     28.5949605583    -18.9975529120      2.0518765320
 H     30.7181487481    -20.3822201607      1.6864875280
 H     28.8730587737    -22.1414202671     -1.7972946238
 H     26.8878047397    -21.0273920829     -1.3996544155
 H     30.4412266588    -23.4814658931     -1.3675238342
 H     31.6237991805    -22.4438047280     -2.4217369181
 H     32.4669653018    -24.3557297010     -0.0875719561
 H     32.8109841681    -24.5351323824     -1.8085876761
 H     37.7568588036    -23.5793193605     -0.5885333610
 H     37.7424408575    -25.3051074486     -0.9114903098
 H     34.3705057168    -19.9731789301      2.1371510214
 H     34.7609897034    -17.6998096530      2.7853553877
 H     36.6180869565    -16.9330038448     -1.0247732606
 H     36.1252189644    -19.2136823956     -1.6694487112
 H     36.3247312186    -14.7261843857     -0.2695645069
 H     36.9744321348    -14.1734727606      1.3030918145
 H     37.6703256847    -15.5408781685      0.5274692140
 O     36.7701368135    -19.9112866270     12.6565189271
 H     36.0301852907    -19.6815330982     12.0966521768
 H     37.0137508031    -20.8234746280     12.3736915144
 O     25.9610830457    -27.0043127454      6.5965931308
 H     25.2777895131    -26.3415628169      6.3203844815
 H     25.5850639732    -27.8413402570      6.3076468686
 O     33.3108065899     -7.8922492511      1.4829149067
 H     32.8746318435     -7.3271458981      0.7988584388
 H     34.0928217966     -7.4165244804      1.7092879878
 O     38.2046153094    -30.3002259687      1.6884363554
 H     37.6755913309    -30.2051696466      2.4907735300
 H     37.5667609787    -30.1085691316      0.9926465302
 O     21.3695038517    -18.8545922613      0.8508958536
 H     21.1136106819    -17.9534670906      0.6023676189
 H     21.2793309148    -19.2900037661     -0.0227947893
 O     41.9226926526    -15.5347764695     -0.8058547256
 H     42.6262736669    -14.8878116431     -0.9010781205
 H     41.7020882123    -15.8414983489     -1.7025007233
 O     28.2003713248    -31.2219348869     -2.8540277919
 H     28.5542652387    -31.2492918327     -1.9284910265
 H     28.9729229815    -31.1472194833     -3.3980745493
 O     24.3630770229     -8.4604067529     -3.9423357577
 H     24.3888844163     -9.3463929417     -4.0466795925
 H     24.9621675119     -8.2239270191     -3.2270382329
 O     41.5478745770    -23.0026408546     -6.6889471102
 H     41.7448148421    -23.8943289213     -6.9834564472
 H     40.8355278953    -23.1326820158     -6.0330783940
 O     27.9737371499    -20.8004092293    -12.6786001716
 H     28.6333059829    -20.2178866846    -13.1088101794
 H     27.8146346826    -21.5563532038    -13.2690699355
89
# ORCA AIMD Position Step 630, t=315.00 fs, E_Pot=-6054976.60321599 kJ mol^-1, Unit is Angstrom
 C     24.7220141370    -16.8081750971      0.3996474619
 C     25.1704889314    -17.4364066363      1.6677895002
 C     25.9710228478    -18.6952781257      1.6143338541
 N     26.5746448137    -18.9705396346      0.3944402958
 C     26.0623526329    -18.4509938241     -0.8628279007
 C     25.7498759607    -16.9038443743     -0.7179764865
 C     27.6422195202    -19.8977572346      0.3521667728
 C     28.6853168089    -19.7702055950      1.3036952788
 C     29.8228653817    -20.5089361407      1.0458627905
 C     29.9863190002    -21.3110067268     -0.0941155041
 C     28.9021635701    -21.5117139502     -0.9236068798
 C     27.7091241711    -20.8973768888     -0.6767013942
 N     31.2481746506    -21.7915071484     -0.4569455196
 C     31.3757827902    -22.8896814972     -1.3952869862
 C     32.6135754096    -23.8175100071     -1.0309240445
 C     33.8107413113    -22.9422416643     -0.8378870334
 C     33.6333574815    -21.6447067977     -0.3768545740
 C     32.3706240339    -20.9528706120     -0.1995670723
 O     26.1542373030    -19.3630846196      2.6157873798
 O     32.3378446221    -19.8365271234      0.3014200463
 C     35.2027919685    -23.1272331494     -0.9127682954
 N     35.8434327449    -22.0178058882     -0.5287768327
 N     34.8943854878    -21.0977929663     -0.2378408988
 C     35.2427734640    -19.8006528616      0.1813905585
 C     35.8794598503    -24.4357311897     -1.1031149978
 N     37.2239479223    -24.3840334961     -0.8609365882
 O     35.2478019202    -25.4450181893     -1.4231418225
 C     34.8635580170    -19.3440940793      1.4315333742
 C     35.1047911220    -18.0643977714      1.8144730774
 C     35.7159863737    -17.1565668874      0.9233334253
 C     36.1462120657    -17.5942993367     -0.3267147943
 C     35.8626539716    -18.9152497335     -0.6737385120
 O     35.8003042177    -15.8811379288      1.3967018836
 C     36.7327488256    -14.9878459163      0.6826880788
 H     23.8427893661    -17.3155743848      0.0189944968
 H     24.4560600327    -15.7811273462      0.6484310102
 H     25.7893387167    -16.6941621406      2.0961587112
 H     24.3933833841    -17.4795031786      2.2962452440
 H     26.7963263147    -18.7293606289     -1.5911460910
 H     25.1541049328    -18.9345490831     -1.1923060458
 H     26.7104728729    -16.3715606108     -0.5025280639
 H     25.3255868553    -16.4862804236     -1.6339343471
 H     28.5355309188    -19.0489315602      2.0958617662
 H     30.6624777579    -20.4254131234      1.6750019881
 H     28.8922682975    -22.2098284840     -1.7674437066
 H     26.9191593023    -21.0584902918     -1.4030046829
 H     30.5298635406    -23.5449345199     -1.4640193577
 H     31.5632070727    -22.6149842792     -2.4204661294
 H     32.4164515453    -24.3593478587     -0.1189837976
 H     32.9365672180    -24.5340801876     -1.8414524146
 H     37.7015139225    -23.5773635301     -0.5429260647
 H     37.7397443703    -25.2852073914     -0.9383819262
 H     34.3333601664    -19.9712067084      2.1605858449
 H     34.7608853549    -17.8065088277      2.8014762334
 H     36.6224914367    -16.9647800953     -1.0708388785
 H     36.1398527359    -19.2443895039     -1.6895522454
 H     36.2164431090    -14.6986902856     -0.2618351540
 H     36.8907316793    -14.1085793078      1.3633403341
 H     37.6849512699    -15.5408558555      0.5060825540
 O     36.7650647158    -19.9238712780     12.6829933192
 H     36.0793881821    -19.5818865462     12.0816430938
 H     36.9367347991    -20.7550288260     12.2838861827
 O     25.9713474451    -27.0193295536      6.5667123704
 H     25.3893257011    -26.3565218466      6.2703730095
 H     25.6055258332    -27.8375673860      6.2230609383
 O     33.3209974015     -7.8783823666      1.4070071337
 H     32.8871197689     -7.3092117399      0.7936763264
 H     34.1459116096     -7.3779909491      1.6269940865
 O     38.1894516284    -30.3173373740      1.6602343127
 H     37.6646089915    -30.1680401602      2.4520677922
 H     37.6192810570    -30.0547175616      0.9274997510
 O     21.3492303108    -18.8924541544      0.8492230056
 H     21.0899590528    -17.9623694167      0.7370364684
 H     21.3761054882    -19.2745209361     -0.0216278667
 O     41.9107962793    -15.5591482516     -0.8010106748
 H     42.6459237411    -14.9644331604     -0.9441078925
 H     41.7487967717    -16.0510142415     -1.5950748731
 O     28.1984837076    -31.2174877871     -2.8373822696
 H     28.5121711940    -31.2859973757     -1.9554828926
 H     29.0283871369    -31.0675540395     -3.3576416663
 O     24.3321680942     -8.4214091386     -3.9049855508
 H     24.4479954901     -9.4613476196     -4.0723734755
 H     24.8702456038     -8.3268234659     -3.1043760260
 O     41.5607484447    -23.0051742032     -6.6617972989
 H     41.8141209323    -23.9297670526     -6.8394680491
 H     40.9152079308    -23.0656779779     -5.9678244372
 O     28.0010475889    -20.7778012121    -12.6911260784
 H     28.6354335467    -20.3022298155    -13.2026741774
 H     27.8002032507    -21.5105719044    -13.2592094577
89
# ORCA AIMD Position Step 640, t=320.00 fs, E_Pot=-6055001.18121896 kJ mol^-1, Unit is Angstrom
 C     24.7211887651    -16.7735788703      0.3842814955
 C     25.2048768349    -17.4254359983      1.6530040523
 C     25.9863163350    -18.7139784669      1.6072008854
 N     26.5718524262    -18.9789275539      0.4100052439
 C     26.0848115857    -18.4417315909     -0.8507226833
 C     25.7838597265    -16.9042676637     -0.7234351784
 C     27.6377498976    -19.9172481261      0.3585519207
 C     28.6746083654    -19.7658232492      1.2754750798
 C     29.8387185463    -20.5132911961      1.0418605464
 C     29.9920700112    -21.3256088477     -0.0582466537
 C     28.9339564479    -21.5293051398     -0.9345155370
 C     27.7175464090    -20.8898474019     -0.6490333952
 N     31.2630609852    -21.7950038155     -0.4432291762
 C     31.3948774835    -22.9169433154     -1.3882538143
 C     32.6109774236    -23.8152290307     -1.0241451642
 C     33.7760179106    -22.9390792344     -0.8081427188
 C     33.6360803255    -21.6555800031     -0.3865898600
 C     32.3848149987    -20.9550995930     -0.1977374169
 O     26.1561717135    -19.3364229079      2.6296092333
 O     32.3326126634    -19.8473191032      0.2763431316
 C     35.1761486283    -23.1256803077     -0.8905008833
 N     35.8352751582    -22.0017616222     -0.5248271090
 N     34.8869939681    -21.1196970637     -0.2394373660
 C     35.2504639439    -19.7980091175      0.1814891179
 C     35.8483983038    -24.4253223744     -1.0819930253
 N     37.1926948995    -24.3649473390     -0.8830419813
 O     35.2591898596    -25.4249222696     -1.4368044503
 C     34.8572541880    -19.3572021852      1.4478017039
 C     35.0886107136    -18.0276701932      1.7990634151
 C     35.7233112358    -17.1490190309      0.9192739094
 C     36.1339331761    -17.5819973116     -0.3300552487
 C     35.8648164858    -18.9229529421     -0.6877156876
 O     35.8105302550    -15.8810322380      1.3647844732
 C     36.7006564369    -14.9840805666      0.6883743122
 H     23.8142645711    -17.3443347892      0.0845184371
 H     24.4043063928    -15.7440711281      0.6382308943
 H     25.8950103571    -16.6452767650      2.1346834195
 H     24.2496224522    -17.5560783747      2.3999052472
 H     26.8214488841    -18.7715256467     -1.6467090928
 H     25.1216357821    -18.9637368180     -1.1238321333
 H     26.6848549880    -16.3778693461     -0.3916788782
 H     25.4076366526    -16.4991808744     -1.6717726674
 H     28.5716283343    -19.1574060576      2.1765667621
 H     30.6696967183    -20.4316192322      1.7751942862
 H     29.0061138750    -22.2478492221     -1.7283198583
 H     26.8900821180    -21.0517050141     -1.3387984471
 H     30.5008690828    -23.5794193478     -1.4343449740
 H     31.4842742351    -22.6205978507     -2.4749736067
 H     32.3560067354    -24.4249248213     -0.1177619121
 H     32.8638050504    -24.4948015528     -1.7998131269
 H     37.6178039217    -23.5002111352     -0.4737796064
 H     37.7107143022    -25.1802195421     -0.9498922133
 H     34.3285594670    -20.0196263185      2.1083730002
 H     34.7988813257    -17.7790327058      2.8226679167
 H     36.6190563248    -16.9685966251     -1.0777017855
 H     36.1408895399    -19.2899685347     -1.6579587894
 H     36.2220835734    -14.6376706675     -0.2152636457
 H     36.7836829165    -14.1364060407      1.3346026697
 H     37.6458730215    -15.4568256633      0.4733886304
 O     36.7544525339    -19.9333878423     12.7054074137
 H     36.1601378501    -19.4459841286     12.1314841174
 H     36.9145860984    -20.7719195356     12.1977435125
 O     25.9867314321    -27.0392505628      6.5393883373
 H     25.4325694238    -26.2958182085      6.1801173717
 H     25.6173957703    -27.8345308511      6.1301324246
 O     33.3385470830     -7.8626440000      1.3337078766
 H     32.8568990353     -7.2599891150      0.7399946688
 H     34.1280373518     -7.3966243183      1.5347513464
 O     38.1748652488    -30.3347243492      1.6307069597
 H     37.6428464964    -30.1259927328      2.4005375964
 H     37.6695668629    -30.0019133190      0.8878685948
 O     21.3296178429    -18.9285944409      0.8519068037
 H     21.0733565452    -18.0204656089      0.8352365561
 H     21.4575312752    -19.2400731929     -0.0540774211
 O     41.8942775001    -15.5837556066     -0.7891168065
 H     42.6745256156    -15.0645217733     -1.0600360776
 H     41.8555579867    -16.2420933725     -1.5251017084
 O     28.2012977255    -31.2114940980     -2.8281885295
 H     28.4857992374    -31.3290981354     -1.8991446726
 H     28.9935699050    -31.0042116806     -3.2786030091
 O     24.3070249124     -8.4050707038     -3.8652278788
 H     24.4432519432     -9.2619643576     -4.0951390371
 H     24.7440964917     -8.3791190947     -3.0138227462
 O     41.5765870010    -23.0104295547     -6.6364113101
 H     41.8648209309    -23.9131907313     -6.6840093607
 H     40.9704387716    -23.0074279701     -5.8775569583
 O     28.0280627172    -20.7551010404    -12.7029909193
 H     28.6824846926    -20.3324897488    -13.3054597766
 H     27.7509666953    -21.5161434622    -13.2543987274
89
# ORCA AIMD Position Step 650, t=325.00 fs, E_Pot=-6054999.18988739 kJ mol^-1, Unit is Angstrom
 C     24.7106480661    -16.7507583111      0.3572303785
 C     25.2173137181    -17.3933157509      1.6735939986
 C     25.9873797120    -18.7082414265      1.6008859568
 N     26.5767310117    -19.0037925116      0.4223519311
 C     26.0931884472    -18.4236400729     -0.8497437800
 C     25.8151207004    -16.9221708879     -0.7220019412
 C     27.6311412653    -19.9373811431      0.3628900339
 C     28.6797617432    -19.7862354060      1.2407461260
 C     29.8531300808    -20.5032880383      1.0690923533
 C     30.0030126212    -21.3381323966     -0.0489856170
 C     28.9437786522    -21.5456729218     -0.9273032718
 C     27.7325650238    -20.8749360833     -0.6313581618
 N     31.2886980726    -21.7975605027     -0.4257475220
 C     31.4215297042    -22.9651337521     -1.3933754565
 C     32.5961436031    -23.8081642285     -1.0141449320
 C     33.7569505284    -22.9468252132     -0.7747588254
 C     33.6414820953    -21.6518836113     -0.4046174491
 C     32.3909368682    -20.9823884834     -0.1891690753
 O     26.1633860459    -19.3200511398      2.6515156646
 O     32.3215039180    -19.8433302035      0.2513416478
 C     35.1393113642    -23.1280290881     -0.8565705804
 N     35.8254242086    -21.9956890441     -0.5250885817
 N     34.8849897864    -21.1334691532     -0.2397288078
 C     35.2473409243    -19.7906119099      0.1878543233
 C     35.8320986938    -24.3966258136     -1.0666487923
 N     37.1617349451    -24.3319064309     -0.8999163754
 O     35.2636795693    -25.4141802317     -1.4518724882
 C     34.8550755788    -19.3590003506      1.4566100050
 C     35.0689868139    -18.0164545219      1.7928335480
 C     35.7230120987    -17.1385914945      0.9193381631
 C     36.1190852363    -17.5933362542     -0.3425569980
 C     35.8745097441    -18.9238273254     -0.7033935119
 O     35.8272097035    -15.8755947938      1.3381599149
 C     36.6531285177    -14.9834305868      0.6916207903
 H     23.7992339279    -17.2958731218      0.0960116560
 H     24.3898662110    -15.7259625519      0.5281581868
 H     25.9300122675    -16.7831517866      2.1887369340
 H     24.4707995850    -17.6224709517      2.2974016565
 H     26.7854166089    -18.6415268265     -1.6152916176
 H     25.1571913178    -18.9283866229     -1.0530795529
 H     26.6881474552    -16.3783344286     -0.3374216110
 H     25.5357351156    -16.5220410423     -1.7082084632
 H     28.6249406330    -19.2542115354      2.1821183095
 H     30.6033567921    -20.4263862158      1.8042185730
 H     29.0976612175    -22.2540260076     -1.7541580048
 H     26.8446968185    -21.0302737583     -1.2366770496
 H     30.4959190783    -23.5188333460     -1.2576715133
 H     31.4496121508    -22.5250206919     -2.3920976398
 H     32.3550349982    -24.4308281907     -0.1683214933
 H     32.7348589674    -24.5506282512     -1.8545240766
 H     37.4902461102    -23.5330505123     -0.4665356679
 H     37.7756046914    -25.2042353174     -0.9616143162
 H     34.3302951715    -20.0858239444      2.0897200327
 H     34.8552929467    -17.6186250311      2.7795197040
 H     36.6095341968    -16.9210349651     -1.0448322664
 H     36.1617626511    -19.3293775201     -1.6833577634
 H     36.2411745086    -14.5703542209     -0.2678997516
 H     36.7432875413    -14.1092597451      1.3737702419
 H     37.6731694183    -15.3694559975      0.4491854939
 O     36.7435766645    -19.9488026604     12.7230327269
 H     36.2500795101    -19.3060017399     12.2005567790
 H     36.8848734077    -20.6999663916     12.1755238975
 O     25.9982899569    -27.0556525557      6.5086923396
 H     25.5407388904    -26.3248310670      6.1234145572
 H     25.6322235179    -27.8027931264      6.0432358259
 O     33.3512080839     -7.8477212451      1.2558689174
 H     32.8382420738     -7.2313962674      0.7097840503
 H     34.1815322077     -7.3752519983      1.4615735474
 O     38.1613558898    -30.3530937398      1.6004050244
 H     37.6089727425    -30.0770712455      2.3470153251
 H     37.7089150891    -29.9427521276      0.8488306234
 O     21.3125904677    -18.9737625779      0.8586933092
 H     21.0387629102    -18.0284192350      0.8613617317
 H     21.5162948325    -19.1209721677     -0.0796130335
 O     41.8829535595    -15.6129939119     -0.7875522452
 H     42.6518221674    -15.1596303694     -1.1190454657
 H     41.9253880107    -16.3799794042     -1.3451354479
 O     28.2006046562    -31.2067294225     -2.8126705507
 H     28.4368667488    -31.3716628249     -1.8898442822
 H     29.0369546145    -30.9190322503     -3.2465618142
 O     24.2814401811     -8.3763834846     -3.8194421572
 H     24.4443468721     -9.3072017494     -4.2231472943
 H     24.6074991402     -8.3736207232     -2.8980056466
 O     41.5903638246    -23.0146156884     -6.6079125050
 H     41.9335874822    -23.9277613360     -6.5358632286
 H     41.0477068493    -22.9350684313     -5.8146731144
 O     28.0594226773    -20.7344835055    -12.7254427756
 H     28.6881053154    -20.3576720071    -13.3256506643
 H     27.6836957763    -21.4864623036    -13.1703346093
89
# ORCA AIMD Position Step 660, t=330.00 fs, E_Pot=-6054973.51896921 kJ mol^-1, Unit is Angstrom
 C     24.7074500198    -16.7406993406      0.3323009039
 C     25.2409347701    -17.3609582586      1.6696987150
 C     25.9841049799    -18.6880893358      1.6104231616
 N     26.5825563682    -19.0360423584      0.4238690488
 C     26.0910093709    -18.3975475719     -0.8327257679
 C     25.8341460345    -16.9415911221     -0.7065975252
 C     27.6289864154    -19.9505246911      0.3690925068
 C     28.7093223257    -19.8226116136      1.2283847655
 C     29.8544123572    -20.4991207885      1.0915795165
 C     30.0265551167    -21.3409257983     -0.0573021020
 C     28.9384856261    -21.5571633703     -0.9009326997
 C     27.7481740635    -20.8739475009     -0.6401624826
 N     31.3164331007    -21.8105491019     -0.4057955223
 C     31.4301971766    -22.9887160219     -1.3736870703
 C     32.5788054406    -23.8221226378     -1.0268896397
 C     33.7580088286    -22.9688870993     -0.7496042043
 C     33.6393136362    -21.6336635657     -0.4210590473
 C     32.3847331538    -21.0036192468     -0.1712270578
 O     26.1725096976    -19.3061412219      2.6678092504
 O     32.3079504878    -19.8339502384      0.2254646404
 C     35.1132816245    -23.1355117654     -0.8137607035
 N     35.8123909789    -22.0127686020     -0.5289212961
 N     34.8870747094    -21.1167120709     -0.2346306870
 C     35.2364334652    -19.7815263641      0.1914174032
 C     35.8181233726    -24.3793825031     -1.0700940302
 N     37.1488094214    -24.3093841251     -0.9156865227
 O     35.2603034754    -25.4059405547     -1.4654424144
 C     34.8536414444    -19.3502426000      1.4583462622
 C     35.0552925967    -18.0184587721      1.7953723584
 C     35.7116762712    -17.1487077337      0.9053384240
 C     36.1075796936    -17.6105717433     -0.3586204850
 C     35.8853006622    -18.9291117841     -0.7178361335
 O     35.8377044513    -15.8723222625      1.3259457450
 C     36.6230629139    -14.9521300446      0.6759909898
 H     23.7821226016    -17.2560611059      0.0292989409
 H     24.4346661406    -15.6667253965      0.4045931956
 H     25.9941414964    -16.8008169280      2.2941341135
 H     24.3839526454    -17.6852570057      2.4539373707
 H     26.8618943143    -18.5372582522     -1.6624299831
 H     25.1332328398    -18.9010283699     -1.1059011308
 H     26.7441207776    -16.4032274143     -0.3530768157
 H     25.6587713353    -16.5405850593     -1.7084371442
 H     28.6039284363    -19.2414692886      2.1364640206
 H     30.6402860781    -20.4005172587      1.8713122966
 H     29.0614623172    -22.1592776834     -1.7768447259
 H     26.8270536055    -21.0391984759     -1.1946127580
 H     30.4966854624    -23.5022393279     -1.1260404882
 H     31.4646125609    -22.4852629312     -2.3517469792
 H     32.3600710319    -24.4400142543     -0.1208875273
 H     32.6874294001    -24.5221737069     -1.8200406387
 H     37.5013338182    -23.4549980048     -0.3982228306
 H     37.6881012169    -25.0837915378     -0.9601749278
 H     34.3656763635    -20.0581748196      2.1053358283
 H     34.8468339826    -17.4917567130      2.7287385452
 H     36.5891119531    -16.8924619025     -1.0083996374
 H     36.1778187567    -19.3045007086     -1.6861959063
 H     36.2335710507    -14.5867355568     -0.2650957157
 H     36.7334085199    -14.1292715368      1.3796459582
 H     37.6356888172    -15.3024735862      0.4907057420
 O     36.7317442705    -19.9593732059     12.7466633335
 H     36.3634179785    -19.2085968395     12.2551623058
 H     36.8433376464    -20.6633259667     12.0826860886
 O     26.0118067635    -27.0742944880      6.4779336561
 H     25.6269091075    -26.2887102411      6.0546074275
 H     25.6479421602    -27.8080736479      5.9495505680
 O     33.3655146150     -7.8312887465      1.1760726857
 H     32.8515305013     -7.2081575823      0.6925364650
 H     34.1845043341     -7.3634014657      1.3644285689
 O     38.1435840426    -30.3690492784      1.5689214138
 H     37.6042598040    -30.0489315486      2.2900099867
 H     37.7785363233    -29.9052860507      0.8128517916
 O     21.2955690064    -19.0133517205      0.8603736424
 H     21.0129474788    -18.1112833398      0.9179843276
 H     21.5637187302    -19.0299081877     -0.0540314104
 O     41.8743569029    -15.6459001350     -0.7908077788
 H     42.6519897537    -15.1671348835     -1.1317362523
 H     41.9218436613    -16.5690422895     -1.1304665446
 O     28.2025403044    -31.2010208254     -2.7991776874
 H     28.4072904520    -31.4028370959     -1.9006354198
 H     29.0191562447    -30.8563128149     -3.1532479458
 O     24.2547516805     -8.3525458991     -3.7750758004
 H     24.4514259494     -9.1826762851     -4.2227514396
 H     24.4657376193     -8.4477904474     -2.8656659766
 O     41.6053061279    -23.0240774968     -6.5755148414
 H     41.9952456035    -23.8788875772     -6.4100048641
 H     41.1243983056    -22.8426289205     -5.7705214343
 O     28.0894559323    -20.7122832322    -12.7428446081
 H     28.7197112537    -20.3838827346    -13.3978720042
 H     27.6250802891    -21.4704837279    -13.1233133598
89
# ORCA AIMD Position Step 670, t=335.00 fs, E_Pot=-6055019.97947756 kJ mol^-1, Unit is Angstrom
 C     24.7206343158    -16.7269004932      0.3152544721
 C     25.2365776678    -17.3439784196      1.6862972125
 C     25.9921379406    -18.6719495949      1.6350647324
 N     26.5715214743    -19.0574045520      0.4209949448
 C     26.1000617088    -18.3929208715     -0.8267725293
 C     25.8498325820    -16.9448547736     -0.6761908091
 C     27.6442171307    -19.9669272934      0.3702125438
 C     28.7238448201    -19.8449609878      1.2490919369
 C     29.8824803091    -20.5250579308      1.0991846564
 C     30.0548782286    -21.3293944717     -0.0637835543
 C     28.9341983871    -21.5599416853     -0.8640341521
 C     27.7477010592    -20.8806390134     -0.6612588674
 N     31.3292291858    -21.8380070370     -0.3824901384
 C     31.4088602207    -22.9691068214     -1.3228418823
 C     32.5744661836    -23.8545977249     -1.0260558616
 C     33.7556869420    -22.9812473123     -0.7355448746
 C     33.6347106230    -21.6217354751     -0.4306457329
 C     32.3779960710    -20.9918965686     -0.1477827136
 O     26.1803104813    -19.2874188397      2.6704700579
 O     32.2924504825    -19.8274354145      0.1989189508
 C     35.1124523100    -23.1534658967     -0.7708428649
 N     35.7988956091    -22.0384799984     -0.5268935398
 N     34.8861233278    -21.0865678599     -0.2310110223
 C     35.2286210171    -19.7699589134      0.1821289442
 C     35.8059536568    -24.3834822248     -1.0908536037
 N     37.1462702475    -24.2564523050     -0.9183410262
 O     35.2510579656    -25.3959754337     -1.4768351190
 C     34.8516472939    -19.3319487420      1.4558748478
 C     35.0551933036    -18.0097017144      1.7982369209
 C     35.6913016041    -17.1748269013      0.8777172349
 C     36.1015892526    -17.6172991947     -0.3678616671
 C     35.8885581820    -18.9418289119     -0.7218050884
 O     35.8346091729    -15.8811202264      1.3287544775
 C     36.6167643332    -14.9023880294      0.6517651970
 H     23.8109405579    -17.2438005774     -0.0394526337
 H     24.5224026443    -15.6630950859      0.3549212766
 H     25.9265003845    -16.7080609494      2.2560835534
 H     24.4677403209    -17.5282203610      2.3675665487
 H     26.8417961659    -18.5116455584     -1.5595472855
 H     25.1845485942    -18.8649576287     -1.2261529325
 H     26.7754356916    -16.4790082556     -0.3712524604
 H     25.6749453962    -16.5437458976     -1.6942668307
 H     28.5581255757    -19.1511357311      2.0778174033
 H     30.6386665853    -20.3846829808      1.8187470302
 H     28.9663989936    -22.0945951088     -1.8337629796
 H     26.8729331713    -21.0924966838     -1.2692154648
 H     30.4931498612    -23.5549568558     -1.1811429879
 H     31.4708811008    -22.5979922133     -2.3707873561
 H     32.3673863470    -24.4093164173     -0.1171704221
 H     32.7878151127    -24.5777724868     -1.8592917848
 H     37.5265630038    -23.5148787875     -0.4291206974
 H     37.7073539604    -25.1732371990     -0.9742114635
 H     34.3799141019    -20.0079457159      2.1749483100
 H     34.7448580602    -17.5364021334      2.7228296978
 H     36.5851454413    -16.9117019952     -1.0418210065
 H     36.1915328734    -19.2808938862     -1.7145530088
 H     36.1410146274    -14.6009626116     -0.3069866103
 H     36.6942673112    -14.0804051832      1.3691331491
 H     37.6405337115    -15.3052604151      0.5165125849
 O     36.7197188711    -19.9706435703     12.7691776441
 H     36.4947473229    -19.1569419472     12.3245353706
 H     36.7824316385    -20.5710699600     12.0054663553
 O     26.0224342573    -27.0943322296      6.4425231267
 H     25.7473853141    -26.2663879763      6.0060546622
 H     25.6873946060    -27.7866141519      5.8848396050
 O     33.3827216279     -7.8177107850      1.0953222830
 H     32.8223290723     -7.1315895741      0.6391030969
 H     34.1932004972     -7.3483824410      1.2666019196
 O     38.1244478574    -30.3845593406      1.5352320729
 H     37.5978286751    -30.0253806238      2.2638659619
 H     37.8615847622    -29.8760260165      0.7575647612
 O     21.2788275383    -19.0519436308      0.8584333316
 H     20.9478800495    -18.1538774421      1.0590240000
 H     21.6407736992    -19.0145805075     -0.0539756510
 O     41.8638400631    -15.6837934599     -0.7959323869
 H     42.6293569631    -15.2507999351     -1.1481946185
 H     41.9631443225    -16.6296377671     -0.8764688019
 O     28.2020580421    -31.1941164511     -2.7886309280
 H     28.3925548554    -31.4546553869     -1.8435013173
 H     29.0247234124    -30.7871819304     -3.0699311782
 O     24.2237918096     -8.3188677465     -3.7346988648
 H     24.4771614316     -9.1267529946     -4.1776128571
 H     24.3524128499     -8.5932620257     -2.7870617825
 O     41.6206981772    -23.0337787927     -6.5416812159
 H     42.0723097758    -23.8496983274     -6.2919568330
 H     41.1920818596    -22.7270968084     -5.7156747731
 O     28.1202232690    -20.6872576782    -12.7567669987
 H     28.7123908333    -20.4735320396    -13.4972376715
 H     27.6105495765    -21.4230519352    -13.1154490234
89
# ORCA AIMD Position Step 680, t=340.00 fs, E_Pot=-6054966.46154187 kJ mol^-1, Unit is Angstrom
 C     24.7553328497    -16.7179785034      0.3128265010
 C     25.2290581419    -17.3259905693      1.6822810953
 C     26.0099262387    -18.6552538611      1.6508614865
 N     26.5413229336    -19.0642816087      0.4248343600
 C     26.1120360328    -18.4123625980     -0.8211234232
 C     25.8640240192    -16.9374275134     -0.6517640082
 C     27.6637380634    -19.9839148897      0.3649755967
 C     28.7132851648    -19.8502426174      1.2857134288
 C     29.9149147187    -20.5665292037      1.0881819818
 C     30.0709076289    -21.3150734354     -0.0625114853
 C     28.9379010033    -21.5612646853     -0.8463945087
 C     27.7357314258    -20.8889014503     -0.6762055555
 N     31.3187289519    -21.8680612516     -0.3527887546
 C     31.3769926018    -22.9461479072     -1.2755656214
 C     32.5909066543    -23.8902276769     -1.0181926434
 C     33.7411615065    -22.9712713307     -0.7290470880
 C     33.6319147377    -21.6227741899     -0.4277750611
 C     32.3846447181    -20.9714348513     -0.1390762756
 O     26.1885970378    -19.2692306285      2.6736960374
 O     32.2727189967    -19.8122536002      0.1779733516
 C     35.1190564209    -23.1762378053     -0.7367016282
 N     35.7927248049    -22.0480968081     -0.5093806119
 N     34.8783790007    -21.0802361158     -0.2397001670
 C     35.2257951152    -19.7604399312      0.1678029162
 C     35.8122346421    -24.3854771060     -1.1093746380
 N     37.1601263669    -24.2379005198     -0.9289662344
 O     35.2365365880    -25.3930808074     -1.4908174636
 C     34.8473686408    -19.3111679296      1.4539011656
 C     35.0594905130    -18.0005984166      1.7956132397
 C     35.6712658184    -17.1784881774      0.8556670953
 C     36.1033250854    -17.6183004554     -0.3786303790
 C     35.8865477236    -18.9520102814     -0.7230937255
 O     35.8245408316    -15.8960326188      1.3367891593
 C     36.6157870214    -14.8648450023      0.6258559762
 H     23.8698797551    -17.2255028964     -0.0641510168
 H     24.5563098190    -15.6316425814      0.4177728376
 H     25.8589312431    -16.5288177510      2.1136212017
 H     24.3157580251    -17.3671191777      2.4027626630
 H     26.9717091854    -18.5786667040     -1.5579951009
 H     25.2514046729    -18.8790237253     -1.3181029873
 H     26.8392806286    -16.4841035162     -0.3040933595
 H     25.6063294638    -16.5393222960     -1.6295841511
 H     28.5889141223    -19.0840580839      2.0317241949
 H     30.7499621110    -20.3778589158      1.7975149966
 H     28.9473154248    -22.0752289921     -1.7765402034
 H     26.9538780543    -21.1258440845     -1.3985151248
 H     30.4832386254    -23.5757607332     -1.2937933893
 H     31.4468084878    -22.7175280160     -2.3415731422
 H     32.3680344499    -24.4687094366     -0.0961028310
 H     32.8717983073    -24.5644607858     -1.8042960726
 H     37.5890812918    -23.4426824088     -0.4010672421
 H     37.6341997679    -25.0684005059     -0.9841994074
 H     34.3863441191    -19.9580390540      2.1849935222
 H     34.6359144067    -17.6687634321      2.7447102153
 H     36.5846531321    -16.9721425784     -1.0966213282
 H     36.1751179002    -19.2995096650     -1.7085297822
 H     36.1036516969    -14.6044508513     -0.3003215041
 H     36.6197460525    -13.9882021394      1.3071200011
 H     37.6187440955    -15.2676637881      0.4632991185
 O     36.7066162868    -19.9828779501     12.7848290028
 H     36.6277227807    -19.0655837905     12.4440738141
 H     36.7331340422    -20.5042802858     11.9979772539
 O     26.0346151992    -27.1105824414      6.4068941824
 H     25.8714950286    -26.2934267963      5.9710242638
 H     25.7090393763    -27.7836535598      5.7887516511
 O     33.3946525959     -7.7982784293      1.0079563854
 H     32.8471831733     -7.1444836757      0.6356554425
 H     34.2396067072     -7.3271860050      1.1788149159
 O     38.1047907122    -30.4004416118      1.5005423057
 H     37.5961754882    -29.9982652346      2.2045514585
 H     37.9391827176    -29.8495936991      0.7310358883
 O     21.2626206993    -19.0897682248      0.8542937702
 H     20.9147194156    -18.2550456914      1.1629297740
 H     21.6732858172    -18.9699803566      0.0193636898
 O     41.8446478201    -15.7216922384     -0.7960839234
 H     42.6679382183    -15.3915985746     -1.1995481644
 H     42.0730370934    -16.6562052622     -0.6611407261
 O     28.2038153968    -31.1892923282     -2.7699439664
 H     28.3438795233    -31.4787825101     -1.9019502517
 H     29.0286150090    -30.7086233224     -2.9905811494
 O     24.1924929219     -8.2872408380     -3.6805894095
 H     24.5333998792     -9.1010212850     -4.2259963935
 H     24.1961325353     -8.6618269516     -2.8089920658
 O     41.6353024957    -23.0430122127     -6.5032295361
 H     42.1395320940    -23.7976463261     -6.1664018847
 H     41.2937990670    -22.6422614831     -5.7195772618
 O     28.1531387048    -20.6628180706    -12.7761261298
 H     28.6957609076    -20.5460446895    -13.5473159941
 H     27.5857379508    -21.3723437189    -13.0801162934
89
# ORCA AIMD Position Step 690, t=345.00 fs, E_Pot=-6054975.05216249 kJ mol^-1, Unit is Angstrom
 C     24.7961592913    -16.7120953511      0.3325119147
 C     25.1970004046    -17.2904260598      1.6701571571
 C     26.0209694860    -18.6272527032      1.6522773851
 N     26.5092695769    -19.0689859828      0.4370542895
 C     26.1499119796    -18.4424701628     -0.8349127209
 C     25.8962011682    -16.9287783569     -0.6385015042
 C     27.6612600849    -19.9854641322      0.3670608874
 C     28.7093935220    -19.8625236214      1.3066708680
 C     29.9273115829    -20.5796567999      1.0952773164
 C     30.0622302478    -21.3151469974     -0.0589426503
 C     28.9443891893    -21.5540966576     -0.8456697879
 C     27.7341401900    -20.9034088943     -0.6836311978
 N     31.2985073352    -21.8809382892     -0.3133255956
 C     31.3614856753    -22.9703529521     -1.2578927963
 C     32.6060994115    -23.9009840641     -0.9822627042
 C     33.7305572802    -22.9579585738     -0.7248578695
 C     33.6267903995    -21.6271191072     -0.4112818581
 C     32.3948590208    -20.9654843491     -0.1548357305
 O     26.2005197957    -19.2555357655      2.6876306545
 O     32.2508618003    -19.7858239209      0.1630774963
 C     35.1122118306    -23.1852788344     -0.7153824688
 N     35.7950061917    -22.0386719877     -0.4762770650
 N     34.8704387887    -21.1040993942     -0.2591109969
 C     35.2204410956    -19.7622016786      0.1633163854
 C     35.8342427257    -24.3796859587     -1.1147137016
 N     37.1766931613    -24.2268630552     -0.9429246800
 O     35.2255172506    -25.3938763423     -1.5071888710
 C     34.8454656064    -19.2977968103      1.4386041954
 C     35.0551655282    -18.0056364260      1.7893799137
 C     35.6603326703    -17.1436728942      0.8493629620
 C     36.1090577353    -17.6238613404     -0.3935828411
 C     35.8815010077    -18.9518267416     -0.7257497900
 O     35.8190813995    -15.8998629623      1.3404955230
 C     36.5984453246    -14.8521081937      0.6102046524
 H     23.8734722330    -17.2016635979     -0.0656665470
 H     24.5453273943    -15.6684841885      0.5098048555
 H     25.8656493568    -16.4573383366      2.0141604445
 H     24.3333572993    -17.3210659003      2.3521879717
 H     26.9853550021    -18.5994833478     -1.4639557277
 H     25.2735614318    -18.9480985231     -1.3238662511
 H     26.7840446011    -16.4694751730     -0.2699544522
 H     25.5697696368    -16.4889568495     -1.6046248152
 H     28.6747548506    -19.0714580585      2.0742592304
 H     30.7727980523    -20.4230910575      1.7079778351
 H     29.0542403319    -22.1963016504     -1.7494010599
 H     27.0011335408    -21.0699315227     -1.4631402885
 H     30.4290251090    -23.5444713824     -1.2485864428
 H     31.4447596075    -22.6200528217     -2.3256104753
 H     32.4123846016    -24.5563993493     -0.1248750602
 H     32.8855785757    -24.5776744118     -1.8221974810
 H     37.5323887199    -23.4393694615     -0.4499250173
 H     37.7412239244    -25.1152783900     -1.0104432421
 H     34.3577024453    -19.9703193314      2.1442562222
 H     34.6329870129    -17.7129437423      2.7368108623
 H     36.5977353999    -16.9896065647     -1.1325460546
 H     36.1487483400    -19.3595021510     -1.6964160947
 H     36.0983834514    -14.6018546436     -0.3346491821
 H     36.5540452952    -13.9647740281      1.2081681229
 H     37.6167483688    -15.1763553539      0.3751019511
 O     36.6926895736    -19.9872862057     12.8010251300
 H     36.7707811905    -19.0595308760     12.6107488794
 H     36.6844866863    -20.4770299242     11.9413800999
 O     26.0470585726    -27.1326514250      6.3721029705
 H     25.9903547636    -26.2584007842      5.8984540019
 H     25.7381056787    -27.7546529874      5.7039244901
 O     33.4146665119     -7.7811499800      0.9224896792
 H     32.8041446124     -7.0814455180      0.5854549707
 H     34.2305807810     -7.3395883696      1.0803495848
 O     38.0862577620    -30.4174870446      1.4644664312
 H     37.5811085628    -29.9585758554      2.1459974732
 H     38.0061663683    -29.8203776166      0.7131493061
 O     21.2447334708    -19.1362284415      0.8575376654
 H     20.9015778808    -18.3096973654      1.2043504522
 H     21.7112123860    -18.8442265756      0.0384621938
 O     41.8321620254    -15.7660027807     -0.7982259129
 H     42.6468597342    -15.5095685222     -1.2444916972
 H     42.1298269381    -16.6177310408     -0.4171143270
 O     28.2079238868    -31.1795963945     -2.7590063082
 H     28.3101007210    -31.5458522569     -1.8387198277
 H     28.9804640963    -30.6619403797     -2.9040667756
 O     24.1668014605     -8.2697056623     -3.6346095447
 H     24.5000377829     -8.8826254865     -4.1913605797
 H     24.0297555286     -8.6907254292     -2.7704673042
 O     41.6527364269    -23.0552102144     -6.4647553527
 H     42.1947889242    -23.7308870677     -6.0640948744
 H     41.3695935364    -22.5253953107     -5.6874263383
 O     28.1855541257    -20.6406065648    -12.7989107410
 H     28.7388006350    -20.5687686765    -13.6075741483
 H     27.5179348027    -21.3293332256    -12.9859242562
89
# ORCA AIMD Position Step 700, t=350.00 fs, E_Pot=-6054986.87566560 kJ mol^-1, Unit is Angstrom
 C     24.8110756782    -16.7180975289      0.3554017192
 C     25.1832782794    -17.2511041253      1.6535996459
 C     26.0152780020    -18.5970177595      1.6604047210
 N     26.4934697679    -19.0803927935      0.4526797733
 C     26.1803678900    -18.4595230914     -0.8447502259
 C     25.9229552078    -16.9302441856     -0.6490386740
 C     27.6368981461    -19.9745754238      0.3842952174
 C     28.7226917873    -19.8799543417      1.3111594077
 C     29.8969919293    -20.5609037800      1.1090052545
 C     30.0319885978    -21.3287094330     -0.0452707456
 C     28.9562485804    -21.5559532043     -0.8743918886
 C     27.7471578220    -20.9122425120     -0.6809794781
 N     31.2904763202    -21.8795879733     -0.2726493119
 C     31.3670723096    -23.0227311088     -1.2632249189
 C     32.6085855932    -23.8927444655     -0.9476121724
 C     33.7347421553    -22.9626499232     -0.7184049338
 C     33.6175408816    -21.6303175747     -0.3893410230
 C     32.3804020915    -20.9543942524     -0.1787506158
 O     26.2140500222    -19.2353643803      2.7001331573
 O     32.2338970789    -19.7684082807      0.1458326583
 C     35.1045171273    -23.1745085096     -0.7072838848
 N     35.7978901187    -22.0298960775     -0.4366695137
 N     34.8695324683    -21.1253402492     -0.2736367836
 C     35.2111405873    -19.7779983296      0.1638357345
 C     35.8489144454    -24.3875089592     -1.1128310355
 N     37.1970401909    -24.2474023013     -0.9671633655
 O     35.2304761471    -25.3834108938     -1.5201316717
 C     34.8393745244    -19.3105447910      1.4098481709
 C     35.0479119083    -18.0090104552      1.7723758162
 C     35.6590497443    -17.1074357441      0.8501577140
 C     36.1147961814    -17.6208956587     -0.4035064071
 C     35.8713350134    -18.9516896485     -0.7306358533
 O     35.8266069768    -15.8769460256      1.3366639008
 C     36.5595699002    -14.8651269415      0.5874515380
 H     23.9052310181    -17.1535209114     -0.0354357874
 H     24.5331955723    -15.6607522548      0.5268525625
 H     25.9095336369    -16.5697009356      2.0578023412
 H     24.3653984682    -17.3820905604      2.3851558670
 H     27.0888601233    -18.5982324005     -1.4993210238
 H     25.3282871561    -18.9669572427     -1.2596451763
 H     26.8525886964    -16.3952109472     -0.2636423287
 H     25.6505577839    -16.4477347215     -1.5768222366
 H     28.7228706312    -19.1782020695      2.1165774504
 H     30.8053357155    -20.4512654493      1.7359803015
 H     29.1370637758    -22.2626496180     -1.6386851677
 H     26.9674764710    -20.9693970018     -1.4441100154
 H     30.4076048605    -23.5218810281     -1.1095292759
 H     31.4549486324    -22.4880836115     -2.2083888936
 H     32.4774009359    -24.6176631293     -0.1319555431
 H     32.8179677406    -24.5173107507     -1.8173109952
 H     37.4911824510    -23.3990717985     -0.4850657710
 H     37.8284928194    -25.0141673197     -1.0344295226
 H     34.3208951578    -19.9955919793      2.0698873082
 H     34.7203014761    -17.6186347094      2.7415876728
 H     36.6087715404    -16.9743618585     -1.1142008858
 H     36.1444317881    -19.3884304244     -1.6933973261
 H     36.0741469668    -14.6410842471     -0.3803963479
 H     36.5225358175    -13.9366388891      1.2210612013
 H     37.6174939370    -15.1075937914      0.3582061104
 O     36.6783700098    -19.9978397240     12.8176136803
 H     36.9119801585    -19.0625463840     12.7129206708
 H     36.6425042679    -20.3435373885     11.9470801073
 O     26.0588281160    -27.1481247601      6.3311021298
 H     26.1206790265    -26.3213639235      5.8989700865
 H     25.7701181764    -27.7343731099      5.6367433407
 O     33.4274511015     -7.7639297149      0.8334060433
 H     32.8258139946     -7.0657762038      0.5707127791
 H     34.2747011033     -7.3027261951      0.9874882697
 O     38.0661860006    -30.4317073746      1.4278771958
 H     37.5729928085    -29.9424865497      2.0975671841
 H     38.0860224710    -29.8143359339      0.6854466319
 O     21.2304819241    -19.1794863775      0.8541070314
 H     20.8726428287    -18.3719138844      1.2717610234
 H     21.7078312534    -18.7659420192      0.1374634097
 O     41.8276704461    -15.8196059738     -0.7978790162
 H     42.5934164765    -15.5595249070     -1.3067646561
 H     42.0866293751    -16.5077737884     -0.1928674165
 O     28.2081706712    -31.1746289692     -2.7419823942
 H     28.2796128801    -31.5669852268     -1.8789579245
 H     28.9906401151    -30.5846551650     -2.8072133641
 O     24.1339181115     -8.2358879126     -3.5761659813
 H     24.5660819567     -8.8738662786     -4.2880843965
 H     23.8718054904     -8.7631514583     -2.7898142906
 O     41.6686523244    -23.0643711932     -6.4197875967
 H     42.2680826496    -23.6890670948     -5.9752004615
 H     41.4556939178    -22.4319533309     -5.7372693120
 O     28.2181869746    -20.6190827509    -12.8236469263
 H     28.7182874145    -20.6217872496    -13.6189870618
 H     27.5154177125    -21.2410944553    -12.9129298968
89
# ORCA AIMD Position Step 710, t=355.00 fs, E_Pot=-6054998.61175780 kJ mol^-1, Unit is Angstrom
 C     24.8058586351    -16.7091822046      0.3562862616
 C     25.2032382340    -17.2523909794      1.6637537914
 C     25.9972946686    -18.5818595957      1.6780659433
 N     26.4981035564    -19.0935290796      0.4660850315
 C     26.2215093157    -18.4485248690     -0.8467384123
 C     25.9573004740    -16.9327744962     -0.6591456468
 C     27.6164713201    -19.9738780807      0.4096933179
 C     28.7211451958    -19.8885675416      1.3073860902
 C     29.8654830546    -20.5396620931      1.1171948793
 C     30.0010216672    -21.3463706341     -0.0143896278
 C     28.9694272688    -21.5605299584     -0.9045980460
 C     27.7565037579    -20.8957310067     -0.6653985473
 N     31.2959902234    -21.8755674921     -0.2388875473
 C     31.3848818259    -23.0581928911     -1.2384137002
 C     32.5988148284    -23.8788721198     -0.9288763129
 C     33.7478189236    -22.9770339220     -0.7057922605
 C     33.6069273332    -21.6361446465     -0.3730313690
 C     32.3370350585    -20.9344291975     -0.1949006648
 O     26.2255572206    -19.1999025921      2.7040801077
 O     32.2234834846    -19.7645041324      0.1215851933
 C     35.1215377707    -23.1629030806     -0.7106364846
 N     35.7987931012    -22.0380454442     -0.4014189531
 N     34.8685606529    -21.1173573750     -0.2698136446
 C     35.2053129184    -19.7988105899      0.1504398271
 C     35.8519981059    -24.4064398831     -1.1075095941
 N     37.2134863185    -24.2664059461     -0.9913843582
 O     35.2484398540    -25.3654902738     -1.5297439263
 C     34.8228089287    -19.3365249756      1.3853741866
 C     35.0458905492    -17.9947107920      1.7452365478
 C     35.6644547734    -17.1050842526      0.8471782266
 C     36.1140743571    -17.6058898126     -0.3980809111
 C     35.8577334495    -18.9532114676     -0.7358601707
 O     35.8437486418    -15.8350026513      1.3283233897
 C     36.5134284408    -14.8754927134      0.5632015197
 H     23.8666944959    -17.1886133794     -0.0296922436
 H     24.5756124283    -15.6430992854      0.4401092371
 H     25.9882472356    -16.6251396773      2.2290559802
 H     24.3635899919    -17.4336143474      2.4411880197
 H     27.0603760348    -18.5843669095     -1.5044896593
 H     25.3137582339    -18.9671645553     -1.2885506797
 H     26.8441586661    -16.4501972255     -0.3298512668
 H     25.7507033724    -16.4324555822     -1.6350275491
 H     28.6588053212    -19.2597959545      2.2183046861
 H     30.6755132958    -20.4490923081      1.7930629722
 H     29.0993125626    -22.3279008056     -1.6947316539
 H     26.9267129963    -20.9267988750     -1.3604350147
 H     30.4530298223    -23.5930235080     -1.0638796656
 H     31.4482864452    -22.5179006975     -2.2033982189
 H     32.5030993718    -24.5995688768     -0.1011356162
 H     32.7697900082    -24.4674291923     -1.8382571984
 H     37.4933265204    -23.3787065443     -0.5494621534
 H     37.9085429361    -24.9941614677     -1.0836331887
 H     34.2793239217    -20.0147240906      2.0359454195
 H     34.8335025464    -17.5467601278      2.7070698210
 H     36.6343872691    -16.9473634855     -1.0969889932
 H     36.1681356206    -19.3475795212     -1.6928561049
 H     36.0212167444    -14.7081818732     -0.3885872209
 H     36.4940375525    -14.0216465088      1.1848616603
 H     37.5633925765    -15.1169772023      0.4242268642
 O     36.6641784278    -20.0047392021     12.8396921178
 H     37.0508991805    -19.1143958220     12.8034798487
 H     36.5998517498    -20.2194287629     11.8797922462
 O     26.0708528259    -27.1671941270      6.2924923172
 H     26.2594603861    -26.2951530141      5.8731012534
 H     25.7918145516    -27.7470431035      5.5530643209
 O     33.4437343191     -7.7461960577      0.7449917269
 H     32.8394835176     -7.0366996181      0.5448133018
 H     34.2733084908     -7.2853784778      0.8849147609
 O     38.0452879066    -30.4429937644      1.3904605609
 H     37.5695868951    -29.9471318587      2.0546428194
 H     38.1706781994    -29.8354017680      0.6602054006
 O     21.2153107911    -19.2124708561      0.8515325676
 H     20.8233950341    -18.5248147972      1.3785094229
 H     21.7406056238    -18.7615940227      0.1831915065
 O     41.8163124006    -15.8730531397     -0.7973726746
 H     42.5890656114    -15.6465342963     -1.3432187828
 H     42.0985965805    -16.3680302146      0.0047925219
 O     28.2113407402    -31.1658335416     -2.7285350548
 H     28.2616089855    -31.6004132705     -1.8739861063
 H     28.9423672666    -30.5549582749     -2.6966654650
 O     24.1046249126     -8.2084494925     -3.5267487321
 H     24.5017030698     -8.7551076739     -4.1299360482
 H     23.7834105188     -8.8408937156     -2.9154558276
 O     41.6869602518    -23.0754212258     -6.3733210586
 H     42.3167695788    -23.6237146945     -5.9129397773
 H     41.5312135975    -22.3320649435     -5.7795782294
 O     28.2526523680    -20.5915065441    -12.8397145026
 H     28.6961712628    -20.7172361963    -13.7086593674
 H     27.4886180272    -21.2039719298    -12.9012833727
89
# ORCA AIMD Position Step 720, t=360.00 fs, E_Pot=-6054989.56926637 kJ mol^-1, Unit is Angstrom
 C     24.7986279479    -16.6923401316      0.3289277268
 C     25.2466066148    -17.2790238997      1.7185701438
 C     25.9824798961    -18.5866019836      1.6800204685
 N     26.5105924460    -19.0952934869      0.4730559577
 C     26.2383303054    -18.4236868912     -0.8385722795
 C     25.9756873399    -16.9420939166     -0.6765984049
 C     27.6164433024    -19.9915814807      0.4343983137
 C     28.6741359176    -19.8665531401      1.3225093929
 C     29.8434734614    -20.5373880481      1.1100242696
 C     29.9894879972    -21.3702100653      0.0155370095
 C     28.9672990981    -21.5664579327     -0.9266799110
 C     27.7604949710    -20.8594935479     -0.6416643057
 N     31.2933877543    -21.8784116611     -0.2173769767
 C     31.4003428448    -23.0533213852     -1.1807327149
 C     32.5964536136    -23.8735713369     -0.9270702609
 C     33.7627961367    -22.9820199982     -0.6877010975
 C     33.5975149985    -21.6425227108     -0.3678747847
 C     32.2984227493    -20.9323013924     -0.2019436066
 O     26.2344890997    -19.1571564733      2.7129218838
 O     32.2131594986    -19.7578213925      0.0933244652
 C     35.1583620162    -23.1662557288     -0.7182304439
 N     35.8008587590    -22.0547248282     -0.3759902194
 N     34.8588552521    -21.0992474171     -0.2512648498
 C     35.2044668237    -19.8068615856      0.1256268683
 C     35.8676541298    -24.4090095053     -1.0964622576
 N     37.2250120548    -24.2758132097     -1.0102927375
 O     35.2638107566    -25.3609620423     -1.5423295661
 C     34.7990622317    -19.3435617677      1.3781895628
 C     35.0490246971    -17.9846282925      1.7102066328
 C     35.6776690294    -17.1177627715      0.8399880991
 C     36.1078093609    -17.5918958699     -0.3877854864
 C     35.8494092135    -18.9399200205     -0.7392616889
 O     35.8523069247    -15.8112167014      1.3241265873
 C     36.4752924156    -14.8857274044      0.5345598389
 H     23.9158432068    -17.2164396989      0.0062638433
 H     24.6182290256    -15.6105724582      0.3431026858
 H     25.8903526799    -16.6724769438      2.2807698844
 H     24.4302517058    -17.4272601307      2.3572951207
 H     27.0856534761    -18.6041529195     -1.5352884251
 H     25.3961590577    -18.8661903986     -1.3234597784
 H     26.9482640212    -16.4847056827     -0.2972724284
 H     25.8059161810    -16.5126094984     -1.6525754459
 H     28.5246934605    -19.3583856230      2.2402139691
 H     30.5950999235    -20.4323359839      1.9172425247
 H     28.9751259894    -22.2394399790     -1.7528792177
 H     26.8962231602    -20.9836309103     -1.3002200028
 H     30.5195896088    -23.7094034272     -1.1082907891
 H     31.4160794907    -22.7285450977     -2.2381544180
 H     32.4689477184    -24.5342624181     -0.0692580726
 H     32.7832390446    -24.4893187769     -1.8285705112
 H     37.5503546905    -23.4233082133     -0.6401988578
 H     37.9171913307    -25.0339571664     -1.1745111498
 H     34.2578621852    -20.0081154473      2.0527747918
 H     34.8674248472    -17.5724338745      2.7045740751
 H     36.6480754342    -16.9613238843     -1.0763683322
 H     36.2013508554    -19.2885106813     -1.7203240992
 H     35.9578925907    -14.7376051681     -0.4443892549
 H     36.4376975871    -13.9329638006      1.1608230919
 H     37.5493486122    -15.1852131956      0.4329769071
 O     36.6526731510    -20.0083515647     12.8533784962
 H     37.1615547607    -19.2074107708     12.9344833525
 H     36.5422060710    -20.1064640162     11.9069319652
 O     26.0827031697    -27.1841134487      6.2495414934
 H     26.3822779009    -26.3577658151      5.8733211806
 H     25.8335127874    -27.7052815706      5.5089200707
 O     33.4613641197     -7.7288786044      0.6560148067
 H     32.8116419760     -6.9902478967      0.5151966710
 H     34.2933665468     -7.2774662832      0.7882041453
 O     38.0256957073    -30.4569970250      1.3524416525
 H     37.5549414593    -29.9253868909      2.0119014462
 H     38.2429612708    -29.8406546766      0.6407944136
 O     21.2003875379    -19.2485297707      0.8478318903
 H     20.7770888482    -18.6512856936      1.4888139161
 H     21.7680758378    -18.7355635301      0.2428956615
 O     41.8006526843    -15.9276379144     -0.7934757117
 H     42.5984910014    -15.7905800861     -1.2865584450
 H     42.1613082128    -16.1562964015      0.0567762259
 O     28.2143303060    -31.1567109934     -2.7143823652
 H     28.2268286323    -31.6600635123     -1.8586485229
 H     28.9142393909    -30.5037270661     -2.6062975503
 O     24.0714188338     -8.1736169553     -3.4696369284
 H     24.5622572784     -8.7310530138     -4.1703544053
 H     23.6296651005     -8.9388777953     -2.9612384318
 O     41.7036685372    -23.0850498929     -6.3268068784
 H     42.3809171867    -23.5679953629     -5.8337190789
 H     41.6186059244    -22.2450143023     -5.8364867471
 O     28.2859804961    -20.5681763853    -12.8624612731
 H     28.6470258002    -20.7930052953    -13.7172163676
 H     27.5089624145    -21.1174771343    -12.8660130689
89
# ORCA AIMD Position Step 730, t=365.00 fs, E_Pot=-6054959.67213240 kJ mol^-1, Unit is Angstrom
 C     24.8275012409    -16.6795293869      0.3041558467
 C     25.2806446277    -17.3032869788      1.7394522276
 C     25.9881615249    -18.6059296312      1.6578970401
 N     26.5155786632    -19.0818320133      0.4716280644
 C     26.2539528393    -18.3998053973     -0.8264040895
 C     25.9994670440    -16.9489493925     -0.6773997218
 C     27.6163749633    -20.0065203653      0.4525497693
 C     28.6172117443    -19.8471635488      1.3496067116
 C     29.8180242240    -20.5387306602      1.1203520403
 C     29.9897052696    -21.3992815083      0.0222933018
 C     28.9369265161    -21.5480058373     -0.9133040487
 C     27.7658853435    -20.8358449420     -0.6318555157
 N     31.2713408817    -21.8948875338     -0.2128106736
 C     31.3989823646    -23.0333739251     -1.1230901783
 C     32.6191234633    -23.8780864381     -0.9265118697
 C     33.7800746806    -22.9793234402     -0.6716795216
 C     33.5920851881    -21.6448747294     -0.3724580086
 C     32.2939055525    -20.9495148540     -0.2003316199
 O     26.2429735076    -19.1212991937      2.7379837676
 O     32.1984071448    -19.7482135296      0.0619029704
 C     35.1838146717    -23.1785359379     -0.7184668592
 N     35.8070722407    -22.0585343674     -0.3605475498
 N     34.8456831010    -21.1053280217     -0.2308162792
 C     35.2005496166    -19.7864183292      0.1135352737
 C     35.8975040313    -24.3975659046     -1.0902559684
 N     37.2380724122    -24.2930128406     -1.0285020981
 O     35.2756871077    -25.3691295096     -1.5549982708
 C     34.7804131003    -19.3199882586      1.3746042850
 C     35.0470559578    -17.9992801732      1.6902699433
 C     35.6963296120    -17.1139322359      0.8365814970
 C     36.1016815281    -17.5906800394     -0.3863845073
 C     35.8522350531    -18.9125675250     -0.7485973550
 O     35.8408291257    -15.8253591748      1.3291221226
 C     36.4576827599    -14.8716835966      0.5018422205
 H     23.9131545685    -17.2505120150     -0.0058718009
 H     24.6083829098    -15.6051503357      0.3226035246
 H     25.9130053470    -16.5415374084      2.3418927311
 H     24.2896961639    -17.4652952162      2.4087616253
 H     27.1144927595    -18.5999856360     -1.4764000268
 H     25.3633812889    -18.8460511835     -1.3822040244
 H     26.8904265575    -16.5209949013     -0.2720608313
 H     25.8028566441    -16.5665134646     -1.7074612058
 H     28.4052324379    -19.3344737748      2.3101653191
 H     30.5396355003    -20.4639803609      1.9004546474
 H     28.9159667128    -22.1494720883     -1.8455562880
 H     26.9087405080    -21.0550394896     -1.2556588368
 H     30.5604880433    -23.7306396814     -1.0662890710
 H     31.3795009133    -22.8436520428     -2.2127848319
 H     32.4322738121    -24.5082806364     -0.0265919939
 H     32.8119041384    -24.5525129910     -1.7461039897
 H     37.6863255682    -23.3934165684     -0.6983099776
 H     37.7957647010    -25.0487476687     -1.2705522147
 H     34.2730792172    -19.9652396118      2.0792309667
 H     34.8103864112    -17.6635028362      2.6923250734
 H     36.6626102543    -16.9707278064     -1.0848179671
 H     36.1994180354    -19.2357590088     -1.7095132023
 H     35.9667611626    -14.7605381899     -0.4549195062
 H     36.3967391578    -13.9369835781      0.9761933195
 H     37.4819195756    -15.1713534750      0.3341683898
 O     36.6405376040    -20.0112740468     12.8668516953
 H     37.2818618533    -19.2957794864     13.0788785305
 H     36.4846152832    -20.0091379575     11.9248247307
 O     26.0962632811    -27.1997278628      6.2115809462
 H     26.4991354161    -26.4030869906      5.8591913898
 H     25.8543779484    -27.7012003803      5.3984395162
 O     33.4734660257     -7.7070898477      0.5659937351
 H     32.8536799021     -7.0233820888      0.4960955666
 H     34.3319077274     -7.2603625397      0.6944379704
 O     38.0062606416    -30.4707499955      1.3147529384
 H     37.5534170326    -29.9055606218      1.9375959612
 H     38.2974236676    -29.8485247727      0.6458661354
 O     21.1855148189    -19.2885972762      0.8440082200
 H     20.7973156946    -18.7463473111      1.5254446345
 H     21.7300564433    -18.6767178793      0.3777205542
 O     41.7874207186    -15.9828068957     -0.7858244784
 H     42.6214484826    -15.9218950844     -1.3042575160
 H     42.1691246635    -15.9492944421      0.1241677571
 O     28.2177779378    -31.1506099932     -2.6949359115
 H     28.1943825852    -31.6646123167     -1.9282607229
 H     28.8770719574    -30.4594942568     -2.5144109426
 O     24.0373166040     -8.1627392927     -3.4144230098
 H     24.5750236856     -8.5287270920     -4.1289254218
 H     23.5368661152     -8.8336595716     -3.0572933864
 O     41.7216559825    -23.0915750226     -6.2772864645
 H     42.4295180524    -23.5046223557     -5.7703389267
 H     41.7022875725    -22.2147507946     -5.9237740478
 O     28.3180098316    -20.5472707206    -12.8879595638
 H     28.6645047674    -20.8285214704    -13.7416157185
 H     27.4841557422    -21.0320144193    -12.7717237370
89
# ORCA AIMD Position Step 740, t=370.00 fs, E_Pot=-6054963.65017179 kJ mol^-1, Unit is Angstrom
 C     24.8740192723    -16.6881146672      0.2957462977
 C     25.2690898209    -17.2900694083      1.7404972450
 C     26.0155100661    -18.6247021448      1.6465413349
 N     26.5110736904    -19.0641634572      0.4638573009
 C     26.2554931626    -18.4005285812     -0.8212623088
 C     26.0079725961    -16.9455604314     -0.6748901528
 C     27.5922403504    -20.0006002039      0.4592555525
 C     28.5903596461    -19.8462630879      1.3985530758
 C     29.7706071157    -20.5441624010      1.1415592270
 C     29.9732603887    -21.4097451930      0.0163196183
 C     28.9006272868    -21.5200315046     -0.8819650548
 C     27.7646226028    -20.8349863527     -0.6374069782
 N     31.2477356837    -21.9128286703     -0.2178448957
 C     31.3866438915    -23.0354357825     -1.0928416741
 C     32.6546661925    -23.8857710387     -0.8974461289
 C     33.7977954796    -22.9844543861     -0.6662735366
 C     33.5938838389    -21.6454177508     -0.3812483609
 C     32.3153550757    -20.9620760032     -0.1884943057
 O     26.2514292951    -19.0974176555      2.7661569928
 O     32.1811335819    -19.7546048516      0.0253779798
 C     35.1842155829    -23.1840332258     -0.7030141271
 N     35.8145930117    -22.0432702365     -0.3548636205
 N     34.8444515576    -21.1269511336     -0.2120397551
 C     35.1874441150    -19.7496294680      0.1175656473
 C     35.9151566200    -24.3941359264     -1.1030366752
 N     37.2598368038    -24.2983583188     -1.0379330772
 O     35.2965973404    -25.3718015479     -1.5583784301
 C     34.7736190388    -19.2859138011      1.3567885859
 C     35.0410373663    -18.0183424690      1.6940973784
 C     35.7079634900    -17.1004431116      0.8461182795
 C     36.1068275270    -17.5853771231     -0.3990683862
 C     35.8554661962    -18.8914243964     -0.7558794864
 O     35.8212002941    -15.8562899361      1.3349326979
 C     36.4466263256    -14.8650324868      0.4565077516
 H     23.9835304167    -17.2047782380     -0.0373612048
 H     24.5781665725    -15.6361816677      0.3772517106
 H     25.8593845866    -16.5973026712      2.2504302002
 H     24.4449031484    -17.4742027132      2.2737242594
 H     27.1655513914    -18.5680988857     -1.3957687467
 H     25.4236813528    -18.8460061015     -1.3258607822
 H     26.9099024983    -16.4240270562     -0.2444135090
 H     25.8093589651    -16.5707056398     -1.6666966960
 H     28.3934370466    -19.2820624547      2.2713867089
 H     30.6098270218    -20.5080524947      1.8635738166
 H     28.9678097244    -22.0437073770     -1.8089045604
 H     26.9025139485    -21.0524323055     -1.2637511355
 H     30.5135265142    -23.6696876563     -0.8780919401
 H     31.3379262992    -22.7070580309     -2.1476338592
 H     32.4791588049    -24.4903108306     -0.0153069672
 H     32.8298523648    -24.6300463264     -1.7172072731
 H     37.7362758586    -23.5055867187     -0.7918846546
 H     37.7388750228    -25.1740365613     -1.4272306673
 H     34.2888984467    -19.9309999974      2.0924529757
 H     34.7083284745    -17.7071241741      2.6807821549
 H     36.6537656850    -16.9717036025     -1.0949698547
 H     36.1897155967    -19.2418010927     -1.7476297619
 H     35.9240596121    -14.8158640694     -0.5305568135
 H     36.3739221144    -13.8278171448      0.9141627225
 H     37.5071301836    -15.1078281477      0.2065117840
 O     36.6299842368    -20.0145417922     12.8868735304
 H     37.3354023155    -19.4417213585     13.1313183184
 H     36.4685241425    -19.8487684138     11.9311074572
 O     26.1084257754    -27.2177556389      6.1679458013
 H     26.6257608670    -26.4417944966      5.8616575438
 H     25.8875675863    -27.6648482939      5.3607848519
 O     33.4933909278     -7.6914334298      0.4767075878
 H     32.8204035731     -6.9521931375      0.4702019347
 H     34.3220481795     -7.2500601648      0.5942827280
 O     37.9874102263    -30.4832853803      1.2764930041
 H     37.5316405545    -29.8914552306      1.8930014594
 H     38.3609463203    -29.8704428519      0.6292137218
 O     21.1701777479    -19.3297705058      0.8406806797
 H     20.7910174894    -18.8454625075      1.5942613672
 H     21.7287196427    -18.5946121670      0.4721966591
 O     41.7878392155    -16.0376005744     -0.7709631081
 H     42.5419515816    -16.0559543464     -1.3420533759
 H     42.0600825561    -15.7457393242      0.0975935078
 O     28.2221810227    -31.1377937038     -2.6831343206
 H     28.1672072434    -31.7413355256     -1.8786385443
 H     28.8200342468    -30.4496902149     -2.4201967081
 O     24.0096488820     -8.1363353430     -3.3616258598
 H     24.5566913572     -8.4086582696     -4.0812086762
 H     23.3725742008     -8.8919440857     -3.1206551311
 O     41.7413170468    -23.0998328930     -6.2263392826
 H     42.4714129052    -23.4630611544     -5.7237424649
 H     41.7668017903    -22.1350726963     -6.0160129118
 O     28.3489280914    -20.5262518381    -12.9123506437
 H     28.6571999284    -20.8810424384    -13.7611708849
 H     27.5021180338    -20.9309997356    -12.7000321989
89
# ORCA AIMD Position Step 750, t=375.00 fs, E_Pot=-6054972.28064552 kJ mol^-1, Unit is Angstrom
 C     24.9166178682    -16.7067905384      0.3135520424
 C     25.2575156401    -17.2750796380      1.6694111862
 C     26.0433331194    -18.6149778147      1.6706639904
 N     26.5056639817    -19.0572393885      0.4610349101
 C     26.2655254903    -18.4073955805     -0.8114407787
 C     26.0212672356    -16.9207879244     -0.6587165500
 C     27.5599751021    -19.9818040642      0.4592855313
 C     28.5848096463    -19.8703689848      1.4353936749
 C     29.7347427180    -20.5676021872      1.1703057136
 C     29.9338774774    -21.3841798792      0.0227958906
 C     28.8939453026    -21.5026963076     -0.8485730136
 C     27.7253204114    -20.8322609621     -0.6388995349
 N     31.2432555054    -21.9080790801     -0.2121105299
 C     31.3672784343    -23.0641338289     -1.0841768530
 C     32.6800186577    -23.8966075050     -0.8623224170
 C     33.8093167963    -22.9958654919     -0.6723991232
 C     33.6075615323    -21.6514688236     -0.3877647503
 C     32.3314963443    -20.9699751682     -0.1735369266
 O     26.2611294347    -19.0856725665      2.7823884337
 O     32.1661274921    -19.7777730335     -0.0134308213
 C     35.1786154483    -23.1798182646     -0.6752497128
 N     35.8191070873    -22.0209134422     -0.3587769229
 N     34.8603349654    -21.1303620539     -0.1925609912
 C     35.1701708517    -19.7259291264      0.1156135099
 C     35.9161963194    -24.3907694888     -1.1266983276
 N     37.2821444867    -24.3405382967     -1.0584534690
 O     35.3270800486    -25.3680589928     -1.5537265723
 C     34.7689812917    -19.2733079148      1.3340312070
 C     35.0381495083    -18.0010319567      1.7183246133
 C     35.7040725042    -17.1101575390      0.8600546465
 C     36.1204396360    -17.5652348167     -0.4098892508
 C     35.8540021252    -18.8934511681     -0.7676127226
 O     35.8134493111    -15.8671575091      1.3315559463
 C     36.4314490402    -14.8582875769      0.4029285190
 H     24.0038918007    -17.2005475255     -0.1034315521
 H     24.6071974227    -15.6586692795      0.4371696962
 H     25.9576925574    -16.5721665402      2.2593622858
 H     24.2824456924    -17.5210886261      2.3597581462
 H     27.2040636192    -18.5427802175     -1.3937393612
 H     25.4081368280    -18.9290700812     -1.3285449613
 H     26.8984244160    -16.3794210540     -0.3174324187
 H     25.8011440377    -16.4874117845     -1.6611472088
 H     28.4686099676    -19.1708117447      2.2958044304
 H     30.6057379989    -20.5063391259      1.7935993635
 H     29.0584363308    -22.0394919725     -1.7972756529
 H     26.8962626317    -20.9627016424     -1.3278120247
 H     30.4773594594    -23.6209308798     -0.7651704226
 H     31.2828695932    -22.5809204486     -2.0794864289
 H     32.5724936158    -24.5227208586      0.0614181870
 H     32.8154939267    -24.5884830883     -1.6599083536
 H     37.8537120424    -23.4672344685     -0.8378069099
 H     37.6879637118    -25.0822326463     -1.4921037849
 H     34.2892555685    -19.9198694138      2.0445062621
 H     34.6350790958    -17.6592766024      2.6650079982
 H     36.6483606967    -16.9336523932     -1.1250361925
 H     36.1475353309    -19.2605491715     -1.7252011350
 H     35.8631547678    -14.8932449443     -0.5163065984
 H     36.3510846854    -13.9249784793      0.8809295199
 H     37.4751281099    -15.0511810889      0.1828911114
 O     36.6145867710    -20.0205895567     12.9022154897
 H     37.4298495804    -19.5415438878     13.1679382608
 H     36.4884278552    -19.6903755708     12.0273877074
 O     26.1244715559    -27.2306465963      6.1246748603
 H     26.7075906470    -26.5301585016      5.8935910824
 H     25.9033331194    -27.6594308106      5.2882061358
 O     33.5050179646     -7.6719748251      0.3867501394
 H     32.8769772365     -6.9719835686      0.4488973585
 H     34.3542615493     -7.2094136083      0.5006351579
 O     37.9685161757    -30.4924088081      1.2383989801
 H     37.5128224064    -29.9045452768      1.8427998464
 H     38.4208021859    -29.9194653027      0.6154173309
 O     21.1589046447    -19.3559561332      0.8391946278
 H     20.7567599842    -19.0454465059      1.6582264674
 H     21.6948242525    -18.6465862926      0.5419181272
 O     41.7793425613    -16.0932718041     -0.7545434569
 H     42.5391503405    -16.1589064583     -1.3508060015
 H     42.0133962174    -15.5581528679      0.0174683680
 O     28.2241424442    -31.1322357510     -2.6650651317
 H     28.1550764054    -31.7231266634     -1.9472028023
 H     28.7872132389    -30.4198017863     -2.3075296792
 O     23.9711196407     -8.1113802916     -3.2968364991
 H     24.5516323417     -8.3732710496     -4.0984419442
 H     23.3676962468     -8.8425403406     -3.3098211624
 O     41.7606751935    -23.1012071356     -6.1739860102
 H     42.5224651861    -23.4260513013     -5.6743302709
 H     41.8271048397    -22.1601145238     -6.1332299842
 O     28.3830766855    -20.5018805758    -12.9347112781
 H     28.5828471476    -20.9520141243    -13.7466546632
 H     27.5355910033    -20.8648739261    -12.6944181686
89
# ORCA AIMD Position Step 760, t=380.00 fs, E_Pot=-6054981.47215758 kJ mol^-1, Unit is Angstrom
 C     24.9264697194    -16.7185197763      0.3329621025
 C     25.2368521110    -17.2787242417      1.6223406907
 C     26.0523213927    -18.5697142544      1.7081886886
 N     26.5029603741    -19.0586913403      0.4778347118
 C     26.2767287416    -18.4087582593     -0.8136877233
 C     26.0361469522    -16.8886013040     -0.6551371760
 C     27.5453389539    -19.9696640395      0.4639014090
 C     28.5736854803    -19.8970361632      1.4554798255
 C     29.7177609105    -20.6053362312      1.1992847823
 C     29.9083536152    -21.3390642161      0.0516135988
 C     28.8986758537    -21.5035119078     -0.8423952268
 C     27.6624497248    -20.8209471782     -0.6295905611
 N     31.2517114069    -21.8801973295     -0.1871551406
 C     31.3496882541    -23.0939819065     -1.0697485958
 C     32.6740851657    -23.9070114393     -0.8178199365
 C     33.8118451918    -22.9962042694     -0.6823441000
 C     33.6304078672    -21.6614619340     -0.3856627142
 C     32.3272148357    -20.9942601002     -0.1684817767
 O     26.2738493682    -19.0841770816      2.7883594456
 O     32.1560819755    -19.7974228413     -0.0481335940
 C     35.1921755086    -23.1730137599     -0.6482820770
 N     35.8249776876    -22.0054780626     -0.3697247460
 N     34.8781317301    -21.1066253486     -0.1767239837
 C     35.1591983390    -19.7264161530      0.0955092135
 C     35.9231980758    -24.3710240316     -1.1425860423
 N     37.3015170251    -24.3675110066     -1.0714021015
 O     35.3532055962    -25.3697718666     -1.5499868136
 C     34.7621968711    -19.2679062001      1.3283398141
 C     35.0331654872    -17.9645028779      1.7469635927
 C     35.6939163391    -17.1344321333      0.8645822178
 C     36.1322987234    -17.5508000721     -0.4139247503
 C     35.8475265246    -18.8970559464     -0.7729510424
 O     35.8240871325    -15.8498822747      1.3161312232
 C     36.4014097550    -14.8794913279      0.3600452166
 H     24.0594185832    -17.1990693696     -0.1184332595
 H     24.6862970365    -15.6611312766      0.4587666273
 H     25.8965082726    -16.6472126765      2.1818905158
 H     24.4476153178    -17.4163161550      2.2217646813
 H     27.1503698273    -18.5436184429     -1.4213713065
 H     25.4674190837    -18.9159288535     -1.3320573754
 H     26.9839793401    -16.3854490964     -0.3721704563
 H     25.7671236470    -16.4410286196     -1.6039717016
 H     28.5922228995    -19.1769547097      2.2263207078
 H     30.5997319331    -20.4436818668      1.8306879472
 H     29.0814262381    -22.0543799793     -1.7402621705
 H     26.9079707018    -20.8413657248     -1.4156440368
 H     30.4690646393    -23.6941627727     -0.8411157421
 H     31.2536790782    -22.7073560270     -2.0891073137
 H     32.6423077486    -24.5140905396      0.0734451331
 H     32.8230080337    -24.5981559900     -1.7013377892
 H     37.8055012830    -23.5620926039     -0.9231478717
 H     37.8025973698    -25.1287144477     -1.6405860655
 H     34.2329794492    -19.9663618494      1.9914640850
 H     34.6207831788    -17.5546740391      2.6626116522
 H     36.6272866494    -16.8997814012     -1.1168362500
 H     36.1358867228    -19.3045367480     -1.7643935233
 H     35.7749810516    -14.9189892450     -0.5480210627
 H     36.2766812713    -13.9158402808      0.9345511877
 H     37.4786101167    -15.0759709599      0.2007520312
 O     36.6058150138    -20.0222743849     12.9195008885
 H     37.4620412182    -19.7063137295     13.2224946813
 H     36.4657129525    -19.5362142323     12.0740078346
 O     26.1372603745    -27.2475324251      6.0834411609
 H     26.8299183693    -26.5713383698      5.8969308201
 H     25.9289836925    -27.6363180122      5.2137197291
 O     33.5221874485     -7.6532224583      0.2975963751
 H     32.8676553202     -6.9483668342      0.4242016257
 H     34.3640757804     -7.2019429590      0.4011894215
 O     37.9502504187    -30.5042299856      1.2002737313
 H     37.4957045280    -29.8934574785      1.7858720127
 H     38.4682891768    -29.9493435223      0.6100407899
 O     21.1436574227    -19.3868293592      0.8399500242
 H     20.7453278051    -19.2390578739      1.6991468014
 H     21.7062528319    -18.6261146707      0.5987525308
 O     41.7653952137    -16.1497667436     -0.7364640574
 H     42.5605548877    -16.2165354170     -1.2812805588
 H     42.0272917091    -15.3995679547     -0.1674455572
 O     28.2289659761    -31.1198481295     -2.6499383212
 H     28.1267474153    -31.7855592582     -1.9358836549
 H     28.7256466682    -30.4181381409     -2.2290206310
 O     23.9408689062     -8.0916302612     -3.2475332668
 H     24.4841973925     -8.2398222569     -3.9604122943
 H     23.2953247820     -8.8096008539     -3.4105539107
 O     41.7800953466    -23.1062698474     -6.1218832362
 H     42.5615018470    -23.3721737128     -5.6349583099
 H     41.8976611100    -22.1435781871     -6.2376903393
 O     28.4177458416    -20.4770342656    -12.9569096006
 H     28.5313652794    -21.0324048155    -13.7617144188
 H     27.5366600463    -20.7977664125    -12.6609134084
89
# ORCA AIMD Position Step 770, t=385.00 fs, E_Pot=-6054955.43322463 kJ mol^-1, Unit is Angstrom
 C     24.9198040770    -16.7061012157      0.3216851047
 C     25.2523038170    -17.3054228516      1.6036170380
 C     26.0459134594    -18.5196199490      1.7263371537
 N     26.4987751051    -19.0512683798      0.5119004321
 C     26.2831279885    -18.3880955619     -0.8181290744
 C     26.0606773219    -16.8700124177     -0.6599272192
 C     27.5491850660    -19.9713906494      0.4810627290
 C     28.5578648727    -19.9307562361      1.4440355093
 C     29.7176436253    -20.6306947556      1.2458185537
 C     29.9189498165    -21.3095285928      0.0778511557
 C     28.8766563147    -21.4961641834     -0.8446269342
 C     27.6265059590    -20.8190991200     -0.6224977284
 N     31.2485179963    -21.8631800986     -0.1619176818
 C     31.3411695894    -23.1182150380     -1.0372949626
 C     32.6479578719    -23.9183943880     -0.7982915149
 C     33.8135400826    -22.9836230533     -0.6867361622
 C     33.6466963637    -21.6644032255     -0.3718240219
 C     32.3144166858    -21.0239835303     -0.1784262062
 O     26.2878542196    -19.0847810998      2.7909382424
 O     32.1533041801    -19.8071818705     -0.0758794503
 C     35.2229521069    -23.1647031710     -0.6343687208
 N     35.8399058569    -21.9979522761     -0.3828388614
 N     34.8833433156    -21.0813511244     -0.1753116953
 C     35.1575110641    -19.7297781024      0.0798044463
 C     35.9496932207    -24.3567796216     -1.1493353991
 N     37.3198223481    -24.4066266189     -1.0932276933
 O     35.3673390673    -25.3724887546     -1.5486466619
 C     34.7506958639    -19.2559473186      1.3479021085
 C     35.0168669749    -17.9480006358      1.7657496749
 C     35.6919279031    -17.1365049639      0.8557600823
 C     36.1302767863    -17.5654919955     -0.4075851609
 C     35.8465601492    -18.8917568936     -0.7875714265
 O     35.8453662023    -15.8259405403      1.2885214181
 C     36.3566955796    -14.9061455626      0.3467309699
 H     24.0410508159    -17.2008396204     -0.1262055919
 H     24.7175329727    -15.6314631062      0.4537129557
 H     25.8858777665    -16.5647808141      2.1699338186
 H     24.2833340044    -17.3539876854      2.3141101404
 H     27.1803051985    -18.5780848938     -1.4749215167
 H     25.4392503456    -18.8581568183     -1.3652299023
 H     27.0294117961    -16.4326224443     -0.3627850481
 H     25.7168684581    -16.4253896746     -1.6151528575
 H     28.6223620723    -19.1669887571      2.2490126356
 H     30.5451028417    -20.4094628530      1.9045891545
 H     29.0451058037    -22.1018505720     -1.7492572149
 H     26.9225203532    -20.7554206656     -1.4467527839
 H     30.4791310278    -23.8108682511     -0.9310681467
 H     31.2994636430    -22.9346638851     -2.1474359537
 H     32.6259823626    -24.5523186448      0.1215100446
 H     32.8164846276    -24.5580136257     -1.6238433084
 H     37.8100714471    -23.4771744199     -0.9661257807
 H     37.7778679150    -25.0295973357     -1.6655107473
 H     34.1841952894    -19.9611986714      1.9264413103
 H     34.6553692893    -17.4740182963      2.6772347233
 H     36.6175072909    -16.8730361789     -1.0923522172
 H     36.1305805465    -19.2859221673     -1.7333331077
 H     35.7723675426    -14.8798485815     -0.5826890055
 H     36.2268439884    -13.9758933090      0.8484115058
 H     37.4191568994    -15.1153238725      0.1760320666
 O     36.5976076166    -20.0213634022     12.9318700534
 H     37.4749361656    -19.8644115497     13.2714289288
 H     36.4539339479    -19.4297836205     12.2025183627
 O     26.1529911833    -27.2618903568      6.0399841043
 H     26.8848713959    -26.6777140538      5.9021771621
 H     25.9731925920    -27.5860517557      5.1761503795
 O     33.5383758457     -7.6332815999      0.2085466083
 H     32.8672845188     -6.9453109397      0.4038028496
 H     34.3794772156     -7.1944726480      0.3028956093
 O     37.9324291589    -30.5178774860      1.1623662568
 H     37.4833239389    -29.8654521172      1.7179290151
 H     38.5039240176    -29.9659845069      0.6148896180
 O     21.1294825349    -19.4211763785      0.8344835383
 H     20.7832296137    -19.3628314621      1.7360342631
 H     21.6561666316    -18.6147367069      0.7577084864
 O     41.7587899409    -16.1970102053     -0.7158620401
 H     42.5485373895    -16.3286841729     -1.2408317846
 H     41.9571565297    -15.3280223801     -0.3640920871
 O     28.2331629171    -31.1100445479     -2.6314895131
 H     28.0986035339    -31.8182912995     -1.9761204646
 H     28.6743214243    -30.4059643936     -2.1534228399
 O     23.9022782937     -8.0783705496     -3.1937185459
 H     24.5937049776     -8.0611090626     -3.9552830740
 H     23.1813079294     -8.7210901269     -3.4539740819
 O     41.7996827670    -23.1065953631     -6.0700033988
 H     42.6066573085    -23.3262785477     -5.5912178438
 H     41.9575761400    -22.1944367645     -6.3458158737
 O     28.4446372210    -20.4608244983    -12.9839717965
 H     28.5307545193    -21.0396695392    -13.7238484563
 H     27.6078903822    -20.6684857780    -12.6014986833
89
# ORCA AIMD Position Step 780, t=390.00 fs, E_Pot=-6054984.63120946 kJ mol^-1, Unit is Angstrom
 C     24.9096496310    -16.6790074736      0.2826082502
 C     25.2449859205    -17.3030898261      1.6519137613
 C     26.0444623566    -18.5099429394      1.7313383950
 N     26.4940363964    -19.0269093328      0.5389976032
 C     26.2896788583    -18.3582251242     -0.8282857761
 C     26.0811492106    -16.8694414920     -0.6757352156
 C     27.5489433916    -19.9825166444      0.5014451492
 C     28.5480350878    -19.9513995153      1.4359358638
 C     29.7239526600    -20.6398398463      1.2966801668
 C     29.9428762503    -21.3112266854      0.0810708868
 C     28.8422662521    -21.4778241792     -0.8394217453
 C     27.6363060772    -20.8281022390     -0.6196836982
 N     31.2222772106    -21.8866646964     -0.1572977196
 C     31.3397296238    -23.1478336009     -1.0055075896
 C     32.6235422743    -23.9187150536     -0.7704124580
 C     33.8218795368    -22.9767312493     -0.6785076598
 C     33.6429251309    -21.6575931380     -0.3498101327
 C     32.3108246817    -21.0256012230     -0.1979411293
 O     26.2982079262    -19.0768380709      2.7890427268
 O     32.1589091849    -19.8168385477     -0.0977502539
 C     35.2519083374    -23.1554485942     -0.6411763194
 N     35.8629024541    -21.9892199837     -0.3940051679
 N     34.8778566146    -21.0771419795     -0.1928494008
 C     35.1629637027    -19.7098653995      0.0919025514
 C     35.9824527740    -24.3741742788     -1.1526688372
 N     37.3398210251    -24.4047988235     -1.1018601002
 O     35.3713665018    -25.3641523127     -1.5463640380
 C     34.7407088262    -19.2380122501      1.3653910317
 C     34.9974461129    -17.9477058194      1.7654125568
 C     35.6949090483    -17.1146636922      0.8454977919
 C     36.1181639471    -17.5927623479     -0.3947137250
 C     35.8450187800    -18.8843437538     -0.7954411944
 O     35.8615719472    -15.8194511493      1.2585169897
 C     36.3140455569    -14.9299293982      0.3379054984
 H     24.0084877967    -17.1543703330     -0.1394260616
 H     24.6751759407    -15.6284078953      0.4419805771
 H     25.8519880585    -16.5118781087      2.1594109788
 H     24.3837876934    -17.3624892110      2.2390251497
 H     27.1469579669    -18.5871026131     -1.4065602452
 H     25.3963332270    -18.7776199265     -1.3380800217
 H     27.0059707995    -16.4257079527     -0.3087318002
 H     25.7748161398    -16.4493736585     -1.6314307052
 H     28.4945313350    -19.2608604714      2.2297794580
 H     30.5216336149    -20.4410684099      2.0113849041
 H     28.9703661086    -22.0847449586     -1.7194578168
 H     26.8948525319    -20.7554224632     -1.4093648465
 H     30.5104791363    -23.8211760280     -0.8601461564
 H     31.3813217883    -22.9927699441     -2.0808879697
 H     32.5669432862    -24.5416846135      0.1114948211
 H     32.8023831459    -24.6379412760     -1.6330126422
 H     37.7629743041    -23.5143138638     -1.0150195283
 H     37.7795114891    -25.0786657382     -1.7855985214
 H     34.1266438542    -19.9325104831      1.9607485182
 H     34.7003778350    -17.4832343943      2.6980734365
 H     36.6123561275    -16.9044820248     -1.0592568981
 H     36.1746515402    -19.2591442137     -1.7890902813
 H     35.7907391323    -14.8722475663     -0.6258761783
 H     36.2254492059    -13.8976794441      0.7623370630
 H     37.3663412196    -15.1168347520      0.0868501302
 O     36.5846655028    -20.0245163056     12.9472754276
 H     37.5101059732    -19.9855586808     13.2823751238
 H     36.4957533836    -19.2956318480     12.3187160597
 O     26.1681091896    -27.2766268485      6.0007313723
 H     26.9765117343    -26.7424181761      5.9153910088
 H     25.9879889722    -27.5691572052      5.0681469135
 O     33.5501173670     -7.6135234440      0.1205111894
 H     32.9214306681     -6.9705772210      0.3679765462
 H     34.4096247437     -7.1577585049      0.2124385344
 O     37.9151671556    -30.5281202745      1.1252071896
 H     37.4653309391    -29.8661240113      1.6477140814
 H     38.5364682782    -30.0064934596      0.6132903963
 O     21.1160020102    -19.4522833906      0.8322348200
 H     20.8231799172    -19.5055881923      1.7471203642
 H     21.5978682758    -18.6299892000      0.8908563409
 O     41.7576849059    -16.2381180491     -0.6947464621
 H     42.5223825550    -16.5163471961     -1.2363247520
 H     41.8133897734    -15.2723928297     -0.5341015226
 O     28.2361968206    -31.1022740667     -2.6140671468
 H     28.0875141545    -31.8111933618     -2.0208925058
 H     28.6248442776    -30.4023185131     -2.0590344693
 O     23.8683048919     -8.0664544771     -3.1491592395
 H     24.5022625588     -7.9217810369     -3.8023546464
 H     23.1984296683     -8.5745839462     -3.5029903725
 O     41.8213995930    -23.1044228199     -6.0188654328
 H     42.6408806085    -23.2977351982     -5.5487152727
 H     41.9922559368    -22.2678340355     -6.4443411660
 O     28.4749742918    -20.4404519365    -13.0087188693
 H     28.5229103308    -21.0912373310    -13.7327451109
 H     27.6288046422    -20.5631113618    -12.5301573683
89
# ORCA AIMD Position Step 790, t=395.00 fs, E_Pot=-6054984.10633083 kJ mol^-1, Unit is Angstrom
 C     24.9011076454    -16.6579913132      0.2489012989
 C     25.2389002183    -17.2521663489      1.6935823471
 C     26.0500330246    -18.5334334537      1.7294093365
 N     26.4967838763    -18.9972525055      0.5402652476
 C     26.2824625438    -18.3318183324     -0.8174130892
 C     26.0887433610    -16.8733722216     -0.6880565700
 C     27.5305310080    -19.9975760112      0.5071350475
 C     28.5454922673    -19.9632184599      1.4418843267
 C     29.7373543240    -20.6480277417      1.3221508798
 C     29.9464176183    -21.3315632654      0.0791701452
 C     28.8342036772    -21.4590403593     -0.8167632530
 C     27.6602052235    -20.8259075443     -0.6093552301
 N     31.1991215710    -21.9372338810     -0.1726285835
 C     31.3450757413    -23.1727159762     -0.9734662094
 C     32.6254043644    -23.9227706625     -0.7494122457
 C     33.8346943060    -22.9866892650     -0.6563497041
 C     33.6272338658    -21.6544853984     -0.3290325274
 C     32.3092556503    -21.0124765596     -0.2185287742
 O     26.3045133019    -19.0635917848      2.7908168215
 O     32.1691862700    -19.8215635422     -0.1153704136
 C     35.2676051398    -23.1507163145     -0.6681278325
 N     35.8819034360    -21.9747932236     -0.4036281732
 N     34.8732027715    -21.0809117980     -0.2202681993
 C     35.1681140792    -19.6855821754      0.1224036645
 C     36.0043811397    -24.4031874204     -1.1474751945
 N     37.3662771738    -24.3972842333     -1.1159255491
 O     35.3662418947    -25.3515874241     -1.5449818105
 C     34.7278962621    -19.2294542247      1.3724767728
 C     34.9906938995    -17.9372182080      1.7448442414
 C     35.6886064723    -17.0992215301      0.8461782204
 C     36.1056411899    -17.6043859041     -0.3794981465
 C     35.8417677278    -18.8934818384     -0.7999075171
 O     35.8641191739    -15.8332514505      1.2413216463
 C     36.2945666407    -14.9134598410      0.3052755870
 H     23.9971192310    -17.1039543115     -0.1704170981
 H     24.6221359388    -15.5995846209      0.4091278704
 H     25.8289161971    -16.5086915923      2.1960933339
 H     24.2865522583    -17.4637313437      2.3218667549
 H     27.2096873227    -18.5996619585     -1.4034259031
 H     25.3848726484    -18.7357129956     -1.2720718059
 H     26.9811179531    -16.3489584657     -0.2553601728
 H     25.9257820066    -16.4494440341     -1.6983320133
 H     28.3126844068    -19.3228199820      2.3247193725
 H     30.5145195907    -20.5404081312      2.0883658451
 H     28.9200720357    -22.0628717173     -1.7258427149
 H     26.8451051706    -20.8619133064     -1.3335515460
 H     30.4610564083    -23.7945795330     -0.6904327824
 H     31.3674359566    -22.8380854746     -2.0439349900
 H     32.5360116457    -24.5358822504      0.1758519626
 H     32.7418500642    -24.6286035049     -1.5297631303
 H     37.8246620365    -23.4772395852     -1.0506916178
 H     37.7202156420    -25.0387156115     -1.7901697206
 H     34.1393494994    -19.8491527477      2.0164750301
 H     34.7089593892    -17.5630108259      2.7307188993
 H     36.6401368814    -16.9566684893     -1.0711200748
 H     36.1846320287    -19.2086194518     -1.7513608678
 H     35.7174511529    -14.9545796874     -0.6455853388
 H     36.2511220137    -13.9109928488      0.7010525685
 H     37.3537512320    -15.0895050067      0.0054101179
 O     36.5740648572    -20.0281920379     12.9630610190
 H     37.4670933269    -20.0774244927     13.2419837679
 H     36.5792997051    -19.1823035385     12.4781728169
 O     26.1844901255    -27.2916434282      5.9543211369
 H     27.0309820830    -26.8315126463      5.9412147810
 H     26.0175043776    -27.5212240668      5.0653442293
 O     33.5689741422     -7.5972211271      0.0311529869
 H     32.9068720873     -6.9227646227      0.3648153815
 H     34.3943097582     -7.1411930118      0.1185728737
 O     37.8988527891    -30.5377307040      1.0880100444
 H     37.4230255888    -29.8640102738      1.5960648225
 H     38.5785370814    -30.0583147078      0.5967916299
 O     21.1029255211    -19.4793288780      0.8363636496
 H     20.8262956714    -19.7315696198      1.7327240436
 H     21.5751491826    -18.6208969429      0.9476824160
 O     41.7547245564    -16.2776761611     -0.6724642309
 H     42.4632466366    -16.6066180974     -1.1964694531
 H     41.7317434450    -15.3329926706     -0.7592644543
 O     28.2410738398    -31.0875732120     -2.5990574336
 H     28.0620635452    -31.8793935670     -2.0044235958
 H     28.5608390892    -30.4343314899     -1.9895940922
 O     23.8360710160     -8.0477952605     -3.0873069348
 H     24.4886592917     -7.8016948866     -3.7927514399
 H     23.1134638420     -8.5185625309     -3.6876812761
 O     41.8433413428    -23.1024869897     -5.9666573899
 H     42.6684785026    -23.2698132337     -5.5118027745
 H     42.0275875630    -22.3371663997     -6.5574633608
 O     28.5065845763    -20.4182343600    -13.0324741390
 H     28.4435556599    -21.1290587725    -13.6730759781
 H     27.6982690835    -20.5028462149    -12.5412895623
89
# ORCA AIMD Position Step 800, t=400.00 fs, E_Pot=-6054970.75931286 kJ mol^-1, Unit is Angstrom
 C     24.8891431650    -16.6361959874      0.2393885229
 C     25.2125147063    -17.2016445818      1.7109118559
 C     26.0437928603    -18.5403047397      1.7207680436
 N     26.5115813328    -18.9788747340      0.5182466581
 C     26.2898892191    -18.3238298910     -0.7897011250
 C     26.0940095996    -16.8535885609     -0.6905236226
 C     27.5085606067    -20.0060827506      0.5033776879
 C     28.5416136685    -19.9619672462      1.4753989551
 C     29.7478638346    -20.6600373140      1.3128894978
 C     29.9285722904    -21.3597414931      0.0882416861
 C     28.8685392348    -21.4587997693     -0.7946796894
 C     27.6618998211    -20.8062428607     -0.5899664969
 N     31.2033127182    -21.9723062581     -0.1844882314
 C     31.3367293750    -23.1795388085     -0.9508907330
 C     32.6485185163    -23.9271129590     -0.7099399889
 C     33.8462414815    -23.0071369935     -0.6253135788
 C     33.6207441095    -21.6689213700     -0.3176520102
 C     32.2987338722    -21.0195922395     -0.2335002152
 O     26.3083484462    -19.0546664370      2.8036099000
 O     32.1776007440    -19.8113925344     -0.1299785005
 C     35.2719528643    -23.1506948378     -0.7038233111
 N     35.8831946896    -21.9600290495     -0.4166002929
 N     34.8737607153    -21.0739099506     -0.2440171807
 C     35.1658471388    -19.6922018291      0.1452480316
 C     36.0132318319    -24.4046404029     -1.1297478514
 N     37.3917659402    -24.3792398080     -1.1283467372
 O     35.3535330134    -25.3487592151     -1.5468514720
 C     34.7196293205    -19.2207534903      1.3679933216
 C     34.9924418607    -17.9176165798      1.7226899931
 C     35.6719491923    -17.1033583376      0.8508362926
 C     36.1014818506    -17.5972155196     -0.3770751249
 C     35.8324201831    -18.9031614040     -0.7751404893
 O     35.8616160315    -15.8435740070      1.2398818330
 C     36.2952294963    -14.8864540804      0.2410865051
 H     23.9904149597    -17.1234012667     -0.2022557061
 H     24.6339040287    -15.5846633570      0.3316710227
 H     25.8474289931    -16.4524863412      2.3283693409
 H     24.3193691833    -17.4736759820      2.3146245963
 H     27.1307845215    -18.5665912850     -1.3830406542
 H     25.3696385508    -18.7800777802     -1.2666252386
 H     26.9221020576    -16.3380596924     -0.2455522415
 H     26.0473115589    -16.4467310927     -1.7099797157
 H     28.2674551993    -19.4738976957      2.3667556256
 H     30.4897226935    -20.6836836642      2.0980188888
 H     28.9346183086    -22.0338748311     -1.7075035047
 H     26.8303082046    -21.0175884842     -1.2546626599
 H     30.4803551779    -23.7529917332     -0.6501998174
 H     31.2309916283    -22.7942027753     -1.9732181115
 H     32.5672699601    -24.4775104240      0.2272398858
 H     32.7220986369    -24.6979654157     -1.5322578393
 H     37.8845053332    -23.4813269081     -1.0922247009
 H     37.7724358794    -25.0443447872     -1.8066828311
 H     34.1627257741    -19.8426784827      2.0870683670
 H     34.6978829419    -17.6270387178      2.7181693052
 H     36.6703508550    -17.0013382231     -1.0737500083
 H     36.1873600214    -19.2539222530     -1.7692577334
 H     35.6138953906    -15.0289932416     -0.5913095268
 H     36.2246032355    -13.8988231104      0.7261060399
 H     37.3208541624    -15.0640785505     -0.0437643012
 O     36.5620402154    -20.0249599244     12.9749638396
 H     37.4973960859    -20.2153994158     13.2473779751
 H     36.6130433384    -19.1322934290     12.6508428221
 O     26.2017585736    -27.3053891906      5.9156797574
 H     27.0742144634    -26.9199157316      5.9487594699
 H     26.0412532128    -27.4915784667      4.9628737031
 O     33.5796147271     -7.5754590081     -0.0545259651
 H     32.9689548385     -6.9769395078      0.3138801603
 H     34.4311651243     -7.1117450281      0.0247424793
 O     37.8825213911    -30.5479535430      1.0515689415
 H     37.4074310043    -29.8626239673      1.5175255593
 H     38.5950022079    -30.0978358324      0.5992729246
 O     21.0909851183    -19.5030086101      0.8430383195
 H     20.8590649436    -19.9267374822      1.6672016495
 H     21.5112954282    -18.6889436355      1.0143960945
 O     41.7441212068    -16.3181530031     -0.6452618851
 H     42.4736632225    -16.6650475811     -1.2068409416
 H     41.7020010018    -15.4037690767     -1.0140843159
 O     28.2433855532    -31.0820105801     -2.5789717659
 H     28.0602567219    -31.8391248812     -2.0842797051
 H     28.5142050302    -30.4309238749     -1.9069450025
 O     23.7948461034     -8.0376718931     -3.0474791724
 H     24.4497747708     -7.6671135504     -3.6689896373
 H     23.2008207614     -8.3450352473     -3.6427304001
 O     41.8641121476    -23.0966820379     -5.9187453739
 H     42.7145413500    -23.2314675547     -5.4796634493
 H     42.0599600774    -22.4786322124     -6.6019932150
 O     28.5388807380    -20.3970786472    -13.0573675443
 H     28.3861233048    -21.1605049971    -13.6257225352
 H     27.7314210791    -20.4347721818    -12.5196956715
89
# ORCA AIMD Position Step 810, t=405.00 fs, E_Pot=-6054984.55872072 kJ mol^-1, Unit is Angstrom
 C     24.8741098494    -16.6147216754      0.2475586919
 C     25.2025813281    -17.1588747009      1.7029240888
 C     26.0273611336    -18.5142126533      1.7184616921
 N     26.5309134633    -18.9742390656      0.5014914111
 C     26.2843179485    -18.3303916794     -0.7605205118
 C     26.0891376283    -16.8255002609     -0.6779128704
 C     27.5053084670    -19.9936221559      0.5138840361
 C     28.5435869236    -19.9768779850      1.5038663929
 C     29.7333668349    -20.6723501937      1.2850269681
 C     29.9211811381    -21.3916292338      0.1074911687
 C     28.9034540779    -21.4678859363     -0.7826634854
 C     27.6591311113    -20.8013194194     -0.5763106622
 N     31.2276606172    -21.9611361188     -0.1718965362
 C     31.3261234279    -23.1742444616     -0.9376095927
 C     32.6751642265    -23.9404703819     -0.6810273536
 C     33.8562396490    -23.0267357684     -0.5959172731
 C     33.6301038888    -21.6947908344     -0.3165597643
 C     32.2844223969    -21.0387903144     -0.2383058478
 O     26.3055404157    -19.0465042089      2.8108329248
 O     32.1812424805    -19.8033769759     -0.1438053040
 C     35.2711113095    -23.1470651087     -0.7311287607
 N     35.8657019474    -21.9517171581     -0.4383234197
 N     34.8723998236    -21.0631777348     -0.2578288584
 C     35.1549700495    -19.7312984450      0.1497795082
 C     36.0107846924    -24.3836257285     -1.1183731055
 N     37.4110609495    -24.3622681605     -1.1443898284
 O     35.3453419253    -25.3480148114     -1.5444364181
 C     34.7132008078    -19.2162292923      1.3664987799
 C     34.9863885088    -17.9157891761      1.7146790429
 C     35.6600482722    -17.1064184082      0.8416364089
 C     36.1027257715    -17.5915622551     -0.3898930157
 C     35.8272396665    -18.9065001080     -0.7395058786
 O     35.8656956153    -15.8334912894      1.2449753874
 C     36.2876657733    -14.8705702144      0.1906091950
 H     24.0375424180    -17.1588912851     -0.1701182737
 H     24.6468757609    -15.5310617741      0.2599311284
 H     25.7356243148    -16.5278866945      2.3294235251
 H     24.3049246495    -17.4065667600      2.2780442653
 H     27.1500370451    -18.5653463788     -1.4532937948
 H     25.4529978540    -18.7870761420     -1.2521415614
 H     26.9998823763    -16.3473423177     -0.1943937983
 H     26.0313359513    -16.4264775118     -1.6932859767
 H     28.3368901307    -19.5434375235      2.5096215733
 H     30.4907351916    -20.7891656955      2.0814667175
 H     29.0134243359    -22.0427613507     -1.7001381843
 H     26.8361557792    -21.0985618795     -1.2259359802
 H     30.4687904386    -23.8501724785     -0.6837797453
 H     31.1143064720    -22.9664024938     -2.0111361162
 H     32.6127880640    -24.4450482303      0.3017449688
 H     32.7703578740    -24.6858440237     -1.4347053386
 H     37.8779812537    -23.4861616824     -1.1061152607
 H     37.8564650788    -25.0538869954     -1.7647453124
 H     34.2289928273    -19.8574627584      2.0703014115
 H     34.6790344302    -17.5693396108      2.7001743282
 H     36.6997105257    -16.9846026711     -1.0641468251
 H     36.1291373502    -19.3209634696     -1.6688316096
 H     35.5328449735    -14.9867990710     -0.6155959920
 H     36.1646310321    -13.9141785779      0.7077219873
 H     37.3448036633    -15.0557937326     -0.1273976132
 O     36.5579266931    -20.0232957212     12.9888385639
 H     37.4142354233    -20.3460643771     13.2256015818
 H     36.6356906898    -19.0644673097     12.8164526802
 O     26.2158924406    -27.3210800485      5.8740125487
 H     27.1352348857    -27.0025652032      5.9418291284
 H     26.0938265901    -27.4341024492      4.9288637218
 O     33.5967660433     -7.5568207885     -0.1417057711
 H     32.9512837923     -6.9630947273      0.3035783699
 H     34.4426502594     -7.1034437628     -0.0740218125
 O     37.8660706300    -30.5614192959      1.0155253308
 H     37.3919718916    -29.8330471786      1.4389883086
 H     38.6142965407    -30.1120375055      0.5999998367
 O     21.0753111372    -19.5341944524      0.8406564086
 H     20.9284399433    -20.0590750325      1.6430212883
 H     21.4772928742    -18.6927312305      1.1826294370
 O     41.7404126375    -16.3488503817     -0.6295351084
 H     42.4298767983    -16.7748644774     -1.1332511950
 H     41.6173667743    -15.5704709437     -1.1729702808
 O     28.2481185408    -31.0675859426     -2.5612501280
 H     28.0292521763    -31.9197606864     -2.0950065616
 H     28.4585952310    -30.4485270156     -1.8587293815
 O     23.7669457346     -8.0196447686     -3.0060368862
 H     24.4355725201     -7.5370486763     -3.4707722526
 H     23.0568397435     -8.2963337372     -3.7042596564
 O     41.8853253033    -23.0929367742     -5.8683409139
 H     42.7455514145    -23.1946834037     -5.4521751374
 H     42.0970023641    -22.5861525265     -6.6863507842
 O     28.5642224800    -20.3808179032    -13.0817992672
 H     28.3883328487    -21.1792408740    -13.6058842715
 H     27.8114312830    -20.3046825706    -12.4753236013
89
# ORCA AIMD Position Step 820, t=410.00 fs, E_Pot=-6054994.99520433 kJ mol^-1, Unit is Angstrom
 C     24.8743499073    -16.5837112069      0.2678664784
 C     25.1924101219    -17.1505645012      1.6610027329
 C     26.0155112919    -18.4733995847      1.7296164273
 N     26.5421122840    -18.9730603916      0.5174509222
 C     26.2941958458    -18.3328104658     -0.7609349157
 C     26.0906316195    -16.8050388124     -0.6407068304
 C     27.5294429600    -19.9670864643      0.5416661358
 C     28.5483672280    -20.0043547616      1.5348082335
 C     29.7066996386    -20.6873870297      1.2706379195
 C     29.9388134035    -21.4181626115      0.1254580217
 C     28.9068801955    -21.4807703839     -0.7889893910
 C     27.6761606215    -20.8264835461     -0.5716860766
 N     31.2462880292    -21.9264157536     -0.1477561827
 C     31.3169266097    -23.1925019867     -0.9326416433
 C     32.6893834832    -23.9469669978     -0.6483886555
 C     33.8652062112    -23.0389832757     -0.5770930705
 C     33.6395680052    -21.7125041552     -0.3200749517
 C     32.2884647851    -21.0396117807     -0.2321534990
 O     26.2901814340    -19.0286967658      2.7958391279
 O     32.1807414732    -19.8175826460     -0.1581331066
 C     35.2685217934    -23.1354748892     -0.7400900391
 N     35.8435771707    -21.9507543046     -0.4706558468
 N     34.8601059192    -21.0704634544     -0.2641980144
 C     35.1411829089    -19.7613716700      0.1484983179
 C     36.0063350359    -24.3681243563     -1.1336868036
 N     37.4110804098    -24.3503420422     -1.1589685224
 O     35.3507039057    -25.3364823914     -1.5298727177
 C     34.7120212319    -19.2261189795      1.3647376133
 C     34.9701914382    -17.9266737062      1.7221927080
 C     35.6593310758    -17.0942771721      0.8181853229
 C     36.1063420690    -17.5906854105     -0.4066908776
 C     35.8230674962    -18.9109033430     -0.6974249589
 O     35.8785391303    -15.8077021708      1.2408328615
 C     36.2656434201    -14.8742147587      0.1625118812
 H     24.0240550554    -17.1899145781     -0.1327652461
 H     24.6036718962    -15.5333563150      0.2537373004
 H     25.7713357642    -16.4128619913      2.3774103273
 H     24.1898464538    -17.3411574578      2.2447383744
 H     27.1139854638    -18.5355216504     -1.4045044989
 H     25.3947810238    -18.8102684496     -1.2862688316
 H     26.9866312220    -16.4224482316     -0.2138872918
 H     25.9179790038    -16.3847588610     -1.6541036620
 H     28.4711238537    -19.5825753936      2.4957568191
 H     30.4564020359    -20.7968951394      2.0220818604
 H     29.0819160449    -22.0632897990     -1.6918763011
 H     26.8525440930    -21.0369228197     -1.2454627442
 H     30.5488787335    -23.8957960184     -0.6503747100
 H     31.1512411741    -23.1413721790     -2.0379901505
 H     32.6239945514    -24.4380452303      0.3320038853
 H     32.8758371361    -24.7601851015     -1.3973525184
 H     37.8644156114    -23.3992311108     -1.0821295856
 H     37.8716817306    -25.0464920691     -1.6820083008
 H     34.2321421838    -19.9184121308      2.0776238150
 H     34.6644932665    -17.4600338493      2.6502286918
 H     36.6967406297    -16.9605982064     -1.0552032168
 H     36.1188868020    -19.3891858964     -1.6559279511
 H     35.5659355102    -14.8819603320     -0.6637991322
 H     36.1502765307    -13.9047336718      0.6351658154
 H     37.2626632820    -15.0234761179     -0.1975258211
 O     36.5466842149    -20.0194244347     13.0005037449
 H     37.3952346163    -20.4295272677     13.2115812765
 H     36.7083738296    -19.0786240194     13.0063036876
 O     26.2338991611    -27.3353193215      5.8328146378
 H     27.1471256874    -27.0961006490      5.9424934462
 H     26.1308543863    -27.3860040954      4.8860414561
 O     33.6105964047     -7.5370632335     -0.2273201278
 H     32.9961330650     -6.9839532379      0.2699330367
 H     34.4424337690     -7.0810529986     -0.1618307110
 O     37.8507027264    -30.5716572073      0.9801691668
 H     37.3685106770    -29.8279819785      1.3555567702
 H     38.6255209254    -30.1508385594      0.5994609212
 O     21.0631314767    -19.5595292282      0.8428666027
 H     21.0069447360    -20.1704423217      1.5821630248
 H     21.3861375485    -18.8021432104      1.3139584294
 O     41.7389488236    -16.3763634429     -0.6199683703
 H     42.4023525540    -16.9554135482     -1.0243265326
 H     41.4813642544    -15.7088319766     -1.2719652566
 O     28.2509676967    -31.0589314790     -2.5417884481
 H     28.0261532170    -31.8974308405     -2.1469651953
 H     28.4051708726    -30.4788228620     -1.7998226546
 O     23.7281243163     -8.0096789828     -2.9693210855
 H     24.4206605464     -7.3814112871     -3.3160962204
 H     23.0919579613     -8.1493798829     -3.6539069564
 O     41.9089727078    -23.0850918521     -5.8236707451
 H     42.7722260011    -23.1676708802     -5.4133300870
 H     42.0963471124    -22.7492654132     -6.6962459504
 O     28.5884686524    -20.3649050508    -13.1055411179
 H     28.3839155429    -21.1697073743    -13.5597331505
 H     27.9114053088    -20.2004489142    -12.4655250598
89
# ORCA AIMD Position Step 830, t=415.00 fs, E_Pot=-6054997.48276321 kJ mol^-1, Unit is Angstrom
 C     24.8840589806    -16.5650320880      0.2866787455
 C     25.1784282720    -17.1425244183      1.6461313180
 C     26.0130251617    -18.4342154359      1.7361021397
 N     26.5410343354    -18.9646775786      0.5565615837
 C     26.2826657946    -18.3283288612     -0.7798514592
 C     26.0775799343    -16.8081497441     -0.6061599745
 C     27.5734575374    -19.9501607325      0.5667810118
 C     28.5477753732    -20.0374461028      1.5513152049
 C     29.6905561127    -20.7162307829      1.2728403100
 C     29.9558210739    -21.4283948837      0.1271088991
 C     28.8981336083    -21.5019359351     -0.8037959941
 C     27.7069774750    -20.8536829021     -0.5585833133
 N     31.2477115245    -21.9120412929     -0.1355540605
 C     31.3382967188    -23.2316318180     -0.9238544641
 C     32.6953458104    -23.9602478814     -0.6220755840
 C     33.8664448411    -23.0430131603     -0.5705174727
 C     33.6333628917    -21.7123284087     -0.3217268699
 C     32.3214841268    -21.0284088001     -0.2194761974
 O     26.2636084263    -19.0005012133      2.7711270024
 O     32.1784479108    -19.8391394573     -0.1712519218
 C     35.2654570299    -23.1283468466     -0.7352461243
 N     35.8326799947    -21.9505686393     -0.5103094384
 N     34.8394115815    -21.0963575496     -0.2664420365
 C     35.1285230678    -19.7591182929      0.1535632296
 C     36.0128023741    -24.3566978978     -1.1690548270
 N     37.3867075661    -24.3159647926     -1.1625285308
 O     35.3631805532    -25.3219443534     -1.5077564791
 C     34.7063058670    -19.2591796117      1.3776554364
 C     34.9601884906    -17.9256956826      1.7193342883
 C     35.6594715698    -17.0784740890      0.8010456870
 C     36.1079417560    -17.5902152095     -0.4122667492
 C     35.8270820991    -18.9319898445     -0.6834521937
 O     35.8943004498    -15.7786002147      1.2162689732
 C     36.2287654661    -14.8782304884      0.1577991875
 H     24.0510656207    -17.1275320270     -0.1082220597
 H     24.5203096215    -15.5178742180      0.3347768396
 H     25.6970149733    -16.4519755203      2.2014835680
 H     24.2740821158    -17.2695188654      2.1181064506
 H     27.2014190298    -18.5279388451     -1.4004388845
 H     25.4227425224    -18.7475562682     -1.2350848539
 H     27.0479266384    -16.3786260135     -0.2017421548
 H     25.8375864559    -16.3611388706     -1.5591473618
 H     28.5345509759    -19.4915821503      2.5202528159
 H     30.4851879739    -20.7105190520      2.0562501378
 H     29.0674503587    -22.0788609631     -1.7044476660
 H     26.8888910031    -20.8828846323     -1.2925606082
 H     30.5581693585    -23.8946848338     -0.4904441042
 H     31.2731018280    -23.1317170460     -1.9990833923
 H     32.5999422781    -24.4545522660      0.3535155789
 H     32.9210816672    -24.7596043698     -1.3131615592
 H     37.8054728793    -23.4568282480     -1.0662707483
 H     37.8984166427    -25.1064819347     -1.6426308384
 H     34.2065693001    -19.9127476587      2.0600298973
 H     34.6257161566    -17.4215406502      2.6266222389
 H     36.6770363897    -16.9758919257     -1.1028339775
 H     36.1404372715    -19.3449107369     -1.6110336642
 H     35.5575853167    -14.8625029974     -0.7352481384
 H     36.2008253260    -13.8494390676      0.5840141124
 H     37.2698811348    -15.0254412797     -0.2467638993
 O     36.5344362186    -20.0165101758     13.0124660960
 H     37.3734611425    -20.4893143338     13.1906294854
 H     36.8009445924    -19.1009843354     13.1949869984
 O     26.2504353862    -27.3503473079      5.7932015193
 H     27.1926567195    -27.1775123624      5.9591281374
 H     26.1541116269    -27.3344780797      4.8089407358
 O     33.6221479814     -7.5191597985     -0.3120510177
 H     33.0426342114     -7.0014514983      0.2301221988
 H     34.4746091605     -7.0357485018     -0.2437079421
 O     37.8358348619    -30.5801329735      0.9455673736
 H     37.3304992518    -29.8354053844      1.2756036733
 H     38.6447254367    -30.2028489284      0.5888204364
 O     21.0519188736    -19.5861014999      0.8518669172
 H     21.0582042112    -20.3400217851      1.4655458711
 H     21.3147559252    -18.8250702965      1.3927980332
 O     41.7368870819    -16.4020024070     -0.6083792644
 H     42.3327408308    -17.0845128263     -0.9435179744
 H     41.3979452049    -15.9199453539     -1.3777394944
 O     28.2540443285    -31.0489001905     -2.5256760740
 H     28.0171184273    -31.9059026568     -2.1721715962
 H     28.3541964816    -30.5015854937     -1.7176887817
 O     23.6994191890     -7.9941185141     -2.9261448490
 H     24.2847096673     -7.3155016797     -3.1806262431
 H     23.0931237369     -8.0060912067     -3.6942453410
 O     41.9315709940    -23.0779179943     -5.7789966780
 H     42.8084394970    -23.1429079916     -5.3737861070
 H     42.0991602055    -22.8996780899     -6.7127709801
 O     28.6203182805    -20.3437831692    -13.1311516588
 H     28.3161252882    -21.2023053716    -13.4960093006
 H     27.9496022458    -20.1401990984    -12.4406666187
89
# ORCA AIMD Position Step 840, t=420.00 fs, E_Pot=-6054961.63883976 kJ mol^-1, Unit is Angstrom
 C     24.8929578079    -16.5548481416      0.3025090059
 C     25.1733001173    -17.1442423073      1.6262360492
 C     26.0141157095    -18.4019341959      1.7162299447
 N     26.5387208051    -18.9512761424      0.5831020406
 C     26.2875524956    -18.3102578313     -0.7847220827
 C     26.0720798900    -16.8141876404     -0.5774626910
 C     27.6086590596    -19.9501441814      0.5745069484
 C     28.5419709496    -20.0528165737      1.5749160651
 C     29.7105225558    -20.7583871639      1.3023228977
 C     29.9545850172    -21.4256794473      0.1100982547
 C     28.9007456487    -21.5328050114     -0.8137614900
 C     27.7281689060    -20.8514582418     -0.5339125185
 N     31.2530618544    -21.9316742507     -0.1424280160
 C     31.3835464738    -23.2726209006     -0.8839157763
 C     32.6982562564    -23.9768471318     -0.5904009265
 C     33.8541118934    -23.0416630486     -0.5717141856
 C     33.6174239697    -21.7072434849     -0.3186800301
 C     32.3535309226    -21.0394139316     -0.2041909388
 O     26.2315016222    -18.9696834289      2.7658002418
 O     32.1779219623    -19.8385054016     -0.1809095092
 C     35.2610823426    -23.1379817169     -0.7298997926
 N     35.8340869533    -21.9441849824     -0.5502945902
 N     34.8264822693    -21.1117378172     -0.2635969334
 C     35.1155685525    -19.7491600773      0.1616502859
 C     36.0221688209    -24.3300554813     -1.2005315979
 N     37.3521553551    -24.2950231906     -1.1687964084
 O     35.3720306561    -25.3216451261     -1.4886656640
 C     34.7011157962    -19.2799201881      1.4011702320
 C     34.9592684773    -17.9150301869      1.6977831323
 C     35.6554981518    -17.0677036960      0.8001502056
 C     36.1053958176    -17.5977228506     -0.4085601360
 C     35.8400871460    -18.9456658360     -0.6902490270
 O     35.9032976374    -15.7577440816      1.1788278437
 C     36.2047783712    -14.8641370958      0.1484660212
 H     24.0204383086    -17.0806434832     -0.1703931421
 H     24.5369375382    -15.5360422307      0.4334155892
 H     25.7882537078    -16.3269948913      2.2085862797
 H     24.1416362831    -17.3167873514      2.2200253232
 H     27.1656437821    -18.4978714711     -1.3634346561
 H     25.3557382663    -18.7649342524     -1.2607037892
 H     26.9606938953    -16.3345332700     -0.2319600070
 H     25.8499388533    -16.3347764957     -1.5655725066
 H     28.5094074529    -19.4224440531      2.4216612339
 H     30.4725556525    -20.6015746396      2.0206184999
 H     28.9862353055    -22.0947915951     -1.7497922103
 H     26.9876948959    -20.7429860480     -1.3089776271
 H     30.5569996166    -23.8219469194     -0.4493065852
 H     31.3075296563    -23.0236921159     -1.9869117207
 H     32.5913396944    -24.4687508744      0.3942982223
 H     32.8913300528    -24.7941555515     -1.3088424482
 H     37.8631421402    -23.3632623909     -1.0306505200
 H     37.8363574293    -25.0304794115     -1.5458296167
 H     34.1203568762    -19.9151429527      2.0940167011
 H     34.5786959389    -17.4913506705      2.6207760625
 H     36.6402076539    -17.0344849727     -1.1652127869
 H     36.2082870455    -19.3203347341     -1.6657650033
 H     35.5156968921    -14.9427357676     -0.6849225008
 H     36.2514343990    -13.8741579767      0.5495947642
 H     37.2018367239    -15.0592896537     -0.2137450469
 O     36.5300891776    -20.0108321476     13.0264282742
 H     37.2855241083    -20.5578957221     13.1508956448
 H     36.8356967161    -19.1580546875     13.3665990065
 O     26.2674559768    -27.3649338477      5.7499940030
 H     27.1968288849    -27.2627880315      5.9468029558
 H     26.2069007723    -27.2824671853      4.8261110705
 O     33.6395992896     -7.4997169259     -0.3969749885
 H     33.0432979022     -7.0030706214      0.2240313853
 H     34.4562989027     -7.0345511823     -0.3394136292
 O     37.8210442729    -30.5909992530      0.9115285054
 H     37.3029792566    -29.8225340538      1.1878975413
 H     38.6541465385    -30.2346579100      0.5837474309
 O     21.0416109286    -19.6134513736      0.8625483066
 H     21.1164298381    -20.4504695498      1.3184873582
 H     21.2304482495    -18.8847989247      1.4747654247
 O     41.7325375219    -16.4268160281     -0.5970690096
 H     42.2464190622    -17.1741610079     -0.8954159343
 H     41.3689931254    -16.1741154446     -1.4494642889
 O     28.2575558454    -31.0354465916     -2.5049822015
 H     28.0006160534    -31.9470327452     -2.2084825366
 H     28.3038621714    -30.5476606181     -1.7009939099
 O     23.6656063885     -7.9820551747     -2.8860348773
 H     24.2478534944     -7.1819427851     -3.0237284650
 H     23.0830449462     -7.8805031538     -3.7162929514
 O     41.9542000917    -23.0699457609     -5.7350302286
 H     42.8302612057    -23.1146098167     -5.3619497023
 H     42.1114431082    -23.0663795655     -6.6976447123
 O     28.6464319847    -20.3266169313    -13.1546446707
 H     28.2795146452    -21.1646410234    -13.4083588254
 H     28.0422191770    -20.0916246213    -12.4697047554
89
# ORCA AIMD Position Step 850, t=425.00 fs, E_Pot=-6054963.84427975 kJ mol^-1, Unit is Angstrom
 C     24.8773576911    -16.5602598069      0.3039257174
 C     25.1576902256    -17.1347204525      1.6519219256
 C     26.0153323567    -18.3867285116      1.6925714568
 N     26.5497216788    -18.9404662565      0.5692028395
 C     26.2797737790    -18.2919807831     -0.7614439895
 C     26.0626220198    -16.8075203196     -0.5829334371
 C     27.6144905178    -19.9596447164      0.5700511038
 C     28.5510492118    -20.0621318572      1.5883496537
 C     29.7309760813    -20.7907274378      1.3373241254
 C     29.9518623965    -21.4266164094      0.0885071902
 C     28.9050944507    -21.5627520555     -0.8139781919
 C     27.7430298478    -20.8174050080     -0.5093622793
 N     31.2768936805    -21.9676474639     -0.1562776209
 C     31.4276444805    -23.2813148654     -0.8382439436
 C     32.7038652354    -24.0070591229     -0.5564824907
 C     33.8370403620    -23.0425678010     -0.5768779458
 C     33.6150096715    -21.7132426816     -0.3106662547
 C     32.3441080428    -21.0578117566     -0.1884198327
 O     26.1965560739    -18.9362572528      2.7814089516
 O     32.1831337208    -19.8265658279     -0.1860753511
 C     35.2511261609    -23.1487904978     -0.7333292147
 N     35.8349000605    -21.9349783033     -0.5835873750
 N     34.8310873356    -21.1004146680     -0.2570874237
 C     35.1055545141    -19.7533818661      0.1647063203
 C     36.0034678974    -24.2995266559     -1.2146896096
 N     37.3368971876    -24.2459964073     -1.1695306104
 O     35.3789128113    -25.3335950485     -1.4763713636
 C     34.6968571232    -19.2735736052      1.4231859827
 C     34.9573382623    -17.9126399909      1.6738314423
 C     35.6528067373    -17.0588848137      0.8050358303
 C     36.0992748202    -17.6190136391     -0.4042091411
 C     35.8595468975    -18.9473216272     -0.7131907495
 O     35.8977211253    -15.7557219692      1.1522810723
 C     36.1965337029    -14.8497091361      0.1281905961
 H     24.0343310727    -17.0062568272     -0.1996742928
 H     24.6513146956    -15.4892654457      0.4641504194
 H     25.7363587149    -16.4342896790      2.1824533012
 H     24.3628246388    -17.3442478285      2.2292775389
 H     27.1668101220    -18.4798375174     -1.4140352503
 H     25.4387363549    -18.7457387180     -1.2421914189
 H     26.9748846678    -16.2761859919     -0.1846864423
 H     25.9249632633    -16.3767506671     -1.5563537300
 H     28.4506269069    -19.3429336367      2.4289514508
 H     30.5865171180    -20.5793673469      2.0298215254
 H     28.9184140462    -22.0872117039     -1.7549136111
 H     27.0361716283    -20.7006851652     -1.3395580957
 H     30.5146085880    -23.8391696591     -0.5560235321
 H     31.2834487114    -23.0248332338     -1.8631367407
 H     32.6391196174    -24.4718460351      0.4282715709
 H     32.8183138463    -24.8051780938     -1.3012765646
 H     37.8136581623    -23.4378420473     -1.0164230216
 H     37.8656472340    -25.0958290944     -1.5291309524
 H     34.0859099357    -19.8551806609      2.0827096520
 H     34.5598542172    -17.5599714689      2.6237568591
 H     36.6068601514    -17.0630382176     -1.1830830042
 H     36.2185097840    -19.3274590290     -1.6423511018
 H     35.4148486204    -14.9928312420     -0.6504051565
 H     36.2179546724    -13.8219139860      0.5798240797
 H     37.2149305717    -15.1085652592     -0.2553093991
 O     36.5257270960    -20.0000562092     13.0417324854
 H     37.2353976281    -20.6917560361     13.1090314789
 H     36.8345317596    -19.2303277278     13.5143142671
 O     26.2825305384    -27.3807817248      5.7148239167
 H     27.2234563676    -27.3397687029      5.9279813059
 H     26.2634305135    -27.2146427874      4.7316699056
 O     33.6491333765     -7.4791172855     -0.4765269758
 H     33.1036032380     -7.0592923480      0.1487352957
 H     34.5008489355     -7.0014492549     -0.4317709876
 O     37.8057313791    -30.6025395614      0.8785153499
 H     37.3036995705    -29.8147622811      1.0848251878
 H     38.6458714675    -30.2478375134      0.5855431181
 O     21.0298569557    -19.6376263994      0.8662607445
 H     21.1971405968    -20.5072741719      1.2492866289
 H     21.1557279738    -19.0373961908      1.5884078057
 O     41.7282379716    -16.4530607714     -0.5952566730
 H     42.2067943130    -17.3021518569     -0.7521304416
 H     41.2941588233    -16.3567514213     -1.4689190018
 O     28.2588969307    -31.0303610364     -2.4860996877
 H     28.0113160204    -31.8982782018     -2.2747035614
 H     28.2607993861    -30.5526423614     -1.6299867222
 O     23.6325024504     -7.9563530409     -2.8614264497
 H     24.1672206003     -7.1785036776     -2.7778906873
 H     23.1133185611     -7.8476226154     -3.5915445632
 O     41.9757326038    -23.0624665821     -5.6962045336
 H     42.8778707029    -23.0886999956     -5.3386896480
 H     42.1102280599    -23.2227604979     -6.6207348327
 O     28.6705570143    -20.3114704373    -13.1776395522
 H     28.2779993720    -21.1778117754    -13.3861858138
 H     28.1250379635    -19.9649915577    -12.4369798825
89
# ORCA AIMD Position Step 860, t=430.00 fs, E_Pot=-6054969.27822191 kJ mol^-1, Unit is Angstrom
 C     24.8523968814    -16.5533201689      0.2990198303
 C     25.1666273466    -17.1389984636      1.6639738512
 C     26.0178267190    -18.3971773361      1.6908117050
 N     26.5756264940    -18.9335120903      0.5300990341
 C     26.2928420302    -18.2758642270     -0.7278307631
 C     26.0675251615    -16.7876444533     -0.5945413222
 C     27.5973526996    -19.9651853903      0.5725432539
 C     28.5784826085    -20.0593112325      1.5983196821
 C     29.7489953951    -20.8003666491      1.3666106120
 C     29.9649200312    -21.4430035777      0.0818352459
 C     28.8956685585    -21.5720147170     -0.7948100549
 C     27.7562579940    -20.7789233695     -0.5163840771
 N     31.3001640834    -21.9931345380     -0.1582463174
 C     31.4387013605    -23.2728096537     -0.7917403196
 C     32.7143243843    -24.0417004405     -0.5248707573
 C     33.8312285181    -23.0512285037     -0.5835940434
 C     33.6278092945    -21.7227698059     -0.2953984716
 C     32.3046516660    -21.0578616344     -0.1776934025
 O     26.1615662079    -18.8988574809      2.7998069660
 O     32.1915771123    -19.8287010004     -0.1854665767
 C     35.2296457220    -23.1350584127     -0.7476101125
 N     35.8279736113    -21.9296153745     -0.6059676639
 N     34.8439727929    -21.0805820567     -0.2527707096
 C     35.1090240181    -19.7584603848      0.1615673026
 C     35.9637495875    -24.2923339025     -1.2118035592
 N     37.3374966482    -24.2174511777     -1.1805641868
 O     35.3880795181    -25.3460569282     -1.4696668208
 C     34.7018414962    -19.2451216924      1.4109323884
 C     34.9489741571    -17.9158722127      1.6686594695
 C     35.6540740907    -17.0600441240      0.8002092272
 C     36.0947308992    -17.6384144584     -0.4036752884
 C     35.8636245742    -18.9524005015     -0.7187026277
 O     35.8802706303    -15.7691125173      1.1467326389
 C     36.1971369946    -14.8386330253      0.0978756981
 H     23.9437901679    -16.9649120281     -0.1955927726
 H     24.7680824817    -15.4663669132      0.3942778663
 H     25.7949052573    -16.4178409615      2.2969418229
 H     24.2715258414    -17.4231485530      2.4118318003
 H     27.1217527257    -18.4412379897     -1.4090957908
 H     25.4202333180    -18.7681066010     -1.2520760237
 H     26.9388883696    -16.3345700857     -0.1429256507
 H     25.9531820866    -16.3846642014     -1.6367184781
 H     28.4452205549    -19.4197403314      2.4353631848
 H     30.6132357707    -20.6906437929      1.9655325680
 H     28.9280265083    -22.1008769286     -1.7576357084
 H     27.0383049318    -20.7429681656     -1.3161194176
 H     30.5547250827    -23.9074847635     -0.6450278291
 H     31.3304440427    -23.1104698328     -1.9249543204
 H     32.7165687462    -24.5064771963      0.4832571176
 H     32.7770960798    -24.8240051794     -1.2744863366
 H     37.8538642380    -23.3113593076     -0.9681417720
 H     37.8056591554    -25.0098469340     -1.4632231289
 H     34.0634785813    -19.8179851180      2.1034320998
 H     34.5883456239    -17.5360096681      2.6158556362
 H     36.6014165256    -17.0256262959     -1.1452063034
 H     36.2163920258    -19.3974904755     -1.6675394085
 H     35.4014780867    -14.9130092103     -0.6424830310
 H     36.1437214070    -13.8797103340      0.5504102049
 H     37.1613517361    -15.0612321323     -0.3493934432
 O     36.5224455054    -19.9949664945     13.0548081850
 H     37.1277991219    -20.7074927457     13.0877223421
 H     36.8754009808    -19.3300142496     13.6719737203
 O     26.2988279793    -27.3953560838      5.6722436155
 H     27.2301428575    -27.4168259595      5.9130628540
 H     26.3157174873    -27.1627344706      4.7606955974
 O     33.6650128520     -7.4615493273     -0.5603214218
 H     33.1094811687     -7.0564974972      0.1515468099
 H     34.4958327089     -6.9837450775     -0.5148028058
 O     37.7910152420    -30.6133556891      0.8461542022
 H     37.2775777044    -29.8036159540      0.9876485380
 H     38.6571400999    -30.2728777258      0.5790587231
 O     21.0185003343    -19.6628602891      0.8682874837
 H     21.2821085544    -20.5449286922      1.1738709431
 H     21.0801097482    -19.1810088606      1.7338728427
 O     41.7256713339    -16.4885476008     -0.6042765516
 H     42.1407587718    -17.3336242720     -0.5265877856
 H     41.2196540222    -16.4786231021     -1.4019706184
 O     28.2625433990    -31.0155802633     -2.4669250638
 H     27.9892014944    -31.9616654358     -2.3021395297
 H     28.2139291723    -30.6012344564     -1.6068171989
 O     23.6079182102     -7.9380558404     -2.8216817308
 H     24.0877126733     -7.1362497505     -2.5765703856
 H     23.0153391629     -7.7425540062     -3.6731739035
 O     41.9998760697    -23.0546664057     -5.6559957048
 H     42.8939518763    -23.0599060599     -5.3120842825
 H     42.0938730694    -23.3869342936     -6.5778583476
 O     28.6909012356    -20.2968354549    -13.1976141711
 H     28.2869264838    -21.1498583114    -13.3443328913
 H     28.2509462032    -19.8763520714    -12.4675683326
89
# ORCA AIMD Position Step 870, t=435.00 fs, E_Pot=-6054995.90260118 kJ mol^-1, Unit is Angstrom
 C     24.8298302380    -16.5320114627      0.2898753340
 C     25.1687603197    -17.1499420062      1.6940831243
 C     26.0184567429    -18.4201861886      1.6990733024
 N     26.6072058053    -18.9273895274      0.5145874843
 C     26.3044804431    -18.2693795872     -0.7193147379
 C     26.0647313007    -16.7753038053     -0.6119990511
 C     27.5850949616    -19.9626385059      0.5866203854
 C     28.6108666464    -20.0554429905      1.5914926824
 C     29.7553079116    -20.8020913595      1.3551849925
 C     29.9798722861    -21.4686298180      0.1029755120
 C     28.8856202686    -21.5623185611     -0.7663899966
 C     27.7694370558    -20.7556478574     -0.5512644410
 N     31.2927445824    -21.9965649706     -0.1415348169
 C     31.4309811708    -23.2782814371     -0.7865461944
 C     32.7274120820    -24.0667249981     -0.4896547032
 C     33.8363263953    -23.0600478868     -0.5863780588
 C     33.6321852750    -21.7200811572     -0.2712906279
 C     32.2908211578    -21.0512154685     -0.1768074392
 O     26.1344295259    -18.8692262732      2.8168949791
 O     32.1936291780    -19.8430096431     -0.1784773455
 C     35.2048576512    -23.1040490604     -0.7750959576
 N     35.8182162088    -21.9270419714     -0.6168149266
 N     34.8488103111    -21.0764973218     -0.2541236045
 C     35.1285754439    -19.7500319321      0.1550137602
 C     35.9445027106    -24.3032272928     -1.1947490512
 N     37.3301722899    -24.1698533358     -1.1889961471
 O     35.3953704736    -25.3590382524     -1.4673502790
 C     34.7025957074    -19.2215470998      1.3739112761
 C     34.9437855603    -17.9035600252      1.6802924978
 C     35.6538754364    -17.0827019165      0.7851306593
 C     36.0974119331    -17.6381778055     -0.4074621752
 C     35.8535114682    -18.9753608700     -0.7157514041
 O     35.8603705150    -15.7850359680      1.1473455474
 C     36.1855417468    -14.8441468041      0.0689856233
 H     23.8960532330    -16.9107816134     -0.1142866319
 H     24.7623234029    -15.4392906782      0.3276806733
 H     25.7697405265    -16.4524481686      2.2972775956
 H     24.3706369576    -17.3719167699      2.2893644382
 H     27.1529528102    -18.4234848507     -1.4038515719
 H     25.4308711625    -18.7268232187     -1.1934066629
 H     26.9624247082    -16.3597223742     -0.0985618928
 H     25.9553517415    -16.3852855224     -1.6013044247
 H     28.4857848796    -19.5186606076      2.5561865040
 H     30.6514282629    -20.8182810736      2.0388909506
 H     28.9814084157    -22.0998148408     -1.6926692760
 H     26.9631873084    -20.7977747441     -1.2989719289
 H     30.5949624850    -23.9419807412     -0.5722695513
 H     31.4866534136    -23.2025031933     -1.8636206491
 H     32.7768267868    -24.5375849546      0.4898265152
 H     32.8058810529    -24.8793924134     -1.2465556214
 H     37.7845254661    -23.3369832980     -0.9635825487
 H     37.8612806770    -25.0290848980     -1.4587430698
 H     34.1184502662    -19.7836789081      2.0728523985
 H     34.6245390538    -17.4499509959      2.6183552726
 H     36.6233853713    -16.9890690627     -1.0924522755
 H     36.1821975216    -19.4155700096     -1.6325302759
 H     35.4028037897    -14.8064989445     -0.7105106133
 H     36.1307992683    -13.8386699579      0.5639877306
 H     37.1551052571    -14.9712819429     -0.4450775514
 O     36.5154676669    -19.9830357071     13.0692379311
 H     37.0913728799    -20.7795116706     13.0804488498
 H     36.9054576623    -19.4815372723     13.7892803324
 O     26.3158915970    -27.4107366588      5.6342807420
 H     27.2330550201    -27.4921130145      5.9096511201
 H     26.3549696321    -27.0956347099      4.7145314888
 O     33.6765209699     -7.4425561261     -0.6392971430
 H     33.1766312609     -7.0897254476      0.0901528425
 H     34.4957118961     -6.9571807399     -0.5901553490
 O     37.7775055929    -30.6204352020      0.8142712760
 H     37.2495277022    -29.8249390372      0.8876350979
 H     38.6532687584    -30.3215256007      0.5755502924
 O     21.0106809896    -19.6886265349      0.8836198026
 H     21.3471083741    -20.5746608930      1.0219469315
 H     20.9782390845    -19.3127499716      1.7434607084
 O     41.7246765988    -16.5175506166     -0.6077646739
 H     42.0575184852    -17.4027751820     -0.3462746941
 H     41.1386845316    -16.6555645065     -1.3807511364
 O     28.2639705180    -31.0085465652     -2.4483796876
 H     28.0009266920    -31.9053163921     -2.3413896094
 H     28.1683446012    -30.6484101183     -1.5661355355
 O     23.5748768123     -7.9216393771     -2.7936733892
 H     23.9424642139     -7.0901656759     -2.4526523568
 H     23.1253615809     -7.6179142819     -3.5016847396
 O     42.0232370842    -23.0487430755     -5.6219285036
 H     42.9226448984    -23.0357344049     -5.2877413645
 H     42.0722164575    -23.5164074092     -6.4440699403
 O     28.7172758567    -20.2797957999    -13.2218564872
 H     28.2520341786    -21.1224628201    -13.2595452476
 H     28.3185414048    -19.8302582000    -12.4691018758
89
# ORCA AIMD Position Step 880, t=440.00 fs, E_Pot=-6055003.83964625 kJ mol^-1, Unit is Angstrom
 C     24.8295963657    -16.5016138797      0.2904895538
 C     25.1867253932    -17.1500015322      1.6813443097
 C     26.0129729308    -18.4328098259      1.6995333676
 N     26.6332662546    -18.9188259164      0.5489191300
 C     26.3196518886    -18.2651317777     -0.7422034064
 C     26.0553916501    -16.7784733350     -0.6052840269
 C     27.6010464854    -19.9583668020      0.5941022203
 C     28.6306511272    -20.0475311708      1.5847393171
 C     29.7755358663    -20.8068198223      1.3247249740
 C     29.9759745270    -21.4895708319      0.1451862819
 C     28.8936427871    -21.5416830836     -0.7367729818
 C     27.7681803224    -20.7425548454     -0.5866752193
 N     31.2608190520    -21.9883334524     -0.1160292831
 C     31.4327224994    -23.3142440854     -0.7901519715
 C     32.7440739297    -24.0789223595     -0.4615261841
 C     33.8354276904    -23.0542321029     -0.5777309885
 C     33.6199447582    -21.7110799701     -0.2439518871
 C     32.3175170631    -21.0599455411     -0.1807644134
 O     26.1209964075    -18.8606819905      2.8388558542
 O     32.1852140275    -19.8517831928     -0.1664918237
 C     35.1958088643    -23.0901322993     -0.8168236739
 N     35.8111202648    -21.9209738935     -0.6185036979
 N     34.8391214668    -21.0859001643     -0.2569575753
 C     35.1496722096    -19.7414186327      0.1489590826
 C     35.9575235928    -24.3134109816     -1.1717985528
 N     37.3060395172    -24.1432820651     -1.2038237875
 O     35.3992850501    -25.3734732932     -1.4661560562
 C     34.6968313574    -19.1999742891      1.3373145796
 C     34.9473155459    -17.8775438894      1.6936818793
 C     35.6492094424    -17.1122580570      0.7710255527
 C     36.1056656113    -17.6333933474     -0.4170337095
 C     35.8461604522    -18.9839303636     -0.7138934069
 O     35.8448513845    -15.7946664613      1.1333782528
 C     36.1605042147    -14.8388730750      0.0520864930
 H     23.8656524231    -16.9122213645     -0.0694179949
 H     24.6554681537    -15.4113895658      0.3537581466
 H     25.7699210324    -16.4352174242      2.2729196194
 H     24.1916782400    -17.3680660900      2.2695116265
 H     27.1876667539    -18.4393328238     -1.3959018420
 H     25.4061118779    -18.7133630021     -1.1695387465
 H     26.9330567397    -16.3258227631     -0.1302148320
 H     25.9491773517    -16.3196938943     -1.6262076187
 H     28.5415920292    -19.6493188597      2.5704571182
 H     30.4916898078    -20.9017949304      2.0969331912
 H     29.0185063881    -22.1277458949     -1.6613890688
 H     26.9365100006    -20.8284493918     -1.2620238609
 H     30.5648648679    -23.9105493040     -0.4475743374
 H     31.5621740014    -23.1876165082     -1.8955330339
 H     32.7894115622    -24.5619136629      0.5369244681
 H     32.8701401588    -24.8753147899     -1.1689382346
 H     37.7559409532    -23.2512774257     -0.9376830009
 H     37.8896064146    -24.9186487709     -1.4263448913
 H     34.1567693905    -19.8391200066      2.0502412959
 H     34.6366647465    -17.4061576271      2.6153163412
 H     36.6713738360    -16.9977094795     -1.0936296044
 H     36.1779178544    -19.4221095693     -1.6657052701
 H     35.3997506796    -14.7982950167     -0.7403580499
 H     36.1926240765    -13.9002292472      0.5516117890
 H     37.1505528081    -14.9444131282     -0.4236722968
 O     36.5159518970    -19.9756622057     13.0875731242
 H     36.9799007780    -20.8198425223     13.0245404191
 H     36.8937003844    -19.5919859167     13.8887559175
 O     26.3314004701    -27.4262137734      5.5952738254
 H     27.2377726434    -27.5596473516      5.8910100629
 H     26.4128253660    -27.0308736073      4.7090434688
 O     33.6879421061     -7.4248972990     -0.7178597893
 H     33.2047835028     -7.1158940799      0.0531598815
 H     34.5330197250     -6.9207461419     -0.6779430861
 O     37.7629662863    -30.6301230147      0.7835867501
 H     37.2301304667    -29.8271011736      0.7816747123
 H     38.6589060232    -30.3447504812      0.5660184721
 O     21.0032409636    -19.7155979100      0.8942610252
 H     21.4111006059    -20.5983811787      0.8761525797
 H     20.8808723542    -19.4206051185      1.8205662432
 O     41.7229413957    -16.5488399682     -0.6123703429
 H     41.9200754141    -17.3988444046     -0.2205899080
 H     41.1245168541    -16.8602099348     -1.2899708309
 O     28.2664557861    -30.9976952499     -2.4306765216
 H     27.9939623429    -31.9302890166     -2.3845842455
 H     28.1244989571    -30.6765090954     -1.5120568914
 O     23.5510616883     -7.9035817469     -2.7530293856
 H     23.8197882322     -7.1021829204     -2.2999247916
 H     23.0738046207     -7.4672132391     -3.5693656372
 O     42.0444405222    -23.0415573785     -5.5857073875
 H     42.9643799468    -23.0193337667     -5.2758285556
 H     42.0669971529    -23.6578534183     -6.3401952326
 O     28.7424904394    -20.2639728422    -13.2457200205
 H     28.2237143976    -21.0832413742    -13.1742282051
 H     28.3920291939    -19.7812573579    -12.4732347348
89
# ORCA AIMD Position Step 890, t=445.00 fs, E_Pot=-6055013.82078531 kJ mol^-1, Unit is Angstrom
 C     24.8412176047    -16.4787789300      0.3014691328
 C     25.1728317482    -17.1397344429      1.6450859808
 C     26.0020687231    -18.4296519912      1.7097715183
 N     26.6484768151    -18.9054978491      0.6049918511
 C     26.3308151009    -18.2648084777     -0.7671285455
 C     26.0384925620    -16.7749180080     -0.5993346489
 C     27.6427874254    -19.9496887044      0.5867426669
 C     28.6407133488    -20.0521244291      1.5646988163
 C     29.7793883663    -20.8028408405      1.3097702417
 C     29.9571179302    -21.5030829947      0.1797463282
 C     28.9120357200    -21.5231981332     -0.7291332913
 C     27.7640418428    -20.7342946355     -0.5904961719
 N     31.2451628380    -21.9911380862     -0.0971569735
 C     31.4405114254    -23.3566423563     -0.7870210943
 C     32.7603534093    -24.0728655671     -0.4294454357
 C     33.8268668706    -23.0355404658     -0.5570939975
 C     33.6078315978    -21.7129017679     -0.2220905949
 C     32.3397826525    -21.0735679622     -0.1765376327
 O     26.1198073883    -18.8715636368      2.8573337834
 O     32.1724563324    -19.8554427537     -0.1520942156
 C     35.2025242532    -23.1026684181     -0.8601775719
 N     35.8040764838    -21.9128442581     -0.6163176160
 N     34.8229623893    -21.0893718246     -0.2547387396
 C     35.1556140925    -19.7480488090      0.1454850656
 C     35.9737094618    -24.3244879437     -1.1592287688
 N     37.2867587955    -24.1133405120     -1.2157831408
 O     35.4056813991    -25.3824899135     -1.4601615488
 C     34.6818370034    -19.1831913716      1.3296219243
 C     34.9535451522    -17.8657233058      1.6947035183
 C     35.6462046839    -17.1153649891      0.7624362797
 C     36.1182234040    -17.6409275801     -0.4361526265
 C     35.8609640143    -18.9639764079     -0.7388623751
 O     35.8335607749    -15.7984383534      1.1009637221
 C     36.1358665393    -14.8404890142      0.0481004641
 H     23.9331306425    -16.9577224186     -0.0880223165
 H     24.5783490607    -15.4304861563      0.4406470906
 H     25.7851390373    -16.4045488701      2.2799350977
 H     24.2686392793    -17.3354652447      2.1568983549
 H     27.1859928176    -18.4666045253     -1.4026467450
 H     25.4252006092    -18.7497186886     -1.1975086360
 H     26.9097288093    -16.2507356533     -0.1779716289
 H     25.9430702744    -16.3190563789     -1.5678104486
 H     28.5370555873    -19.6670182716      2.5910594410
 H     30.4311135356    -20.9393645740      2.2076947189
 H     29.0163092148    -22.1328168052     -1.6035161731
 H     26.9269816392    -20.8298393792     -1.2966868555
 H     30.5472612672    -23.8683745945     -0.4638434584
 H     31.4377345950    -23.1553988853     -1.8707902402
 H     32.7587673735    -24.5124911269      0.5670545393
 H     32.9406940726    -24.9102320502     -1.1597141425
 H     37.6539237053    -23.2120955816     -0.9221360825
 H     37.9266933300    -24.8639625419     -1.4194967211
 H     34.1883288997    -19.8749850006      1.9878933734
 H     34.6131255764    -17.4179575211      2.6273820002
 H     36.7048154036    -17.0516541737     -1.1227923239
 H     36.1773343107    -19.3905158889     -1.6714774121
 H     35.3678144993    -14.8636710603     -0.7247702550
 H     36.2208372804    -13.8664025789      0.5928540378
 H     37.1356866427    -15.0330079949     -0.3418458273
 O     36.5189954030    -19.9699870229     13.1076935704
 H     36.8555421960    -20.8459012817     12.9557806113
 H     36.8555912227    -19.6893910645     13.9688976379
 O     26.3463248151    -27.4407139294      5.5553648325
 H     27.2409791144    -27.6169626363      5.8573933230
 H     26.4777880372    -26.9884674000      4.7404745611
 O     33.7035652325     -7.4045421471     -0.7955086202
 H     33.2281605469     -7.1474823639      0.0226550664
 H     34.5059125310     -6.9253644148     -0.7707871630
 O     37.7483377557    -30.6407584581      0.7537775129
 H     37.2349763816    -29.8289575273      0.6661413398
 H     38.6429121165    -30.3503173965      0.5579880204
 O     20.9948356558    -19.7382625922      0.9019340431
 H     21.4509633900    -20.5663432053      0.8312528900
 H     20.8321036358    -19.6427248164      1.8433679555
 O     41.7181129371    -16.5881772813     -0.6179437532
 H     41.8526582706    -17.3553733264     -0.0301984212
 H     41.0894957492    -16.9690062315     -1.2507795038
 O     28.2671511551    -30.9879026115     -2.4077681362
 H     27.9990749282    -31.9237848037     -2.4427060625
 H     28.0967615219    -30.7206848056     -1.5289953006
 O     23.5198832733     -7.8728108290     -2.7257129778
 H     23.7262253674     -7.1622229941     -2.0967756828
 H     23.1163831970     -7.4754542625     -3.4843664378
 O     42.0674846765    -23.0365371984     -5.5522666725
 H     42.9756758817    -23.0039600920     -5.2769131816
 H     42.0587465690    -23.7636680790     -6.1858879108
 O     28.7609587541    -20.2502268047    -13.2624153827
 H     28.2458627464    -21.0404576812    -13.1497905135
 H     28.5170206956    -19.7067930307    -12.5268738851
89
# ORCA AIMD Position Step 900, t=450.00 fs, E_Pot=-6055003.48111740 kJ mol^-1, Unit is Angstrom
 C     24.8555662491    -16.4816887331      0.3123054144
 C     25.1692072168    -17.1145686684      1.6031720850
 C     25.9917406199    -18.4157207815      1.7438621340
 N     26.6586875016    -18.8914052487      0.6388295751
 C     26.3308823889    -18.2668364166     -0.7623019926
 C     26.0292560339    -16.7570199201     -0.5961688981
 C     27.6806805434    -19.9258596859      0.5673550437
 C     28.6440283478    -20.0615275282      1.5510680894
 C     29.7723986118    -20.7881107849      1.3530050717
 C     29.9469513128    -21.5149419844      0.1843218161
 C     28.9199815005    -21.5057477698     -0.7408310145
 C     27.7659389782    -20.7344464249     -0.5700070480
 N     31.2624946409    -22.0147924781     -0.0877624584
 C     31.4412874554    -23.3767014782     -0.7716302193
 C     32.7681796519    -24.0598744928     -0.4162927071
 C     33.8288526781    -23.0258605515     -0.5347913939
 C     33.6105779417    -21.7240956945     -0.2076440360
 C     32.3169709549    -21.0733110001     -0.1560391399
 O     26.1240707295    -18.8921402758      2.8648032657
 O     32.1617816120    -19.8639492241     -0.1369520249
 C     35.2029308407    -23.1148703264     -0.8820163182
 N     35.7931320964    -21.9120711955     -0.6173974293
 N     34.8130496451    -21.0809078601     -0.2469989285
 C     35.1501921709    -19.7489751701      0.1369824152
 C     35.9695122487    -24.3384542460     -1.1677664785
 N     37.2859951664    -24.0831532781     -1.2244244466
 O     35.4169879157    -25.3877243820     -1.4472218800
 C     34.6710716008    -19.1810545507      1.3337130346
 C     34.9554408521    -17.8747155869      1.6844782176
 C     35.6500421232    -17.0890560685      0.7505816049
 C     36.1329317232    -17.6508740323     -0.4547628017
 C     35.8800233182    -18.9450353496     -0.7708271423
 O     35.8212547851    -15.7977535362      1.0657458624
 C     36.1210336796    -14.8482288066      0.0668257366
 H     24.0131233707    -17.0071014422     -0.1552935750
 H     24.5852175735    -15.4256347877      0.4906429228
 H     25.7180042482    -16.4805035716      2.2322837556
 H     24.2305973808    -17.3488069589      2.2003967676
 H     27.2060000612    -18.4594288599     -1.4235636015
 H     25.5042909640    -18.8012092062     -1.2176596776
 H     26.9204265015    -16.2310099439     -0.2002292920
 H     25.8804538193    -16.3308403881     -1.6195178104
 H     28.4792371130    -19.5953286320      2.5021562185
 H     30.4356798714    -20.9227826627      2.1591632445
 H     29.0062155453    -22.1555714885     -1.6278216765
 H     26.9965124004    -20.7860409026     -1.3191969492
 H     30.5198776853    -23.9622391276     -0.5356516769
 H     31.2712387743    -23.1793846613     -1.8391517483
 H     32.7175440000    -24.4363105308      0.6254595295
 H     32.9798595908    -24.8629825266     -1.0748066614
 H     37.5757407418    -23.1801324762     -0.9165206179
 H     37.9626420135    -24.8387213154     -1.4202834399
 H     34.1395421126    -19.8736315996      1.9967842809
 H     34.5906154796    -17.4579376453      2.6119909997
 H     36.7205906584    -17.0715449987     -1.1645754425
 H     36.2123376580    -19.3684929880     -1.7256250550
 H     35.3363115277    -14.8992173587     -0.7192342582
 H     36.1578426028    -13.8969067351      0.5508618823
 H     37.1227273133    -15.1343081620     -0.3354087518
 O     36.5204225515    -19.9600607816     13.1276330619
 H     36.7495319251    -20.8981070770     12.9126347507
 H     36.8258214455    -19.8278648806     14.0235000416
 O     26.3610080398    -27.4574553568      5.5187327589
 H     27.2451624502    -27.6804702663      5.8377657755
 H     26.5428984772    -26.9017202606      4.7114505682
 O     33.7117481568     -7.3875684338     -0.8703311551
 H     33.2913479690     -7.1828021103     -0.0575777643
 H     34.5553418455     -6.8753226941     -0.8471096789
 O     37.7337625268    -30.6491200678      0.7239650971
 H     37.2290459916    -29.8502525564      0.5543161147
 H     38.6370328129    -30.3700480778      0.5502073008
 O     20.9849756272    -19.7587467555      0.9104155343
 H     21.5150502629    -20.5728068533      0.7887699902
 H     20.7909262104    -19.8529315688      1.8506746113
 O     41.7111796242    -16.6374830510     -0.6224161659
 H     41.8079596936    -17.2078515087      0.1536181275
 H     41.0643860591    -17.0183333718     -1.2240239454
 O     28.2687158275    -30.9813370804     -2.3921280550
 H     28.0115900437    -31.8810690783     -2.4806707039
 H     28.0475343373    -30.7508147079     -1.4530932698
 O     23.4940455217     -7.8474001712     -2.6907904437
 H     23.6006744082     -7.2268351163     -1.9666799113
 H     23.1108211896     -7.3978760568     -3.4531729087
 O     42.0886933072    -23.0340303275     -5.5206294813
 H     43.0269373059    -22.9746572717     -5.2577477011
 H     42.0364062735    -23.8434205632     -6.0277678139
 O     28.7811973007    -20.2361742660    -13.2816213141
 H     28.2448736852    -21.0338287941    -13.1188921315
 H     28.6333449849    -19.6039086052    -12.5446797354
89
# ORCA AIMD Position Step 910, t=455.00 fs, E_Pot=-6055006.19585532 kJ mol^-1, Unit is Angstrom
 C     24.8643450811    -16.5002091990      0.3019444667
 C     25.1516807329    -17.1203776453      1.5962823204
 C     25.9907769638    -18.3995742101      1.7770920043
 N     26.6683705581    -18.8764373132      0.6342696138
 C     26.3372371326    -18.2641486029     -0.7248823812
 C     26.0361090042    -16.7315285101     -0.6136779010
 C     27.6935840878    -19.8884055889      0.5442888341
 C     28.6342093436    -20.0566743693      1.5538614198
 C     29.7656712323    -20.7908484145      1.4006337364
 C     29.9537464012    -21.5158325817      0.1783723946
 C     28.9221307645    -21.5009713369     -0.7674339967
 C     27.7799508384    -20.7392451321     -0.5425116797
 N     31.2842298249    -22.0527589327     -0.0798402052
 C     31.4162268538    -23.3797832121     -0.7520107161
 C     32.7608821249    -24.0318163086     -0.4057447678
 C     33.8451865579    -23.0378241304     -0.5198543787
 C     33.6149370368    -21.7224604103     -0.1948285894
 C     32.2748684243    -21.0793593944     -0.1248473704
 O     26.1285965554    -18.9159272715      2.8690233624
 O     32.1490426855    -19.8716526657     -0.1200954552
 C     35.1868572547    -23.1086635596     -0.8712457226
 N     35.7815556089    -21.9199280206     -0.6257369855
 N     34.8145605026    -21.0715908758     -0.2391952023
 C     35.1419583223    -19.7296466607      0.1178902056
 C     35.9603313467    -24.3359622803     -1.1927970825
 N     37.2997275918    -24.0641771785     -1.2329711674
 O     35.4273177769    -25.4028116188     -1.4313393918
 C     34.6684580891    -19.2026154412      1.3335948864
 C     34.9574911334    -17.8886605907      1.6594089645
 C     35.6556699709    -17.0694646707      0.7295850500
 C     36.1507687409    -17.6393629280     -0.4656108954
 C     35.8869622177    -18.9582261587     -0.7951327916
 O     35.8029573813    -15.7914624266      1.0499970847
 C     36.1162073786    -14.8744038334      0.0731407818
 H     24.0148602918    -16.9949036074     -0.1967620076
 H     24.6409583496    -15.4469334166      0.4387968292
 H     25.7636024534    -16.3869738895      2.2997167616
 H     24.2502218500    -17.3284392478      2.2060915783
 H     27.1997823468    -18.3815312292     -1.3546238884
 H     25.5036053543    -18.8516851500     -1.2166397187
 H     26.9458755147    -16.2727514570     -0.2372337211
 H     25.8085698863    -16.3786956754     -1.6153036620
 H     28.4237456953    -19.4450801309      2.4398557587
 H     30.5857233972    -20.8634766015      2.1663012632
 H     28.9886830416    -22.1080870096     -1.6458717082
 H     27.0406752613    -20.7109138269     -1.3509786266
 H     30.6133864804    -24.0602449979     -0.5084750221
 H     31.2694789143    -23.2379024238     -1.8561187925
 H     32.6963381501    -24.3537313272      0.6361395600
 H     33.0007687229    -24.9306456655     -1.0494466171
 H     37.5830056763    -23.1064144434     -0.9052727123
 H     37.9525766737    -24.7604543628     -1.4035608932
 H     34.0728739815    -19.7902984057      2.0195627536
 H     34.5797981386    -17.4697043166      2.5928224307
 H     36.7014345573    -17.0472982175     -1.1797922317
 H     36.2411643324    -19.3486660130     -1.7377096536
 H     35.3709876126    -14.8816236569     -0.7123146675
 H     36.0888565215    -13.8559458986      0.5230689829
 H     37.0586695227    -15.1018015261     -0.3907498931
 O     36.5221144755    -19.9551889297     13.1450455973
 H     36.6334496951    -20.8538237317     12.9092492275
 H     36.8024659052    -19.9824717171     14.0770410886
 O     26.3788180232    -27.4700557818      5.4760080794
 H     27.2294120724    -27.7405119943      5.8182545327
 H     26.5769604922    -26.8825818510      4.7817639937
 O     33.7264638980     -7.3695477352     -0.9496948140
 H     33.3234961176     -7.1968436695     -0.0641236639
 H     34.5314057169     -6.8647082469     -0.9190792531
 O     37.7198651330    -30.6558225779      0.6940584321
 H     37.2020267839    -29.8786925087      0.4425828660
 H     38.6405289857    -30.4069824877      0.5452780151
 O     20.9793979461    -19.7872867652      0.9244516707
 H     21.5586451788    -20.5086999544      0.6767258771
 H     20.7100312235    -20.0004198624      1.8394683970
 O     41.7080989060    -16.6819745569     -0.6246568501
 H     41.7021684214    -17.0775182674      0.2431007740
 H     41.0375651808    -17.1248247150     -1.1390301331
 O     28.2704581709    -30.9679566362     -2.3704368644
 H     28.0016263986    -31.9112522353     -2.5200427050
 H     28.0175957396    -30.8165884841     -1.4728993229
 O     23.4705396731     -7.8322054389     -2.6541601870
 H     23.4423314724     -7.2396604456     -1.8976256858
 H     23.1033616614     -7.2119887214     -3.3910987974
 O     42.1125031397    -23.0308095327     -5.4882036480
 H     43.0316526974    -22.9530607380     -5.2568283316
 H     42.0175752734    -23.9267662729     -5.8658373191
 O     28.8028305413    -20.2207303796    -13.3018001889
 H     28.2531339310    -20.9487809287    -13.0382781529
 H     28.7164438825    -19.6029728245    -12.5955726715
89
# ORCA AIMD Position Step 920, t=460.00 fs, E_Pot=-6054990.10249083 kJ mol^-1, Unit is Angstrom
 C     24.8690774011    -16.5242226949      0.2679351795
 C     25.1514427753    -17.1305179637      1.6499988727
 C     26.0061222763    -18.3917408167      1.7860816659
 N     26.6737298921    -18.8527739245      0.6079856207
 C     26.3357392536    -18.2541789968     -0.6721878433
 C     26.0495097208    -16.7299232218     -0.6380333267
 C     27.6883883822    -19.8531399918      0.5347005715
 C     28.6135247776    -20.0221266483      1.5776181790
 C     29.7781492254    -20.8206802815      1.4278724518
 C     29.9665572871    -21.5047642955      0.1801719803
 C     28.9329447010    -21.5034101309     -0.7801006535
 C     27.7926680282    -20.7391738664     -0.5356101595
 N     31.2753884674    -22.0865780904     -0.0654191045
 C     31.3960958517    -23.3769246245     -0.7460426075
 C     32.7473915436    -24.0139791283     -0.4066109512
 C     33.8516482964    -23.0501100147     -0.5093467473
 C     33.6102999836    -21.7077369361     -0.1810382642
 C     32.2610704104    -21.1051589943     -0.0944187028
 O     26.1316200802    -18.9396393812      2.8747662778
 O     32.1266387969    -19.8773037829     -0.0993810211
 C     35.1729370893    -23.1004789882     -0.8402468928
 N     35.7755261900    -21.9242575265     -0.6389245882
 N     34.8219941978    -21.0707095736     -0.2366395256
 C     35.1315055771    -19.7096621649      0.0908386049
 C     35.9623640651    -24.3128994543     -1.2226398427
 N     37.3059624998    -24.0358041114     -1.2368617713
 O     35.4375860065    -25.4240398180     -1.4150572647
 C     34.6766257779    -19.2212019988      1.3232851039
 C     34.9617469460    -17.8974725649      1.6221645762
 C     35.6571833395    -17.0825996817      0.7040521951
 C     36.1644310163    -17.6198030323     -0.4718638145
 C     35.8845101425    -18.9755139334     -0.7982261063
 O     35.7798381319    -15.7819661721      1.0605134927
 C     36.1112228962    -14.8802847871      0.0597999596
 H     23.9651590625    -16.9366385966     -0.1857363208
 H     24.6703876583    -15.4367622510      0.3548076218
 H     25.6702355454    -16.4300095210      2.1818381773
 H     24.2298130617    -17.2901880299      2.2062917869
 H     27.2628666212    -18.3302048524     -1.3039008741
 H     25.5424450396    -18.7919556347     -1.1423500557
 H     26.9953602636    -16.2544803658     -0.2847520839
 H     25.7794135081    -16.3912082030     -1.6525014768
 H     28.4664414275    -19.3531672695      2.4103592487
 H     30.5938363563    -20.7540576621      2.0990176434
 H     28.9897612770    -22.0631427966     -1.7322797512
 H     27.0765269719    -20.6484878335     -1.3334439387
 H     30.6488313147    -24.1037647434     -0.3442030518
 H     31.3757310634    -23.2887817109     -1.8224428409
 H     32.6994257498    -24.3150998465      0.6583602576
 H     32.9335933222    -24.9025310485     -0.9460232768
 H     37.6095701694    -23.1638847413     -0.9526251553
 H     38.0332705456    -24.7877551331     -1.4060507116
 H     34.0180331099    -19.7447129931      2.0157071442
 H     34.5962147043    -17.4559008489      2.5395729599
 H     36.6844742419    -16.9889280112     -1.1938670300
 H     36.2520404602    -19.3849495770     -1.7397096628
 H     35.3489122229    -14.8737772903     -0.7683650988
 H     36.0832377783    -13.9006630929      0.4953975185
 H     37.1136749726    -15.0059477845     -0.4525369341
 O     36.5258160650    -19.9493773948     13.1698180529
 H     36.5090860831    -20.8825543224     12.8278928177
 H     36.7555048548    -20.0789866539     14.0918233206
 O     26.3932506106    -27.4868831377      5.4379663875
 H     27.2365463538    -27.7999847691      5.8012908566
 H     26.6418124763    -26.7964337094      4.7749430969
 O     33.7370214177     -7.3511802463     -1.0230323384
 H     33.3806669940     -7.2357438211     -0.1539663786
 H     34.5488381433     -6.8349538120     -1.0036260556
 O     37.7053708712    -30.6626509218      0.6644030933
 H     37.2041750196    -29.9185379869      0.3312519923
 H     38.6222059202    -30.4289852501      0.5347390181
 O     20.9729983731    -19.8164587194      0.9413413989
 H     21.5959293388    -20.4501645877      0.5768869510
 H     20.6551563393    -20.1296055774      1.7712914484
 O     41.7079530934    -16.7228919346     -0.6277357840
 H     41.5596922623    -16.9647865768      0.3161889870
 H     40.9981207632    -17.2718041664     -1.0239904619
 O     28.2706187150    -30.9623592006     -2.3525529380
 H     28.0249416139    -31.8444916037     -2.5573684422
 H     27.9790444965    -30.8554973689     -1.4340094214
 O     23.4417399713     -7.8039731161     -2.6248405933
 H     23.2995578605     -7.2891161249     -1.8135655308
 H     23.1641704685     -7.1965651464     -3.2277185933
 O     42.1322865322    -23.0305737061     -5.4573281930
 H     43.0734964175    -22.9470370900     -5.2548268393
 H     42.0254144540    -23.9471355833     -5.6793437498
 O     28.8260271654    -20.2064589385    -13.3254658339
 H     28.2415899774    -20.8941589190    -12.9530926172
 H     28.7947176720    -19.5529127032    -12.5958725487
89
# ORCA AIMD Position Step 930, t=465.00 fs, E_Pot=-6054973.21003413 kJ mol^-1, Unit is Angstrom
 C     24.8711417952    -16.5368608483      0.2400319277
 C     25.1451922920    -17.1498528224      1.6904082378
 C     26.0326483978    -18.4014514668      1.7821411452
 N     26.6729307704    -18.8205686188      0.5963619128
 C     26.3560937178    -18.2244721100     -0.6418970559
 C     26.0643164770    -16.7518914954     -0.6599701571
 C     27.6832924510    -19.8362686069      0.5514910440
 C     28.6100881884    -19.9816444681      1.5987041636
 C     29.7642456823    -20.8438477614      1.4168982037
 C     29.9728425131    -21.4939041446      0.1916573765
 C     28.9502466960    -21.5073573912     -0.7776288579
 C     27.8057774155    -20.7258308592     -0.5472024443
 N     31.2404197054    -22.0966610066     -0.0437574983
 C     31.3928686244    -23.3872851551     -0.7300679568
 C     32.7294295782    -24.0012535972     -0.3894107734
 C     33.8296572925    -23.0390821270     -0.4976297957
 C     33.6044688301    -21.7015531752     -0.1692857720
 C     32.2796771654    -21.1271665978     -0.0706532533
 O     26.1352380151    -18.9595780651      2.8723980663
 O     32.0951754302    -19.8976126648     -0.0732453796
 C     35.1794712664    -23.1097016530     -0.8096160686
 N     35.7765508832    -21.9151509112     -0.6515185393
 N     34.8263102736    -21.0756852156     -0.2415862871
 C     35.1161058578    -19.7125597849      0.0670281050
 C     35.9681325476    -24.2971329185     -1.2448277452
 N     37.3123583101    -24.0331415321     -1.2490338921
 O     35.4576813990    -25.4271835529     -1.3981994163
 C     34.6884065249    -19.2184082711      1.3061146053
 C     34.9656367276    -17.9060301210      1.5803560178
 C     35.6561904558    -17.1075336092      0.6849993100
 C     36.1715578585    -17.6139237273     -0.4882985760
 C     35.8877535416    -18.9667837083     -0.7917562573
 O     35.7583414418    -15.7776970464      1.0795175052
 C     36.1079434137    -14.8677106842      0.0148983209
 H     23.9249586091    -16.9331120356     -0.1798728372
 H     24.6829019217    -15.4696487215      0.3250184721
 H     25.7420456074    -16.2850760192      2.2561622123
 H     24.1573396517    -17.3063800156      2.2538807525
 H     27.2205008203    -18.3564137277     -1.2475336919
 H     25.4793282742    -18.7636108269     -1.1405420732
 H     26.9367622978    -16.1915828250     -0.3520924238
 H     25.8388472175    -16.4133128778     -1.6833402182
 H     28.5843384290    -19.3138448892      2.4660484269
 H     30.6130068947    -20.6723947302      2.1287031317
 H     29.0329218811    -21.9849713656     -1.7320191564
 H     27.0590095543    -20.6405996875     -1.3440864609
 H     30.6438659181    -24.0054342980     -0.2722337694
 H     31.3644133160    -23.2977294191     -1.8577413914
 H     32.7110008074    -24.3003795216      0.6658846805
 H     32.8651027405    -24.9690590741     -0.9584659487
 H     37.6788470049    -23.0701560732     -0.9709793257
 H     37.9496923477    -24.7287523321     -1.3932289219
 H     34.0279144086    -19.7886015669      1.9483675141
 H     34.6145639440    -17.4228634431      2.4903697504
 H     36.6700586447    -16.9685938140     -1.1903003669
 H     36.2290518107    -19.4444600278     -1.7050678964
 H     35.3688978974    -14.9049444053     -0.7596224238
 H     36.1000719331    -13.8818688636      0.5244733003
 H     37.0978157259    -14.9544040784     -0.3772974583
 O     36.5302551799    -19.9535158273     13.1932469113
 H     36.3729511920    -20.7820616516     12.7604043139
 H     36.7080065464    -20.1469803235     14.1158919534
 O     26.4094554720    -27.5010567218      5.3962097015
 H     27.2225786223    -27.8360615502      5.7610329613
 H     26.7012961485    -26.7765665064      4.8466671653
 O     33.7490135454     -7.3332106338     -1.0992026472
 H     33.4085164049     -7.2700571473     -0.1959083760
 H     34.5744926407     -6.8021410602     -1.0985368812
 O     37.6891052237    -30.6719290658      0.6357982090
 H     37.2161288153    -29.9419879918      0.2102069642
 H     38.6185849110    -30.4276713331      0.5129766375
 O     20.9656788892    -19.8378829844      0.9521462423
 H     21.6197609731    -20.4314191543      0.5451573357
 H     20.6337802975    -20.3421851878      1.7326307767
 O     41.6976856336    -16.7726965389     -0.6223440570
 H     41.4996932298    -16.7781186815      0.3082139187
 H     41.0326002319    -17.3567352951     -0.9608395846
 O     28.2714165470    -30.9520597063     -2.3318343873
 H     28.0313087199    -31.8547523043     -2.6213621984
 H     27.9468148265    -30.8910320181     -1.4115600118
 O     23.4145343547     -7.7787152189     -2.5811670665
 H     23.1879199974     -7.4232122092     -1.7155856032
 H     23.1654528794     -7.0472385586     -3.3019706928
 O     42.1531533860    -23.0286414015     -5.4252089716
 H     43.1032085936    -22.9408767733     -5.2599166088
 H     42.0299508346    -23.9946588251     -5.5008862236
 O     28.8440405451    -20.1920187970    -13.3396941568
 H     28.2676723559    -20.8409550423    -12.9382816694
 H     28.9201527329    -19.5022431090    -12.6773307424
89
# ORCA AIMD Position Step 940, t=470.00 fs, E_Pot=-6054982.03075367 kJ mol^-1, Unit is Angstrom
 C     24.8669141599    -16.5457681056      0.2359211936
 C     25.1460841309    -17.1375886286      1.7166087235
 C     26.0520696195    -18.4154847339      1.7813533073
 N     26.6759853947    -18.7933329387      0.6198510074
 C     26.3680677825    -18.1984415145     -0.6582517647
 C     26.0672002912    -16.7744135129     -0.6756323741
 C     27.6830177084    -19.8388239524      0.5860175011
 C     28.6374831711    -19.9539090171      1.6064704463
 C     29.7272396838    -20.8292717393      1.4015506131
 C     29.9638588900    -21.4935166564      0.2045286347
 C     28.9596805152    -21.4944151677     -0.7552036229
 C     27.8192869926    -20.6967758616     -0.5646427727
 N     31.2170807761    -22.0802052295     -0.0198748321
 C     31.3953098513    -23.3905011621     -0.7128614217
 C     32.7118043813    -24.0161348427     -0.3647559846
 C     33.8025677948    -23.0159691597     -0.4893275556
 C     33.6073087804    -21.7115431883     -0.1615439185
 C     32.2940130850    -21.1300800908     -0.0518013312
 O     26.1437535652    -18.9782994628      2.8581759891
 O     32.0621984500    -19.9364994002     -0.0414625038
 C     35.1922985512    -23.1259237975     -0.7873522700
 N     35.7801348487    -21.9022905356     -0.6609372541
 N     34.8228488932    -21.0788982225     -0.2539118441
 C     35.1034010606    -19.7289332959      0.0542291137
 C     35.9751820106    -24.2962615816     -1.2458134358
 N     37.3121970417    -24.0161037943     -1.2620095854
 O     35.4883034246    -25.4079654896     -1.3836551637
 C     34.6949285920    -19.2116004108      1.2761604861
 C     34.9630508555    -17.9102942229      1.5534890541
 C     35.6585222301    -17.1101367400      0.6747537810
 C     36.1711597393    -17.6247388361     -0.5133383107
 C     35.8953800255    -18.9452186183     -0.7883076519
 O     35.7432265618    -15.7833388345      1.0846437347
 C     36.0996541561    -14.8390247613     -0.0056330092
 H     23.9737243724    -16.9968795984     -0.1854189866
 H     24.6720862607    -15.4656784481      0.3609386708
 H     25.6606440024    -16.4250987507      2.2470334309
 H     24.2616260867    -17.3472280104      2.2383867758
 H     27.2430716304    -18.4538184704     -1.3305279180
 H     25.5244715389    -18.6794287802     -1.1028347600
 H     26.9041784682    -16.1014573952     -0.3456229051
 H     25.9067348590    -16.4848459340     -1.7142364975
 H     28.6735514351    -19.3434188750      2.5001624189
 H     30.5148247609    -20.7209174469      2.1009418348
 H     29.1219323986    -21.9721456223     -1.7386589409
 H     27.0622469328    -20.6837887140     -1.3359777770
 H     30.5242820958    -23.9817743696     -0.3324707169
 H     31.2273007832    -23.2936923605     -1.7719058786
 H     32.7038956200    -24.3210515870      0.6947553024
 H     32.8331213293    -24.8864081401     -0.9535419688
 H     37.6372694349    -23.1435374166     -1.0524565226
 H     37.9653614193    -24.8361951019     -1.4293218419
 H     34.0895356111    -19.8696944807      1.8929123116
 H     34.6200470192    -17.4152283577      2.4487318711
 H     36.7001435545    -16.9840321342     -1.2194113240
 H     36.2196610372    -19.4617851035     -1.6851119699
 H     35.3438188922    -14.9346271249     -0.8300587657
 H     36.0668915206    -13.8827823220      0.4899502687
 H     37.1715973176    -15.0225434543     -0.3236990801
 O     36.5346621011    -19.9518231744     13.2156994839
 H     36.2448579923    -20.7299113979     12.7218535828
 H     36.6514453486    -20.2596298354     14.1310299565
 O     26.4251246125    -27.5152072849      5.3540481744
 H     27.2318606655    -27.8948690385      5.7425755959
 H     26.7501110151    -26.7370644859      4.8940459477
 O     33.7633161742     -7.3134525896     -1.1766706298
 H     33.4613156754     -7.2979748779     -0.2536878953
 H     34.5421852042     -6.8004540501     -1.1754414889
 O     37.6738513676    -30.6782733633      0.6051204584
 H     37.2251274991    -29.9936807322      0.1027285730
 H     38.5960832294    -30.4451572579      0.5016199135
 O     20.9573742230    -19.8639003754      0.9670008145
 H     21.6178074233    -20.3959901082      0.5416693036
 H     20.6578605924    -20.5029891693      1.6033376293
 O     41.6867613734    -16.8230256712     -0.6137116716
 H     41.4697316498    -16.5659320013      0.3072710484
 H     41.0415238705    -17.4695805434     -0.9532626154
 O     28.2706670532    -30.9439304767     -2.3094083363
 H     28.0469923424    -31.8126707456     -2.6578480230
 H     27.9292377346    -30.9424216591     -1.4394726237
 O     23.3843460384     -7.7446929604     -2.5493284191
 H     23.0659147986     -7.5126498548     -1.6816006616
 H     23.2169310763     -7.0762109556     -3.1144149952
 O     42.1758598924    -23.0315720618     -5.3926362372
 H     43.1107159604    -22.9253275764     -5.2679504055
 H     42.0321990754    -23.9745652688     -5.3165544959
 O     28.8634054673    -20.1762872443    -13.3549198132
 H     28.2830846903    -20.8019284523    -12.9156024288
 H     29.0408867270    -19.4533004354    -12.7549550970
89
# ORCA AIMD Position Step 950, t=475.00 fs, E_Pot=-6054982.06781709 kJ mol^-1, Unit is Angstrom
 C     24.8637660612    -16.5517287316      0.2599772239
 C     25.1616351398    -17.1382317571      1.6875317617
 C     26.0485186682    -18.4115071782      1.7835664097
 N     26.6964972586    -18.7834538017      0.6529360350
 C     26.4018509804    -18.1974718901     -0.7031774084
 C     26.0705507156    -16.7622685412     -0.6764989303
 C     27.6817624377    -19.8498077289      0.6159320188
 C     28.6765185198    -19.9408333839      1.5982033904
 C     29.6837889777    -20.7896078951      1.3879176479
 C     29.9379821676    -21.4987299227      0.2181028609
 C     28.9595007538    -21.4692252564     -0.7377722099
 C     27.8348569157    -20.6556571465     -0.5646692022
 N     31.2254783759    -22.0573693095      0.0033190562
 C     31.3636171217    -23.3834832632     -0.6756284353
 C     32.6942146524    -24.0311829522     -0.3307159362
 C     33.7978372364    -23.0179535948     -0.4876577369
 C     33.6136084612    -21.7199212582     -0.1555432228
 C     32.2813194628    -21.1357836821     -0.0342052747
 O     26.1590039479    -19.0018398343      2.8426727463
 O     32.0325178696    -19.9670298648     -0.0042303707
 C     35.1911985741    -23.1249996412     -0.7728132097
 N     35.7809530105    -21.9023810809     -0.6673493823
 N     34.8140848521    -21.0773924255     -0.2729561436
 C     35.1072094431    -19.7350373435      0.0440544568
 C     35.9912454659    -24.2868401477     -1.2186472124
 N     37.3134141079    -24.0306111943     -1.2879574757
 O     35.5180657985    -25.3893833149     -1.3752640341
 C     34.6897313682    -19.2226779383      1.2378241904
 C     34.9551948914    -17.9040077422      1.5447172956
 C     35.6639734085    -17.0868386568      0.6657702153
 C     36.1686923924    -17.6283160141     -0.5365012570
 C     35.8957111273    -18.9472461607     -0.7956040658
 O     35.7344966280    -15.7902924785      1.0664662337
 C     36.0947185311    -14.8289415198     -0.0062480651
 H     24.0026229542    -17.0931212204     -0.1932235882
 H     24.6321992895    -15.4958276523      0.3762775974
 H     25.7219515714    -16.3827577639      2.4028637163
 H     24.1957682862    -17.4355314310      2.2921922266
 H     27.1773735895    -18.4844432188     -1.3574195722
 H     25.4678301530    -18.7073438563     -1.1162219059
 H     26.8576403553    -16.1288834350     -0.3231100252
 H     25.8848277955    -16.5309336981     -1.7554465343
 H     28.6681028714    -19.3698796837      2.5197294162
 H     30.4911121179    -20.8598534936      2.1601084018
 H     29.1697260813    -21.9664206381     -1.6630927615
 H     27.0593369183    -20.7169225254     -1.3317274188
 H     30.5067623833    -23.9998522853     -0.4359270988
 H     31.1506211342    -23.2513804347     -1.7809627280
 H     32.6732032968    -24.3793755195      0.7086684715
 H     32.8912829276    -24.8993384459     -1.0255055918
 H     37.6704901549    -23.0483551747     -1.1021515487
 H     37.8997955381    -24.7854553982     -1.4545816630
 H     34.1639130836    -19.8906005148      1.9151708231
 H     34.5914654495    -17.4407400018      2.4602726175
 H     36.7418270430    -17.0579019267     -1.2462902613
 H     36.2594240575    -19.4021071805     -1.7182518588
 H     35.4330372409    -14.9354596585     -0.8451793257
 H     35.9938066889    -13.8181836793      0.4260998101
 H     37.0883279418    -15.0757096720     -0.2918981822
 O     36.5397620316    -19.9512839549     13.2403311144
 H     36.1127801244    -20.6582585183     12.7112351868
 H     36.5852221199    -20.3742308829     14.0913760492
 O     26.4442391944    -27.5307754824      5.3111196413
 H     27.2022677791    -27.9500738684      5.7150595105
 H     26.7901207193    -26.6837741719      4.9473879496
 O     33.7717768448     -7.2974853972     -1.2544651860
 H     33.5254212629     -7.3206055829     -0.3412389953
 H     34.5973532610     -6.7374493050     -1.2489572417
 O     37.6580512104    -30.6835550520      0.5728284475
 H     37.2114258217    -30.0524214495     -0.0019380193
 H     38.5967202654    -30.4746805770      0.4986015238
 O     20.9499297554    -19.8957944349      0.9831176002
 H     21.6743778896    -20.3164777567      0.4607462453
 H     20.6121102620    -20.6246001262      1.5343442492
 O     41.6796117284    -16.8715089088     -0.6048987151
 H     41.3813306502    -16.4408942910      0.1909917327
 H     41.0412595563    -17.5421937254     -0.8287450727
 O     28.2726500294    -30.9345310025     -2.2927598025
 H     28.0594658622    -31.7749222282     -2.6855976778
 H     27.8708216987    -31.0063229534     -1.3773489357
 O     23.3612705522     -7.7294112137     -2.5080933953
 H     22.9032652971     -7.5336567413     -1.6570925293
 H     23.1833311801     -6.8666079063     -3.0495371426
 O     42.1958727758    -23.0344591285     -5.3590924582
 H     43.1641468426    -22.9068662336     -5.2718042238
 H     42.0396397642    -23.9583226382     -5.1351580061
 O     28.8851145617    -20.1615899245    -13.3772313999
 H     28.3005398488    -20.7180893789    -12.8356732784
 H     29.1327325769    -19.4248963209    -12.7843571112
89
# ORCA AIMD Position Step 960, t=480.00 fs, E_Pot=-6055005.84364059 kJ mol^-1, Unit is Angstrom
 C     24.8639195045    -16.5693803268      0.2928466981
 C     25.1768049545    -17.1424529206      1.6718357306
 C     26.0314284577    -18.3929087809      1.7854243172
 N     26.7351835032    -18.7884893214      0.6585622269
 C     26.4122261034    -18.2258884251     -0.7335097792
 C     26.0641980985    -16.7336893192     -0.6746691909
 C     27.6781593913    -19.8552152790      0.6258641352
 C     28.6841627637    -19.9173637846      1.5901831011
 C     29.6981111499    -20.7712191204      1.3935936222
 C     29.9106104652    -21.4980775361      0.2367356236
 C     28.9540954980    -21.4365997058     -0.7291601251
 C     27.8422577283    -20.6116910374     -0.5446022395
 N     31.2384721907    -22.0541748582      0.0287127430
 C     31.3155304344    -23.3627616139     -0.6472197031
 C     32.6823652753    -24.0502360682     -0.3160146110
 C     33.8113785324    -23.0527996684     -0.4818644544
 C     33.6106320372    -21.7188803397     -0.1523952075
 C     32.2556602927    -21.1595254451     -0.0164069330
 O     26.1761465506    -19.0274159103      2.8311660315
 O     32.0069284705    -19.9652731429      0.0383595739
 C     35.1808970909    -23.1089444141     -0.7670848440
 N     35.7749490143    -21.9157974012     -0.6701228032
 N     34.8055166508    -21.0722562697     -0.2977274798
 C     35.1270320194    -19.7344996932      0.0223513789
 C     36.0107236433    -24.2634164508     -1.1709590591
 N     37.3198655678    -24.0264810145     -1.3152767761
 O     35.5386942271    -25.3847527070     -1.3718537673
 C     34.6767049933    -19.2318634716      1.2149138571
 C     34.9447366760    -17.8959070831      1.5425188738
 C     35.6632445691    -17.0629410678      0.6529188276
 C     36.1628118293    -17.6226178296     -0.5439567696
 C     35.8926012489    -18.9697411314     -0.8205976547
 O     35.7295534943    -15.7826868427      1.0312182350
 C     36.0834827701    -14.8342021695      0.0180192461
 H     24.0430601167    -17.1282945458     -0.1342512974
 H     24.5432583645    -15.5157178891      0.3541539153
 H     25.6561451070    -16.4620902315      2.3462964977
 H     24.3246679466    -17.4185304262      2.1621318500
 H     27.2655054768    -18.4748029145     -1.4376451728
 H     25.5275970322    -18.7323189158     -1.0871541952
 H     26.9487769615    -16.1434104064     -0.3028112525
 H     25.7969512701    -16.4759758381     -1.6835066245
 H     28.5887702173    -19.3694569312      2.5207042678
 H     30.3947800053    -20.9691113687      2.1692194637
 H     29.1252885717    -21.9932004421     -1.6641738013
 H     27.0690293056    -20.6774153081     -1.2972166575
 H     30.4934878064    -24.0592044599     -0.3817055226
 H     31.2695738417    -23.1925981715     -1.7187400406
 H     32.6500879393    -24.4631058810      0.7044200769
 H     32.9171063608    -24.8492111200     -0.9829218017
 H     37.6783385077    -23.1311489421     -1.1891396719
 H     37.9588654878    -24.8148723598     -1.5218588184
 H     34.2108863140    -19.8517373282      1.9713743537
 H     34.5625910862    -17.4971773143      2.4747126719
 H     36.7907656301    -17.1073892058     -1.2783450607
 H     36.3015914220    -19.3262323791     -1.7536497599
 H     35.4615940918    -14.9569512184     -0.9084728644
 H     35.9556067543    -13.8183676576      0.3673836784
 H     37.1377425310    -15.0467833593     -0.3220246864
 O     36.5406786692    -19.9574757948     13.2627224811
 H     36.0202964319    -20.5068709201     12.6987509208
 H     36.5422482537    -20.4627371989     14.0994655483
 O     26.4637714417    -27.5422606475      5.2647826427
 H     27.1942313086    -28.0010173920      5.6906838294
 H     26.8113043800    -26.7066312853      5.0313268138
 O     33.7882652775     -7.2761894005     -1.3367313674
 H     33.5666446585     -7.3540228533     -0.3823959147
 H     34.5560003507     -6.7395494103     -1.3400598406
 O     37.6413712403    -30.6896153857      0.5400686663
 H     37.2184584387    -30.1133294990     -0.1058493513
 H     38.5803925821    -30.4931399135      0.4833019417
 O     20.9463791695    -19.9338210236      0.9980183222
 H     21.6540506277    -20.1911248203      0.4362805170
 H     20.5825196622    -20.7092845070      1.4319456936
 O     41.6767930750    -16.9186132171     -0.5985741363
 H     41.2516987329    -16.3581080066      0.0750883927
 H     41.0044009110    -17.6176700392     -0.6591014431
 O     28.2708931664    -30.9245551303     -2.2660672820
 H     28.0718333490    -31.7615524227     -2.7415584589
 H     27.8710764193    -31.0506313418     -1.4370766799
 O     23.3303857649     -7.6999891468     -2.4686732964
 H     22.7901240019     -7.5931169874     -1.7073160699
 H     23.2070367886     -6.8301713437     -2.8584406562
 O     42.2188412388    -23.0369184294     -5.3244440695
 H     43.1538503134    -22.9183919440     -5.2766184532
 H     42.0751894065    -23.9192069652     -4.9483478007
 O     28.9070023991    -20.1453480399    -13.3967465802
 H     28.3468626754    -20.6041371109    -12.7793808757
 H     29.2067136205    -19.4406295136    -12.8438342098
89
# ORCA AIMD Position Step 970, t=485.00 fs, E_Pot=-6054997.97138894 kJ mol^-1, Unit is Angstrom
 C     24.8767659331    -16.5879030237      0.3169090901
 C     25.2031173820    -17.1568591994      1.6512271401
 C     26.0341276159    -18.3927647834      1.7807787153
 N     26.7692240994    -18.7888045295      0.6321043039
 C     26.4252893606    -18.2525916820     -0.7432994679
 C     26.0613853271    -16.7135706055     -0.6541683044
 C     27.6812079133    -19.8420123147      0.6224535637
 C     28.6637469329    -19.8905802794      1.5929624233
 C     29.7446366063    -20.7744636628      1.4158975182
 C     29.9043182767    -21.4901661758      0.2550064500
 C     28.9440003485    -21.4066761982     -0.7381368319
 C     27.8411982203    -20.5817388905     -0.5196612027
 N     31.2194398222    -22.0796206480      0.0611468844
 C     31.2921331847    -23.3513294780     -0.6182565028
 C     32.6728837148    -24.0580384865     -0.3097125263
 C     33.8180515151    -23.0855103614     -0.4568805141
 C     33.5957052017    -21.7273358436     -0.1589095030
 C     32.2363937457    -21.1628687437      0.0032465333
 O     26.1866655487    -19.0429517749      2.8167040446
 O     31.9902209250    -19.9500841628      0.0849499884
 C     35.1787568485    -23.1062593910     -0.7699120042
 N     35.7628473718    -21.9251996698     -0.6689585204
 N     34.7977667410    -21.0686953931     -0.3258126565
 C     35.1449216536    -19.7413484032     -0.0040762425
 C     36.0204655514    -24.2582527450     -1.1260358987
 N     37.3411049473    -24.0257957121     -1.3451960866
 O     35.5534918340    -25.3789651927     -1.3651607773
 C     34.6695891673    -19.2147593517      1.2139702188
 C     34.9347846642    -17.8980829097      1.5314941751
 C     35.6488930372    -17.0615339100      0.6360759688
 C     36.1562412184    -17.6214428370     -0.5422563972
 C     35.8978240899    -18.9747016481     -0.8575003671
 O     35.7257488066    -15.7569008152      0.9940100991
 C     36.0832473708    -14.8539343060      0.0216620649
 H     24.0180785859    -17.1764064539     -0.0919146044
 H     24.4726294631    -15.5719623119      0.3531968448
 H     25.6673650344    -16.3816232899      2.3361754845
 H     24.1697054118    -17.4360216921      2.1714700111
 H     27.2657965038    -18.3842417561     -1.3772299308
 H     25.5474382177    -18.8311007721     -1.1266283202
 H     26.9569403565    -16.1997305346     -0.3632753735
 H     25.7098329459    -16.3100694536     -1.6526292966
 H     28.5021598985    -19.3513583748      2.5157849023
 H     30.4116023877    -20.9964333767      2.2758038667
 H     28.9985190885    -21.9690604455     -1.6524360609
 H     27.0595415088    -20.5683187023     -1.2742821737
 H     30.4984206053    -24.0037149015     -0.2734331106
 H     31.3857329280    -23.1556493961     -1.7169195080
 H     32.6606263861    -24.5112692502      0.6890862828
 H     32.8660037121    -24.9208051133     -0.9998306206
 H     37.7537212723    -23.0832657944     -1.2422920749
 H     37.9495586790    -24.7939333664     -1.6017226550
 H     34.1941620359    -19.8317735427      1.9747598795
 H     34.5574584259    -17.5220337155      2.4804593931
 H     36.7828220895    -17.1005033642     -1.2428473435
 H     36.3076715173    -19.3524652728     -1.7981846175
 H     35.4805541120    -14.9941454381     -0.8700935558
 H     35.9372593543    -13.8333928922      0.4044117757
 H     37.1258514800    -14.9111155952     -0.2888663174
 O     36.5423806875    -19.9669020608     13.2909626730
 H     35.9000106801    -20.3495966919     12.6377677663
 H     36.5108872927    -20.5068418235     14.0739955344
 O     26.4810424311    -27.5594059738      5.2178783721
 H     27.1911070515    -28.0487656256      5.6657395307
 H     26.8731931462    -26.6503566538      5.1035547539
 O     33.7997601842     -7.2577901444     -1.4165250325
 H     33.6179416811     -7.3863383756     -0.4965537206
 H     34.5921634799     -6.6876383433     -1.4414304236
 O     37.6229207624    -30.6970162474      0.5068879044
 H     37.2483969847    -30.1726983400     -0.2053681170
 H     38.5586484068    -30.4955134930      0.4508084611
 O     20.9367238245    -19.9646203939      1.0162374234
 H     21.6693447136    -20.1644242239      0.4007491984
 H     20.6146912613    -20.8257290411      1.2915773782
 O     41.6638130782    -16.9674293805     -0.5859628119
 H     41.2017556615    -16.2601512427     -0.1031092156
 H     41.0396297302    -17.7053323345     -0.5203560788
 O     28.2707006940    -30.9181415425     -2.2474112958
 H     28.1053813800    -31.6831469366     -2.7721812907
 H     27.8244900513    -31.0988442474     -1.3848402348
 O     23.2986088616     -7.6668781944     -2.4265798144
 H     22.6488359555     -7.7222967400     -1.6737539565
 H     23.2551175797     -6.7692032664     -2.7698532707
 O     42.2380628685    -23.0423558268     -5.2873474250
 H     43.2073500682    -22.9205814016     -5.2792105756
 H     42.1183604463    -23.8426195317     -4.7797896084
 O     28.9281492961    -20.1290879749    -13.4142106445
 H     28.3539381377    -20.5547892234    -12.7445245229
 H     29.3461727899    -19.3810952155    -12.9241701172
89
# ORCA AIMD Position Step 980, t=490.00 fs, E_Pot=-6054996.45924510 kJ mol^-1, Unit is Angstrom
 C     24.8887750560    -16.6114475503      0.3173130282
 C     25.1961709061    -17.1719095983      1.6715229603
 C     26.0684365525    -18.4212598271      1.7619006977
 N     26.7757669021    -18.7676842597      0.5928147209
 C     26.4179873277    -18.2555070887     -0.7321808619
 C     26.0427183944    -16.7190555864     -0.6424519205
 C     27.7010519933    -19.8077513735      0.6190530974
 C     28.6567062994    -19.8910060853      1.6103195212
 C     29.7736277094    -20.7690720776      1.4689594774
 C     29.9181719601    -21.4813072721      0.2643193272
 C     28.9281489563    -21.3763758991     -0.7439022079
 C     27.8334448210    -20.5751550034     -0.5134174427
 N     31.1781581009    -22.1087780367      0.1024403817
 C     31.3175461595    -23.3526861787     -0.5975584457
 C     32.6654729065    -24.0729004113     -0.3132304579
 C     33.8077554869    -23.0947925451     -0.4177748099
 C     33.5724145015    -21.7478625528     -0.1756339888
 C     32.2229459216    -21.1345062794      0.0261976426
 O     26.1886505870    -19.0456352527      2.7969684183
 O     31.9862081126    -19.9425496820      0.1329768338
 C     35.1865966104    -23.1304471484     -0.7710480343
 N     35.7498392096    -21.9218322878     -0.6673487921
 N     34.7848337987    -21.0733505330     -0.3527533930
 C     35.1477632203    -19.7442539630     -0.0182502174
 C     36.0331427476    -24.2764907657     -1.1063284513
 N     37.3689841065    -24.0108713175     -1.3704626556
 O     35.5633745028    -25.3691862313     -1.3493075682
 C     34.6753934640    -19.1926408810      1.2112124104
 C     34.9264635660    -17.8981166966      1.5163180755
 C     35.6226416818    -17.0761060263      0.6208813990
 C     36.1498243211    -17.6309927607     -0.5391540738
 C     35.9093789225    -18.9610301388     -0.8961333202
 O     35.7201245706    -15.7418219431      0.9726787164
 C     36.0921413732    -14.8517414505      0.0026508060
 H     24.0731332237    -17.2027654533     -0.0838997604
 H     24.4631242441    -15.6050514573      0.4176309035
 H     25.6845809575    -16.3605797601      2.3025947599
 H     24.3021752698    -17.3729839062      2.1210834271
 H     27.3491899261    -18.3171451420     -1.3655885192
 H     25.6292517126    -18.8710224956     -1.1977646949
 H     26.9852018737    -16.1767720561     -0.3607607604
 H     25.7352660460    -16.2383354843     -1.5400198400
 H     28.4812716044    -19.3204874650      2.5241730884
 H     30.4545184975    -20.9124715216      2.2867058656
 H     28.9084433764    -21.9508127835     -1.6787018894
 H     27.0680959716    -20.4627570547     -1.2710545387
 H     30.4463942275    -23.9357879543     -0.2520339681
 H     31.3078785808    -23.2005211010     -1.6818694906
 H     32.6900828841    -24.5076714864      0.6986291932
 H     32.7369439993    -24.9176444935     -0.9903006503
 H     37.7865412791    -23.0960208418     -1.2801125692
 H     37.9049260967    -24.7885269778     -1.6828695336
 H     34.1318122236    -19.8339142793      1.8930907941
 H     34.5827172943    -17.4876266989      2.4571746981
 H     36.7590900317    -17.0007368782     -1.2004880425
 H     36.2674183975    -19.4245028823     -1.8028962522
 H     35.4542561236    -15.0107634810     -0.8877848179
 H     35.8848949323    -13.8824321312      0.4674678040
 H     37.1753204874    -14.8112858836     -0.2360063111
 O     36.5417217289    -19.9747308243     13.3120261617
 H     35.8535443812    -20.1753717986     12.7048532171
 H     36.4399909384    -20.5941419918     14.0435595851
 O     26.5046613448    -27.5704286894      5.1701518111
 H     27.1565819588    -28.0871734938      5.6229087767
 H     26.8739479364    -26.7070241162      5.1884166505
 O     33.8137158680     -7.2378342332     -1.5027180189
 H     33.6722090188     -7.4140614164     -0.5609811848
 H     34.5934093227     -6.6571951685     -1.5285286490
 O     37.6042458303    -30.7038627269      0.4716683129
 H     37.2579149359    -30.2365596284     -0.3019832059
 H     38.5515393073    -30.5051819058      0.4314883973
 O     20.9285723281    -19.9970318866      1.0331047614
 H     21.6452244419    -20.1333624621      0.4042399633
 H     20.6631195135    -20.9340713859      1.1366399400
 O     41.6449607664    -17.0152767211     -0.5699978515
 H     41.2060240435    -16.2125427219     -0.3101356736
 H     41.1054201743    -17.7785600070     -0.4001802595
 O     28.2696688667    -30.9076416160     -2.2218110486
 H     28.1213319437    -31.6600046841     -2.8254849064
 H     27.8080852336    -31.1525797705     -1.4118095054
 O     23.2624704116     -7.6401101254     -2.3783976227
 H     22.5806877819     -7.8000219357     -1.7557749959
 H     23.2839410739     -6.6476689157     -2.6420526270
 O     42.2618229756    -23.0480573377     -5.2486560942
 H     43.2109902048    -22.9156992490     -5.2933981920
 H     42.1497288202    -23.7693721676     -4.6054277437
 O     28.9500396673    -20.1092511496    -13.4260898135
 H     28.4007381534    -20.4765268631    -12.7533416709
 H     29.4464704061    -19.3979020828    -13.0577946442
89
# ORCA AIMD Position Step 990, t=495.00 fs, E_Pot=-6054991.67476060 kJ mol^-1, Unit is Angstrom
 C     24.8935317331    -16.6331029859      0.3141028305
 C     25.2078074882    -17.1800673130      1.7000848867
 C     26.1053868243    -18.4436724764      1.7254867526
 N     26.7619648289    -18.7370172627      0.5666948477
 C     26.4183390107    -18.2230419378     -0.7312625510
 C     26.0350699975    -16.7420983087     -0.6239454617
 C     27.7372146999    -19.7661859324      0.6109965945
 C     28.6731268679    -19.9135946059      1.6460863264
 C     29.7594399996    -20.7517143097      1.5133665513
 C     29.9223563725    -21.4668693514      0.2762318756
 C     28.9214724076    -21.3592593749     -0.7382414210
 C     27.8195974904    -20.5744167171     -0.5205076903
 N     31.1555268520    -22.1132214979      0.1465661690
 C     31.3516561964    -23.3691663530     -0.5787030420
 C     32.6564182943    -24.0853467837     -0.3094143296
 C     33.7953894956    -23.0951947521     -0.3877837390
 C     33.5442126445    -21.7580792755     -0.1948063979
 C     32.2099295695    -21.1165414384      0.0503048288
 O     26.1898345688    -19.0477483666      2.7793323141
 O     31.9931878119    -19.9359133170      0.1815070435
 C     35.1921587660    -23.1580942189     -0.7547680813
 N     35.7382287893    -21.9199739031     -0.6708231164
 N     34.7622314104    -21.0833362391     -0.3729437491
 C     35.1386277462    -19.7278279690     -0.0228613676
 C     36.0644638709    -24.2861815602     -1.1161215622
 N     37.3845462981    -23.9947971895     -1.3861040935
 O     35.5659386808    -25.3736407230     -1.3266357555
 C     34.6875173995    -19.1968172441      1.1861044036
 C     34.9201413453    -17.8805395564      1.5076085850
 C     35.5944903548    -17.0879312960      0.6100976903
 C     36.1516948999    -17.6333466735     -0.5484622534
 C     35.9095308865    -18.9538086358     -0.9158129249
 O     35.7125175026    -15.7590020811      0.9677829151
 C     36.1036338751    -14.8197082491     -0.0310002859
 H     24.0887494687    -17.2508211398     -0.1480509272
 H     24.5125166862    -15.6130534544      0.4704172893
 H     25.7344709362    -16.4341462243      2.2549560739
 H     24.2168135061    -17.4042840053      2.2888739252
 H     27.3203312274    -18.2788490524     -1.3117317302
 H     25.6995467042    -18.8468621231     -1.2771703892
 H     26.9004278757    -16.1924253386     -0.2766526669
 H     25.7731717772    -16.2668097602     -1.6210535167
 H     28.5450258990    -19.3042244291      2.5228219243
 H     30.5592988242    -20.7867776672      2.2770440048
 H     28.9410179474    -21.9229924590     -1.6598303805
 H     27.0944740759    -20.4367704195     -1.3109542001
 H     30.4569816420    -23.9538190805     -0.3210742636
 H     31.1394526766    -23.2530989686     -1.6731152725
 H     32.6885881170    -24.4872604324      0.7101395212
 H     32.6662749551    -24.9185545323     -1.0274916237
 H     37.7977197761    -23.0963373908     -1.2945272552
 H     37.9021114779    -24.8179550643     -1.8006725816
 H     34.0560670915    -19.8313760430      1.8080064651
 H     34.5942563367    -17.4210514630      2.4355163321
 H     36.6985530733    -16.9367308481     -1.1544567097
 H     36.2543577191    -19.4459238139     -1.8335256241
 H     35.5051495021    -14.9586093970     -0.9441504605
 H     35.8005707606    -13.8889548645      0.4534413240
 H     37.1958919438    -14.8174945287     -0.2149514485
 O     36.5455598148    -19.9800028477     13.3369264568
 H     35.7581063340    -20.0364791410     12.7519897933
 H     36.3442871468    -20.6873451829     13.9790489936
 O     26.5264339748    -27.5835917652      5.1209766150
 H     27.1454046717    -28.1761235285      5.6040715950
 H     26.8867071827    -26.6839830806      5.2583434781
 O     33.8284482086     -7.2169984608     -1.5897514014
 H     33.7416900098     -7.4322475719     -0.6497146333
 H     34.5724688248     -6.6443791679     -1.6060663371
 O     37.5873174218    -30.7088785352      0.4329895911
 H     37.2526353404    -30.3159941251     -0.3728118143
 H     38.5241925013    -30.5304326356      0.4294788476
 O     20.9224228625    -20.0409470300      1.0461835757
 H     21.6398218312    -20.0187856123      0.4094999015
 H     20.6616427729    -20.9529804414      1.0424073484
 O     41.6367111615    -17.0633903015     -0.5583251472
 H     41.1247757479    -16.2281511736     -0.4969409012
 H     41.0816760077    -17.7996645623     -0.2276265996
 O     28.2684062082    -30.8990339817     -2.1981476930
 H     28.1400995493    -31.6010251002     -2.8402686515
 H     27.7919898914    -31.2088163392     -1.4403546495
 O     23.2355413756     -7.6071405194     -2.3383071865
 H     22.4432824065     -7.7819708065     -1.7897767668
 H     23.2243349362     -6.7119266139     -2.4186416379
 O     42.2845555486    -23.0562994431     -5.2072489353
 H     43.2237740695    -22.9127553726     -5.3009376369
 H     42.1962415820    -23.6542657977     -4.4661201750
 O     28.9729962690    -20.0924587668    -13.4487865987
 H     28.4402809246    -20.3748820680    -12.6786625780
 H     29.5463691245    -19.3827748158    -13.1094645222
89
# ORCA AIMD Position Step 1000, t=500.00 fs, E_Pot=-6054965.60909094 kJ mol^-1, Unit is Angstrom
 C     24.8712702610    -16.6559070006      0.3200239261
 C     25.2055480324    -17.2096400231      1.7245417996
 C     26.1084644594    -18.4366225826      1.6997205076
 N     26.7561206777    -18.7231729198      0.5612815163
 C     26.4269335994    -18.1671955792     -0.7446705332
 C     26.0333952681    -16.7621397350     -0.6212501010
 C     27.7761824192    -19.7328663449      0.5930118982
 C     28.6840110437    -19.9268314646      1.6837792836
 C     29.7384359627    -20.7429937705      1.5279291205
 C     29.8978340882    -21.4438913692      0.3023631187
 C     28.9377677840    -21.3620379173     -0.7119363098
 C     27.8086286582    -20.5614969223     -0.5265858482
 N     31.1689863858    -22.0955344768      0.1825132147
 C     31.3492412940    -23.3866637605     -0.5690924404
 C     32.6518005634    -24.0915569831     -0.3016404853
 C     33.7931323409    -23.1052325566     -0.3817663840
 C     33.5197137105    -21.7467627783     -0.2103195642
 C     32.1987654855    -21.1321897974      0.0733877488
 O     26.1986948251    -19.0564240525      2.7611018493
 O     32.0079419743    -19.9239639743      0.2300142465
 C     35.1918111995    -23.1658114944     -0.7176577886
 N     35.7238677272    -21.9304127579     -0.6797145039
 N     34.7341486904    -21.0858307442     -0.3836508018
 C     35.1232829116    -19.7095455640     -0.0370094769
 C     36.0944934279    -24.2796999699     -1.1440085358
 N     37.3925839235    -24.0004230602     -1.4021355928
 O     35.5683053534    -25.3934183456     -1.3009458834
 C     34.6915611548    -19.2131731742      1.1568115327
 C     34.9100009741    -17.8643610973      1.5075081108
 C     35.5779673208    -17.0867618128      0.5968426299
 C     36.1518486585    -17.6278723351     -0.5642119104
 C     35.8982851598    -18.9576464096     -0.9189062562
 O     35.7059584963    -15.7901317586      0.9608695179
 C     36.1072445956    -14.7824485536     -0.0555642792
 H     24.0719718951    -17.2241466186     -0.1510998852
 H     24.5595972249    -15.6187338161      0.4313836718
 H     25.8714120631    -16.4089818157      2.3281994079
 H     24.3798489300    -17.4179175075      2.3386988879
 H     27.3673098220    -18.2466101806     -1.3332942272
 H     25.6698826881    -18.7816356519     -1.3044350579
 H     26.8678014889    -16.1917416232     -0.1496919256
 H     25.8430318750    -16.4325511309     -1.6159714056
 H     28.6297771175    -19.2822689450      2.5671445900
 H     30.5701458568    -20.6936920214      2.2143947382
 H     29.0745954020    -21.9194232685     -1.6441176224
 H     27.1104439857    -20.4844066793     -1.3593285291
 H     30.5414791351    -24.0774930618     -0.3039900221
 H     31.1315747176    -23.2326634734     -1.6352784320
 H     32.6355686541    -24.5160243454      0.7143292656
 H     32.7373488818    -24.9115158070     -1.0354410222
 H     37.7994455703    -23.0426839010     -1.2971797024
 H     37.8872582355    -24.6887427291     -1.8439962263
 H     34.0219677471    -19.8058615707      1.7564807722
 H     34.5598084228    -17.3919912238      2.4188610956
 H     36.6908547951    -16.9279114468     -1.2134634024
 H     36.2616789870    -19.3712583045     -1.8421585023
 H     35.6138989587    -14.9028857467     -1.0223624595
 H     35.7755290302    -13.8254523845      0.3597030113
 H     37.1758752979    -14.8500578166     -0.2140931245
 O     36.5406666445    -19.9918123980     13.3609309465
 H     35.7463691055    -19.8456457674     12.8309530082
 H     36.3018215304    -20.7291553135     13.9015634890
 O     26.5523901732    -27.5965332106      5.0730895406
 H     27.0902085995    -28.2055091665      5.5483849710
 H     26.8810472633    -26.7272595189      5.3349576490
 O     33.8400596513     -7.1994436255     -1.6752393859
 H     33.7958481592     -7.4537864867     -0.7611160987
 H     34.6200999984     -6.5721756237     -1.7043695391
 O     37.5680636475    -30.7157282222      0.3956238604
 H     37.2558891321    -30.3815936297     -0.4556810536
 H     38.5199061224    -30.5416495888      0.4111612796
 O     20.9177029600    -20.0844263245      1.0582129993
 H     21.6341737028    -19.8779472797      0.4219212551
 H     20.6380314415    -21.0112627607      0.9598434064
 O     41.6286370077    -17.1114597473     -0.5471752990
 H     41.0398670924    -16.3768822650     -0.6565739215
 H     41.0535402845    -17.6990854522     -0.0705465501
 O     28.2685398418    -30.8892667934     -2.1767403549
 H     28.1657046721    -31.5424173790     -2.8680905256
 H     27.7465459089    -31.2805151454     -1.4159363555
 O     23.2049338217     -7.5878671286     -2.2937283908
 H     22.3379158135     -7.7817448922     -1.8711580296
 H     23.1832574829     -6.5353827598     -2.2087816310
 O     42.3046391821    -23.0641753586     -5.1657348770
 H     43.2644559424    -22.9146048101     -5.3015337622
 H     42.2625650778    -23.5405087567     -4.3253110418
 O     28.9951236434    -20.0753721034    -13.4686993950
 H     28.5271365084    -20.2370354634    -12.6480099166
 H     29.6184093103    -19.4037862660    -13.1655664545
