
                                 *****************
                                 * O   R   C   A *
                                 *****************

                                            #,                                       
                                            ###                                      
                                            ####                                     
                                            #####                                    
                                            ######                                   
                                           ########,                                 
                                     ,,################,,,,,                         
                               ,,#################################,,                 
                          ,,##########################################,,             
                       ,#########################################, ''#####,          
                    ,#############################################,,   '####,        
                  ,##################################################,,,,####,       
                ,###########''''           ''''###############################       
              ,#####''   ,,,,##########,,,,          '''####'''          '####       
            ,##' ,,,,###########################,,,                        '##       
           ' ,,###''''                  '''############,,,                           
         ,,##''                                '''############,,,,        ,,,,,,###''
      ,#''                                            '''#######################'''  
     '                                                          ''''####''''         
             ,#######,   #######,   ,#######,      ##                                
            ,#'     '#,  ##    ##  ,#'     '#,    #''#        ,####,    ,#,          
            ##       ##  ##   ,#'  ##            #'  '#       #'       ,# #          
            ##       ##  #######   ##           ,######,      #####,      #          
            '#,     ,#'  ##    ##  '#,     ,#' ,#      #,     #,   #      #          
             '#######'   ##     ##  '#######'  #'      '#     '####' #    #          



                #########################################################
                #                        -***-                          #
                #          Department of theory and spectroscopy        #
                #                                                       #
                #                      Frank Neese                      #
                #                                                       #
                #     Directorship, Architecture, Infrastructure        #
                #                    SHARK, DRIVERS                     #
                #        Core code/Algorithms in most modules           #
                #                                                       #
                #        Max Planck Institute fuer Kohlenforschung      #
                #                Kaiser Wilhelm Platz 1                 #
                #                 D-45470 Muelheim/Ruhr                 #
                #                      Germany                          #
                #                                                       #
                #                  All rights reserved                  #
                #                        -***-                          #
                #########################################################


                         Program Version 6.1.1  -  RELEASE   -


 With contributions from (in alphabetic order):
[Max-Planck-Institut fuer Kohlenforschung]                               
  Daniel Aravena         : Magnetic Suceptibility                        
  Michael Atanasov       : Ab Initio Ligand Field Theory (pilot matlab implementation)
  Alexander A. Auer      : GIAO ZORA, VPT2 properties, NMR spectrum      
  Ute Becker             : All parallelization in ORCA, NUMFREQ, NUMCALC 
  Giovanni Bistoni       : ED, misc. LED, open-shell LED, HFLD           
  Dmytro Bykov           : pre 5.0 version of the SCF Hessian            
  Marcos Casanova-Pﾃ｡ez   : Triplet and SCS-CIS(D). UHF-(DLPNO)-IP/EA/STEOM-CCSD. UHF-CVS-IP/STEOM-CCSD   
  Vijay G. Chilkuri      : MRCI spin determinant printing, contributions to CSF-ICE 
  Pauline Colinet        : FMM embedding                                 
  Dipayan Datta          : RHF DLPNO-CCSD density                        
  Achintya Kumar Dutta   : EOM-CC, STEOM-CC                              
  Nicolas Foglia         : Exact transition moments, OPA infrastructure, MCD improvements    
  Dmitry Ganyushin       : Spin-Orbit,Spin-Spin,Magnetic field MRCI      
  Miquel Garcia-Rates    : C-PCM and meta-GGA Hessian, CCSD/C-PCM, Gaussian charge scheme 
  Tiago L. C. Gouveia    : GS-ROHF, GS-ROCIS                             
  Yang Guo               : DLPNO-NEVPT2, F12-NEVPT2, CIM, IAO-localization        
  Andreas Hansen         : Spin unrestricted coupled pair/coupled cluster methods 
  Ingolf Harden          : AUTO-CI MPn and infrastructure                
  Benjamin Helmich-Paris : MC-RPA, TRAH-(SCF,CASSCF), AVAS, COSX integrals, SCF dyn. polar., MC-PDFT, srDFT 
  Lee Huntington         : MR-EOM, pCC                                   
  Robert Izsak           : Overlap fitted RIJCOSX, COSX-SCS-MP3, EOM     
  Riya Kayal             : Wick's Theorem for AUTO-CI, AUTO-CI UHF-CCSDT 
  Emily Kempfer          : AUTO-CI RHF CISDT and CCSDT, approximate NEVPT4
  Christian Kollmar      : KDIIS, OOCD, Brueckner-CCSD(T), CCSD density, CASPT2, CASPT2-K, improved NEVPT2 
  Axel Koslowski         : Symmetry handling                             
  Simone Kossmann        : meta-GGA functionals, TD-DFT gradient, OOMP2, (MP2 Hessian; deprecated post 5.0) 
  Lucas Lang             : DCDCAS, Hyperfine gauge corrections, ICE-SOC+SSC
  Marvin Lechner         : AUTO-CI (C++ implementation), FIC-MRCC        
  Spencer Leger          : CASSCF response                               
  Dagmar Lenk            : GEPOL surface, SMD, ORCA-2-JSON               
  Dimitrios Liakos       : Extrapolation schemes; Compound Job, Property file
  Dimitrios Manganas     : Further ROCIS development; embedding schemes. LFT, Crystal Embedding 
  Dimitrios Pantazis     : SARC Basis sets                               
  Anastasios Papadopoulos: AUTO-CI, single reference methods and gradients 
  Taras Petrenko         : pre 6.0 DFT Hessian and TD-DFT gradient,  ECA, NRVS 
  Petra Pikulova         : Analytic Raman intensities                    
  Peter Pinski           : DLPNO-MP2, DLPNO-MP2 Gradient                 
  Shashank Vittal Rao    : ES-AILFT, MagRelax                            
  Christoph Reimann      : Effective Core Potentials                     
  Marius Retegan         : Local ZFS, SOC                                
  Christoph Riplinger    : Optimizer, TS searches, QM/MM, DLPNO-CCSD(T), (RO)-DLPNO pert. Triples 
  Michael Roemelt        : Original ROCIS implementation, recursive CI coupling coefficients
  Masaaki Saitow         : Open-shell DLPNO-CCSD energy and density      
  Barbara Sandhoefer     : DKH picture change effects                    
  Yorick L. A. Schmerwitz: GMF and freeze-and-release deltaSCF, NEB S-IDPP initial path                    
  Kantharuban Sivalingam : CASSCF convergence/infrastructure, NEVPT2, NEVPT3, NEVPT4(SD), FIC-MRCI and CEPA variants
  Bernardo de Souza      : ESD, SOC TD-DFT                               
  Georgi L. Stoychev     : AutoAux, RI-MP2 NMR, DLPNO-MP2 response, X2C  
  Van Anh Tran           : RI-MP2 g-tensors                              
  Willem Van den Heuvel  : Paramagnetic NMR                              
  Zikuan Wang            : NOTCH, Electric field optimization            
  Frank Wennmohs         : Technical directorship and infrastructure     
  Hang Xu                : AUTO-CI-Response properties                   
                                                                         
[FACCTs GmbH]                                                            
  Markus Bursch, Nicolas Foglia, Miquel Garcia-Rates, Ingolf Harden, Hagen Neugebauer, Anastasios Papadopoulos, 
  Christoph Riplinger, Bernardo de Souza, Georgi L. Stoychev                                                    
                                                                 
  APM, various basis sets, CI-OPT, improved COSX, DLPNO-Multilevel,           
  DOCKER, DRACO, updates on ESD, Fragmentator, GOAT, IRC, LR-CPCM, L-BFGS, MBIS, meta-GGA TD-DFT gradient, ML-optimized integration grids, 
  MM, NACMEs, nearIR, NEB, NEB-TS, NL-DFT gradient (VV10), 2- and 3-layer-ONIOM, interface openCOSMO-RS, QMMM,   
  Crystal-QMMM, RESP, rigid body optimization, SF, symmetry and pop. for TD-DFT, various functionals, SOLVATOR                                   
                                                                         
[Other institutions]                                                     
  V. Asgeirsson          : NEB                                           
  Christoph Bannwarth    : sTDA-DFT, sTD-DFT, PBEh-3c, B97-3c, D3        
  Giovanni Bistoni       : ETS/NOCV, ADLD/ADEX, COVALED                  
  Martin Brehm           : Molecular dynamics                            
  Ronald Cardenas        : ETS/NOCV                                      
  Martina Colucci        : COVALED                                       
  Sebastian Ehlert       : rSCAN, r2SCAN, r2SCAN-3c, D4, dhf basis sets  
  Marvin Friede          : D4 for Fr, Ra, Ac-Lr                          
  Lars Goerigk           : TD-DFT with DH, B97 family of functionals     
  Stefan Grimme          : VdW corrections, initial TS optimization, DFT functionals, gCP, sTDA/sTD-DF 
  Waldemar Hujo          : DFT-NL                                        
  H. Jonsson             : NEB                                           
  Holger Kruse           : gCP                                           
  Marcel Mueller         : wB97X-3c, vDZP basis set                      
  Hagen Neugebauer       : wr2SCAN, Native XTB                           
  Gianluca Regni         : ADLD/ADEX                                     
  Tobias Risthaus        : pre 6.0 range-separated hybrid DFT and stability analysis
  Lukas Wittmann         : regularized MP2, r2SCAN double-hybrids, wr2SCAN        
                                                                         
We gratefully acknowledge several colleagues who have allowed us to      
interface, adapt or use parts of their codes:                            
  Ed Valeev, F. Pavosevic, A. Kumar             : LibInt (2-el integral package), F12 methods 
  Garnet Chan, S. Sharma, J. Yang, R. Olivares  : DMRG                   
  Ulf Ekstrom                                   : XCFun DFT Library      
  Mihaly Kallay                                 : mrcc  (arbitrary order and MRCC methods)
  Frank Weinhold                                : gennbo (NPA and NBO analysis)           
  Simon Mueller                                 : openCOSMO-RS                            
  Christopher J. Cramer and Donald G. Truhlar   : smd solvation model                     
  S Lehtola, MJT Oliveira, MAL Marques          : LibXC Library                           
  Liviu Ungur et al                             : ANISO software                          


 Your calculation uses the libint2 library for the computation of 2-el integrals
 For citations please refer to: http://libint.valeyev.net

 Your ORCA version has been built with support for libXC version: 7.0.0
 For citations please refer to: https://libxc.gitlab.io

 This ORCA versions uses:
   CBLAS   interface :  Fast vector & matrix operations
   LAPACKE interface :  Fast linear algebra routines
   Shared memory     :  Shared parallel matrices


  ***********************************
  * Starting time: Sat Oct  3 08:18:46 2026
  * Host name:     DESKTOP-2KDTO5M
  * Process ID:    19236
  * Working dir.:  C:\Users\naoki\Downloads\デスクトップ\data\Molecules\Calculations\Apixaban\CrystalFragment
  ***********************************

NOTE: MaxCore=2000 MB was set to SCF,MP2,MDCI,CIPSI,MRCI,RASCI and CIS
      => If you want to overwrite this, your respective input block should be placed after the MaxCore statement
Your calculation utilizes the semiempirical GFN2-xTB method
Please cite in your paper:
Bannwarth, C.; Ehlert S.; Grimme, S. J. Chem. Theory Comput. 2019, 15, 1652.
   

================================================================================

================================================================================
                                        WARNINGS
                       Please study these warnings very carefully!
================================================================================


WARNING: Found dipole moment calculation with XTB calculation
  ===> : Switching off dipole moment calculation

Environment variable XTBEXE for xtb has been set!

================================================================================
                                       INPUT FILE
================================================================================
NAME = D3\D3_pull_+1.0A_XTB2_SP.inp
|  1> # D3 pull-apart: molecule B displaced +1.0 A along centroid vector (rigid), XTB2 single point
|  2> 
|  3> ! XTB2
|  4> 
|  5> %pal
|  6>   nprocs 4
|  7> end
|  8> 
|  9> %maxcore 2000
| 10> 
| 11> * xyz 0 1
| 12> H     13.42313039    27.56674130    21.56590380
| 13> C     12.24552212    27.15147530    23.13646418
| 14> H     12.65976143    26.35001192    23.36253803
| 15> C     11.17378631    27.59954731    23.86974896
| 16> C     10.96248270    27.50888090    26.33925576
| 17> H     11.85937665    27.29958684    26.64273277
| 18> C     10.50027590    25.53041526    24.91642213
| 19> C     10.28850978    24.88453821    26.22157779
| 20> C      9.95858159    25.55450069    27.36500490
| 21> C      9.96347671    27.04309087    27.38120922
| 22> H      9.07878487    27.38264004    27.17291292
| 23> H     10.21911492    27.36741362    28.25844499
| 24> C      9.67593669    24.55537069    28.29730390
| 25> C      9.20491770    24.72895188    29.68945945
| 26> C     10.50510832    22.43100826    25.65348267
| 27> C     11.60405407    22.47876385    24.82580380
| 28> H     12.15842317    23.22582738    24.83193942
| 29> C     11.88325522    21.41983555    23.98884284
| 30> H     12.62367639    21.45264156    23.42861390
| 31> C     11.06687070    20.31508956    23.98380849
| 32> C      9.98753047    20.25584495    24.84782909
| 33> H      9.45325189    19.49535448    24.86655058
| 34> C      9.70017823    21.30868268    25.67629458
| 35> H      8.96860279    21.26854030    26.24942405
| 36> C     12.23844184    19.34682767    22.16750882
| 37> H     12.22095615    18.56515864    21.60995437
| 38> H     12.08090755    20.12655880    21.63040643
| 39> H     13.09786863    19.41783816    22.59007971
| 40> H      8.97897997    23.67846732    31.28377568
| 41> H      9.61803440    22.96836246    30.17936479
| 42> N     10.73403801    26.87421603    25.02812181
| 43> N     10.19901274    23.54835064    26.48871307
| 44> N      9.83804090    23.33573445    27.77152880
| 45> N      9.24495466    23.64289287    30.45562483
| 46> O     10.38714479    24.95997820    23.85071282
| 47> O      8.78192884    25.81251929    30.05429261
| 48> O     11.23110584    19.24356486    23.15848947
| 49> C     11.75235738    30.11439821    19.52054112
| 50> H     11.05818695    30.73106822    19.80388073
| 51> H     11.32147613    29.28178988    19.27212733
| 52> C     12.41998786    30.67016254    18.33699652
| 53> H     12.85945434    29.94898392    17.85778917
| 54> H     11.74999586    31.04943882    17.74766273
| 55> C     13.41651570    31.70694332    18.65683517
| 56> H     13.87408166    31.97271356    17.84363006
| 57> H     12.96292215    32.48764340    19.01254358
| 58> C     14.41923773    31.22412738    19.65111962
| 59> H     15.07284560    30.67985208    19.18559942
| 60> H     14.88650136    31.99347686    20.01154773
| 61> C     13.86975067    30.42640140    20.79486138
| 62> C     11.03304735    29.52499733    22.46044515
| 63> H     10.62115078    30.32826020    22.23452862
| 64> C     12.12018061    29.08315431    21.73785837
| 65> C     12.70791857    27.88386610    22.06886699
| 66> C     10.55371227    28.77862591    23.51750167
| 67> H      9.81065253    29.07277266    23.99340522
| 68> H     10.89656743    28.47202118    26.24313111
| 69> N     12.64982471    29.86150122    20.65437150
| 70> O     14.52451648    30.28493411    21.82391432
| 71> C     17.36376773    25.75050389    27.62826489
| 72> H     18.05793816    25.13383388    27.34492528
| 73> H     17.79464898    26.58311222    27.87667867
| 74> C     16.69613725    25.19473956    28.81180949
| 75> H     16.25667077    25.91591818    29.29101683
| 76> H     17.36612925    24.81546328    29.40114328
| 77> C     15.69960941    24.15795878    28.49197084
| 78> H     15.24204345    23.89218854    29.30517595
| 79> H     16.15320296    23.37725870    28.13626243
| 80> C     14.69688738    24.64077472    27.49768639
| 81> H     14.04327951    25.18505002    27.96320659
| 82> H     14.22962375    23.87142524    27.13725828
| 83> C     15.24637444    25.43850070    26.35394463
| 84> C     18.08307776    26.33990477    24.68836086
| 85> H     18.49497433    25.53664190    24.91427739
| 86> C     16.99594450    26.78174779    25.41094764
| 87> C     16.40820654    27.98103600    25.07993902
| 88> C     18.56241284    27.08627619    23.63130434
| 89> H     19.30547258    26.79212944    23.15540079
| 90> H     18.21955768    27.39288092    20.90567490
| 91> N     16.46630040    26.00340089    26.49443450
| 92> O     14.59160863    25.57996799    25.32489169
| 93> H     15.69299472    28.29816080    25.58290221
| 94> C     16.87060300    28.71342680    24.01234183
| 95> H     16.45636369    29.51489018    23.78626797
| 96> C     17.94233880    28.26535479    23.27905705
| 97> C     18.15364241    28.35602120    20.80955025
| 98> H     17.25674846    28.56531526    20.50607324
| 99> C     18.61584921    30.33448684    22.23238388
|100> C     18.82761533    30.98036390    20.92722822
|101> C     19.15754352    30.31040142    19.78380110
|102> C     19.15264840    28.82181123    19.76759679
|103> H     20.03734024    28.48226206    19.97589308
|104> H     18.89701019    28.49748848    18.89036101
|105> C     19.44018842    31.30953141    18.85150211
|106> C     19.91120741    31.13595022    17.45934656
|107> C     18.61101679    33.43389385    21.49532334
|108> C     17.51207104    33.38613826    22.32300221
|109> H     16.95770194    32.63907472    22.31686659
|110> C     17.23286989    34.44506656    23.15996317
|111> H     16.49244872    34.41226054    23.72019211
|112> C     18.04925441    35.54981254    23.16499752
|113> C     19.12859464    35.60905715    22.30097692
|114> H     19.66287322    36.36954762    22.28225542
|115> C     19.41594688    34.55621942    21.47251143
|116> H     20.14752232    34.59636180    20.89938196
|117> C     16.87768327    36.51807443    24.98129719
|118> H     16.89516896    37.29974346    25.53885164
|119> H     17.03521756    35.73834330    25.51839958
|120> H     16.01825648    36.44706394    24.55872630
|121> H     20.13714514    32.18643478    15.86503033
|122> H     19.49809071    32.89653964    16.96944122
|123> N     18.38208710    28.99068607    22.12068420
|124> N     18.91711237    32.31655146    20.66009294
|125> N     19.27808421    32.52916765    19.37727721
|126> N     19.87117045    32.22200924    16.69318117
|127> O     18.72898032    30.90492391    23.29809319
|128> O     20.33419628    30.05238281    17.09451339
|129> O     17.88501927    36.62133724    23.99031654
|130> *
|131> 
|132>                          ****END OF INPUT****
================================================================================

                       ****************************
                       * Single Point Calculation *
                       ****************************

      -----------------------------------------------------------      
     |                   =====================                   |     
     |                           x T B                           |     
     |                   =====================                   |     
     |                         S. Grimme                         |     
     |          Mulliken Center for Theoretical Chemistry        |     
     |                    University of Bonn                     |     
      -----------------------------------------------------------      

   * xtb version 6.7.1pre (5071a88) compiled by 'Marcel@Raven' on 2024-07-23

   xtb is free software: you can redistribute it and/or modify it under
   the terms of the GNU Lesser General Public License as published by
   the Free Software Foundation, either version 3 of the License, or
   (at your option) any later version.
   
   xtb is distributed in the hope that it will be useful,
   but WITHOUT ANY WARRANTY; without even the implied warranty of
   MERCHANTABILITY or FITNESS FOR A PARTICULAR PURPOSE.  See the
   GNU Lesser General Public License for more details.
   
   Cite this work as:
   * C. Bannwarth, E. Caldeweyher, S. Ehlert, A. Hansen, P. Pracht,
     J. Seibert, S. Spicher, S. Grimme, WIREs Comput. Mol. Sci., 2020, 11,
     e01493. DOI: 10.1002/wcms.1493
   
   for GFN2-xTB:
   * C. Bannwarth, S. Ehlert and S. Grimme., J. Chem. Theory Comput., 2019,
     15, 1652-1671. DOI: 10.1021/acs.jctc.8b01176
   for GFN1-xTB:
   * S. Grimme, C. Bannwarth, P. Shushkov, J. Chem. Theory Comput., 2017,
     13, 1989-2009. DOI: 10.1021/acs.jctc.7b00118
   for GFN0-xTB:
   * P. Pracht, E. Caldeweyher, S. Ehlert, S. Grimme, ChemRxiv, 2019, preprint.
     DOI: 10.26434/chemrxiv.8326202.v1
   for GFN-FF:
   * S. Spicher and S. Grimme, Angew. Chem. Int. Ed., 2020, 59, 15665-15673.
     DOI: 10.1002/anie.202004239
   
   for ALPB and GBSA implicit solvation:
   * S. Ehlert, M. Stahn, S. Spicher, S. Grimme, J. Chem. Theory Comput.,
     2021, 17, 4250-4261. DOI: 10.1021/acs.jctc.1c00471
   
   for ddCOSMO and CPCM-X implicit solvation:
   * M. Stahn, S. Ehlert, S. Grimme, J. Phys. Chem. A,
     2023, XX, XXXX-XXXX. DOI: 10.1021/acs.jpca.3c04382
   
   for DFT-D4:
   * E. Caldeweyher, C. Bannwarth and S. Grimme, J. Chem. Phys., 2017,
     147, 034112. DOI: 10.1063/1.4993215
   * E. Caldeweyher, S. Ehlert, A. Hansen, H. Neugebauer, S. Spicher,
     C. Bannwarth and S. Grimme, J. Chem. Phys., 2019, 150, 154122.
     DOI: 10.1063/1.5090222
   * E. Caldeweyher, J.-M. Mewes, S. Ehlert and S. Grimme, Phys. Chem. Chem. Phys.
     2020, 22, 8499-8512. DOI: 10.1039/D0CP00502A
   
   for sTDA-xTB:
   * S. Grimme and C. Bannwarth, J. Chem. Phys., 2016, 145, 054103.
     DOI: 10.1063/1.4959605
   
   in the mass-spec context:
   * V. Asgeirsson, C. Bauer and S. Grimme, Chem. Sci., 2017, 8, 4879.
     DOI: 10.1039/c7sc00601b
   * J. Koopman and S. Grimme, ACS Omega 2019, 4, 12, 15120-15133.
     DOI: 10.1021/acsomega.9b02011
   
   for metadynamics refer to:
   * S. Grimme, J. Chem. Theory Comput., 2019, 155, 2847-2862
     DOI: 10.1021/acs.jctc.9b00143
   
   for SPH calculations refer to:
   * S. Spicher and S. Grimme, J. Chem. Theory Comput., 2021, 17, 1701-1714
     DOI: 10.1021/acs.jctc.0c01306
   
   for ONIOM refer to:
   * C. Plett, A. Katbashev, S. Ehlert, S. Grimme, M. Bursch,
     Phys. Chem. Chem. Phys., 2023, 25, 17860-17868. DOI: 10.1039/D3CP02178E
   
   for DIPRO refer to:
   * J. Kohn, N. Gildemeister, S. Grimme, D. Fazzi, A. Hansen,
     J. Chem. Phys., 2023, just accepted.
   
   for PTB refer to:
   * S. Grimme, M. Mueller, A. Hansen, J. Chem. Phys., 2023, 158, 124111.
     DOI: 10.1063/5.0137838
   
   with help from (in alphabetical order)
   P. Atkinson, C. Bannwarth, F. Bohle, G. Brandenburg, E. Caldeweyher
   M. Checinski, S. Dohm, S. Ehlert, S. Ehrlich, I. Gerasimov, C. Hﾃｶlzer
   A. Katbashev, J. Kohn, J. Koopman, C. Lavigne, S. Lehtola, F. Mﾃ､rz, M. Mﾃｼller,
   F. Musil, H. Neugebauer, J. Pisarek, C. Plett, P. Pracht, F. Pultar,
   J. Seibert, P. Shushkov, S. Spicher, M. Stahn, M. Steiner, T. Strunk,
   J. Stﾃｼckrath, T. Rose, and J. Unsleber
   
 * started run on 2026/10/03 at 08:18:47.345     
   ID    Z sym.   atoms
    1    1 H      1, 3, 6, 11, 12, 17, 19, 22, 24, 26-30, 39, 40, 42, 43, 45,
                  46, 48, 49, 52, 56, 57, 61, 62, 64, 65, 67, 68, 70, 71, 74,
                  78, 79, 82, 84, 87, 92, 93, 98, 100, 103, 105, 107-111
    2    6 C      2, 4, 5, 7-10, 13-16, 18, 20, 21, 23, 25, 38, 41, 44, 47,
                  50, 51, 53-55, 60, 63, 66, 69, 72, 73, 75-77, 83, 85, 86,
                  88-91, 94-97, 99, 101, 102, 104, 106
    3    7 N      31-34, 58, 80, 112-115
    4    8 O      35-37, 59, 81, 116-118

           -------------------------------------------------
          |                Calculation Setup                |
           -------------------------------------------------

          program call               : C:\ORCA_6.1.1\xtb-6.7.1pre\xtb.exe  D3\D3_pull_+1.0A_XTB2_SP_XTB.xyz --grad -c 0 -u 0 -P 4 --namespace D3\D3_pull_+1.0A_XTB2_SP --input D3\D3_pull_+1.0A_XTB2_SP_XTB.input.tmp --acc 1.000000      
          calculation namespace      : D3\D3_pull_+1.0A_XTB2_SP
          coordinate file            : D3\D3_pull_+1.0A_XTB2_SP_XTB.xyz
          omp threads                :                     4


molecular fragmentation (1/2 indicates fragments):
111111111111111111111111111111111111111111111111111111111112222222222222
2222222222222222222222222222222222222222222222
# atoms in fragment 1/2:    59    59
 fragment masses (1/2) :      459.50      459.50
CMA distance (Bohr)    :  15.094
constraining FC (au)   :  0.0500

           -------------------------------------------------
          |                 G F N 2 - x T B                 |
           -------------------------------------------------

        Reference                      10.1021/acs.jctc.8b01176
      * Hamiltonian:
        H0-scaling (s, p, d)           1.850000    2.230000    2.230000
        zeta-weighting                 0.500000
      * Dispersion:
        s8                             2.700000
        a1                             0.520000
        a2                             5.000000
        s9                             5.000000
      * Repulsion:
        kExp                           1.500000    1.000000
        rExp                           1.000000
      * Coulomb:
        alpha                          2.000000
        third order                    shell-resolved
        anisotropic                    true
        a3                             3.000000
        a5                             4.000000
        cn-shift                       1.200000
        cn-exp                         4.000000
        max-rad                        5.000000


          ...................................................
          :                      SETUP                      :
          :.................................................:
          :  # basis functions                 322          :
          :  # atomic orbitals                 322          :
          :  # shells                          186          :
          :  # electrons                       348          :
          :  max. iterations                   250          :
          :  Hamiltonian                  GFN2-xTB          :
          :  restarted?                      false          :
          :  GBSA solvation                  false          :
          :  PC potential                    false          :
          :  electronic temp.          300.0000000     K    :
          :  accuracy                    1.0000000          :
          :  -> integral cutoff          0.2500000E+02      :
          :  -> integral neglect         0.1000000E-07      :
          :  -> SCF convergence          0.1000000E-05 Eh   :
          :  -> wf. convergence          0.1000000E-03 e    :
          :  Broyden damping             0.4000000          :
          :  net charge                          0          :
          :  unpaired electrons                  0          :
          ...................................................

 iter      E             dE          RMSdq      gap      omega  full diag
   1   -197.4600336 -0.197460E+03  0.413E+00    2.92       0.0  T
   2   -197.9854655 -0.525432E+00  0.242E+00    2.82       1.0  T
   3   -198.0359177 -0.504522E-01  0.130E+00    3.15       1.0  T
   4   -198.0440360 -0.811831E-02  0.432E-01    3.00       1.0  T
   5   -198.0582352 -0.141991E-01  0.907E-02    3.08       1.0  T
   6   -198.0584024 -0.167233E-03  0.516E-02    3.08       1.0  T
   7   -198.0585531 -0.150732E-03  0.218E-02    3.09       1.0  T
   8   -198.0585605 -0.738181E-05  0.814E-03    3.09       1.1  T
   9   -198.0585634 -0.294194E-05  0.364E-03    3.09       2.5  T
  10   -198.0585637 -0.221959E-06  0.147E-03    3.09       6.3  T
  11   -198.0585638 -0.136433E-06  0.554E-04    3.09      16.6  T
  12   -198.0585638 -0.109742E-07  0.260E-04    3.09      35.4  T

   *** convergence criteria satisfied after 12 iterations ***

         #    Occupation            Energy/Eh            Energy/eV
      -------------------------------------------------------------
         1        2.0000           -0.7174460             -19.5227
       ...           ...                  ...                  ...
       168        2.0000           -0.3845905             -10.4652
       169        2.0000           -0.3827806             -10.4160
       170        2.0000           -0.3826824             -10.4133
       171        2.0000           -0.3770675             -10.2605
       172        2.0000           -0.3768477             -10.2545
       173        2.0000           -0.3759522             -10.2302
       174        2.0000           -0.3758687             -10.2279 (HOMO)
       175                         -0.2623194              -7.1381 (LUMO)
       176                         -0.2623059              -7.1377
       177                         -0.2353893              -6.4053
       178                         -0.2353324              -6.4037
       179                         -0.2262130              -6.1556
       ...                                ...                  ...
       322                          0.8752074              23.8156
      -------------------------------------------------------------
                  HL-Gap            0.1135494 Eh            3.0898 eV
             Fermi-level           -0.3190941 Eh           -8.6830 eV

 SCC (total)                   0 d,  0 h,  0 min,  0.355 sec
 SCC setup                      ...        0 min,  0.001 sec (  0.282%)
 Dispersion                     ...        0 min,  0.004 sec (  1.127%)
 classical contributions        ...        0 min,  0.000 sec (  0.000%)
 integral evaluation            ...        0 min,  0.016 sec (  4.507%)
 iterations                     ...        0 min,  0.220 sec ( 61.972%)
 molecular gradient             ...        0 min,  0.111 sec ( 31.268%)
 printout                       ...        0 min,  0.003 sec (  0.845%)

         :::::::::::::::::::::::::::::::::::::::::::::::::::::
         ::                     SUMMARY                     ::
         :::::::::::::::::::::::::::::::::::::::::::::::::::::
         :: total energy            -193.673004964800 Eh    ::
         :: gradient norm              1.318053169565 Eh/a0 ::
         :: HOMO-LUMO gap              3.089835229595 eV    ::
         ::.................................................::
         :: SCC energy              -198.055801288030 Eh    ::
         :: -> isotropic ES            0.296876274747 Eh    ::
         :: -> anisotropic ES          0.002656548441 Eh    ::
         :: -> anisotropic XC          0.036933847919 Eh    ::
         :: -> dispersion             -0.147696721736 Eh    ::
         :: repulsion energy           4.382796323230 Eh    ::
         :: add. restraining           0.000000000000 Eh    ::
         :: total charge              -0.000000000000 e     ::
         :::::::::::::::::::::::::::::::::::::::::::::::::::::


Property printout bound to 'properties.out'
#
# Number of atoms
#
       118
#
# The current total energy in Eh
#
   -193.673004964800
#
# The current gradient in Eh/bohr
#
      -0.125153441842
       0.054578517812
       0.085102922789
       0.062350148624
      -0.118137029534
       0.033752051705
      -0.072972736810
       0.138290338078
      -0.039190257240
       0.006314217812
       0.004903767779
      -0.015872647838
       0.081301226285
       0.076206438212
       0.031295859296
      -0.108676854330
       0.030776017565
      -0.034120682533
      -0.002807875734
      -0.003497729403
      -0.001586045882
      -0.004314806427
       0.017649304006
       0.015015357784
       0.002946462637
      -0.006155693523
      -0.004512297700
      -0.056723727878
       0.073235815326
       0.061422135103
       0.104972683333
      -0.036369395138
       0.026176183049
      -0.032184403323
      -0.037079227749
      -0.102485598759
       0.001938594539
       0.013375906358
      -0.014713893119
       0.004507303951
      -0.031233995718
       0.019856928295
       0.004459376981
      -0.018949239517
      -0.008232955383
       0.085410058560
       0.112572664831
      -0.001574159110
      -0.096379175835
      -0.128323771325
       0.000707106119
       0.111931233617
       0.002850524651
      -0.085864981146
      -0.129532398138
      -0.010265962779
       0.096030097109
       0.003407903735
       0.012493193000
       0.007729059265
      -0.081050108308
      -0.114534171288
       0.001185600903
       0.092556018772
       0.132163571544
      -0.001285360666
      -0.113609224611
      -0.011007793382
       0.084281879048
       0.126003251428
       0.006461504013
      -0.098787924784
       0.073273084357
       0.003672416223
      -0.076863352832
       0.010135801829
       0.107674937290
       0.068616417276
       0.023885907340
      -0.107434178910
       0.074364709663
      -0.118139590874
      -0.008101319400
      -0.059225382713
       0.063193262606
      -0.014569983229
      -0.185623178162
      -0.148667516333
       0.273425359164
       0.117571748731
      -0.001784977121
       0.000533307599
       0.004932960611
       0.000265491304
       0.013699650930
      -0.009258229197
      -0.005367803532
      -0.014766599993
       0.021592980270
       0.082249719188
      -0.233385050682
       0.054775814744
       0.000107938148
       0.001518634670
       0.004358876497
      -0.000141791558
      -0.000460992150
      -0.004643676731
       0.009571528867
       0.005225792690
      -0.007063145407
      -0.096500780261
      -0.014075043960
      -0.030313849389
       0.081092893410
      -0.076295205015
      -0.039520291090
       0.047838498049
       0.103541294379
       0.025824017443
      -0.026434127863
      -0.016423425336
      -0.068905963390
      -0.055280555879
       0.086708082516
       0.055979969284
       0.082485252234
      -0.045449997530
       0.068566724562
      -0.000174730502
       0.072338947506
      -0.044748213006
      -0.055952928054
      -0.029917057977
       0.096023831743
       0.055218960616
      -0.092573448556
      -0.045362504848
       0.098584293418
       0.024991719451
      -0.013793794374
      -0.076831078943
       0.070782046416
       0.052027808276
      -0.054967749664
      -0.089574908735
      -0.048184475989
       0.000387926576
       0.008379342361
      -0.021972228287
      -0.062876036870
       0.122382840867
      -0.032335599412
       0.072006030054
      -0.138582590773
       0.037510460607
      -0.003593652901
      -0.006832492932
       0.008975266420
       0.107833257718
      -0.049364035051
      -0.072752809488
      -0.113783148778
       0.045026075144
       0.072189754621
       0.128400700239
      -0.052344927839
      -0.082348223104
       0.011969129991
      -0.111893658654
       0.016780525029
      -0.001577204021
       0.001839672523
      -0.000875225426
       0.002804436433
      -0.000261083586
       0.008518955394
       0.096500732614
       0.014075084101
       0.030313773522
      -0.081092891919
       0.076295206141
       0.039520289766
      -0.047838503409
      -0.103541306785
      -0.025824005557
       0.026434112214
       0.016423414205
       0.068905995844
       0.055280556134
      -0.086708089968
      -0.055979971373
      -0.082485247094
       0.045449996989
      -0.068566717746
       0.000174724997
      -0.072338944622
       0.044748208837
       0.055952929389
       0.029917057946
      -0.096023835045
      -0.055218959982
       0.092573447515
       0.045362504139
      -0.098584289786
      -0.024991742855
       0.013793819337
       0.076831084978
      -0.070782039646
      -0.052027815481
       0.054967747597
       0.089574909130
       0.048184472839
      -0.000387926564
      -0.008379346140
       0.021972189207
       0.062876012941
      -0.122382830844
       0.032335516729
      -0.072006032553
       0.138582579080
      -0.037510453532
       0.003593678495
       0.006832497389
      -0.008975258898
      -0.107833253250
       0.049364018916
       0.072752790291
       0.113783168665
      -0.045026145979
      -0.072189657205
      -0.128400695302
       0.052344932206
       0.082348215773
      -0.011969126311
       0.111893663906
      -0.016780529346
       0.001577285839
      -0.001839646537
       0.000875302066
      -0.002804462076
       0.000261086620
      -0.008518961773
       0.125153446489
      -0.054578513917
      -0.085102921468
      -0.062350180048
       0.118137017038
      -0.033752017373
       0.072972732712
      -0.138290337234
       0.039190251976
      -0.006314234823
      -0.004903731624
       0.015872644201
      -0.081301249298
      -0.076206450273
      -0.031295858312
       0.108676846323
      -0.030776015365
       0.034120677812
       0.002807858466
       0.003497728551
       0.001586100288
       0.004314759723
      -0.017649208861
      -0.015015486777
      -0.002946444369
       0.006155648933
       0.004512289234
       0.056723739857
      -0.073235761303
      -0.061422142666
      -0.104972689572
       0.036369395674
      -0.026176179756
       0.032184396435
       0.037079215555
       0.102485599566
      -0.001938595346
      -0.013375975814
       0.014713871963
      -0.004507261853
       0.031233979514
      -0.019856874516
      -0.004459429155
       0.018949420609
       0.008233073706
      -0.085410020199
      -0.112572658353
       0.001574154177
       0.096379169429
       0.128323776726
      -0.000707121371
      -0.111931181336
      -0.002850525730
       0.085865021938
       0.129532405384
       0.010265977274
      -0.096030093027
      -0.003407870669
      -0.012493196382
      -0.007729080488
       0.081050038923
       0.114534268901
      -0.001185554647
      -0.092556026066
      -0.132163577809
       0.001285358641
       0.113609217231
       0.011007660228
      -0.084281879619
      -0.126003257865
      -0.006461497369
       0.098787922052
      -0.073273118616
      -0.003672447242
       0.076863323719
      -0.010135797616
      -0.107674936487
      -0.068616419462
      -0.023885903459
       0.107434173974
      -0.074364712264
       0.118139594887
       0.008101330246
       0.059225403047
      -0.063193280270
       0.014569985407
       0.185623191887
       0.148667516131
      -0.273425357263
      -0.117571745910
       0.001785053037
      -0.000533298200
      -0.004932966960
      -0.000265492308
      -0.013699846366
       0.009258050194
       0.005367814715
       0.014766660069
      -0.021592910963
      -0.082249714725
       0.233385065093
      -0.054775802911
      -0.000107921627
      -0.001518650802
      -0.004358883094
       0.000141792485
       0.000460984396
       0.004643667196
      -0.009571524887
      -0.005225775801
       0.007063122965
#
# The atomic numbers and current coordinates in Bohr
#
   1    25.3660402   52.0935912   40.7536518
   6    23.1406831   51.3088522   43.7215808
   1    23.9234819   49.7943059   44.1487985
   6    21.1153959   52.1555856   45.1072882
   6    20.7160899   51.9842509   49.7739797
   1    22.4109739   51.5887424   50.3474681
   6    19.8426457   48.2454927   47.0852138
   6    19.4424657   47.0249620   49.5516006
   6    18.8189918   48.2910076   51.7123647
   6    18.8282422   51.1040353   51.7429864
   1    17.1564169   51.7456902   51.3493634
   1    19.3113284   51.7169165   53.4007217
   6    18.2848703   46.4029255   53.4741544
   6    17.3947735   46.7309464   56.1049471
   6    19.8517776   42.3884623   48.4780564
   6    21.9284841   42.4787073   46.9139700
   1    22.9760899   43.8904528   46.9255646
   6    22.4560978   40.4776228   45.3323430
   1    23.8552911   40.5396172   44.2736638
   6    20.9133547   38.3899555   45.3228295
   6    18.8736972   38.2779994   46.9555918
   1    17.8640571   36.8408807   46.9909703
   6    18.3306802   40.2675743   48.5211647
   1    16.9482030   40.1917162   49.6042224
   6    23.1273033   36.5602057   41.8905205
   1    23.0942601   35.0830653   40.8368953
   1    22.8296066   38.0336840   40.8755441
   1    24.7513845   36.6943961   42.6890638
   1    16.9678130   44.7458183   59.1177682
   1    18.1754509   43.4039146   57.0307341
   7    20.2843921   50.7849081   47.2962956
   7    19.2733408   44.4999334   50.0564131
   7    18.5912029   44.0981470   52.4805835
   7    17.4704323   44.6785923   57.5527899
   8    19.6288589   47.1675229   45.0713151
   8    16.5954404   48.7785920   56.7943819
   8    21.2237141   36.3650672   43.7632026
   6    22.2087368   56.9079650   36.8884765
   1    20.8969448   58.0733025   37.4239108
   1    21.3944892   55.3345633   36.4190425
   6    23.4703755   57.9582074   34.6519014
   1    24.3008468   56.5953773   33.7463307
   1    22.2042741   58.6749357   33.5382219
   6    25.3535402   59.9174391   35.2563088
   1    26.2182146   60.4196721   33.7195739
   1    24.4963726   61.3927485   35.9285003
   6    27.2484102   59.0050492   37.1352341
   1    28.4835501   57.9765180   36.2555284
   1    28.1314105   60.4589090   37.8163445
   6    26.2100302   57.4975656   39.2965928
   6    20.8494378   55.7941588   42.4440900
   1    20.0710661   57.3121056   42.0171696
   6    22.9038219   54.9591965   41.0785989
   6    24.0144857   52.6928702   41.7041145
   6    19.9436258   54.3837212   44.4416373
   1    18.5394464   54.9395780   45.3409647
   1    20.5915281   53.8043222   49.5923305
   7    23.9047042   56.4300590   39.0311054
   8    27.4473582   57.2302312   41.2412210
   6    32.8127655   48.6613999   52.2098539
   1    34.1245575   47.4960625   51.6744197
   1    33.6270131   50.2348016   52.6792880
   6    31.5511267   47.6111575   54.4464291
   1    30.7206555   48.9739876   55.3519997
   1    32.8172281   46.8944293   55.5601085
   6    29.6679620   45.6519258   53.8420216
   1    28.8032877   45.1496929   55.3787566
   1    30.5251296   44.1766165   53.1698302
   6    27.7730920   46.5643157   51.9630963
   1    26.5379522   47.5928470   52.8428020
   1    26.8900917   45.1104559   51.2819859
   6    28.8114721   48.0717993   49.8017377
   6    34.1720645   49.7752062   46.6542405
   1    34.9504362   48.2572593   47.0811609
   6    32.1176803   50.6101685   48.0197316
   6    31.0070166   52.8764947   47.3942160
   6    35.0778765   51.1856437   44.6566932
   1    36.4820559   50.6297869   43.7573658
   1    34.4299741   51.7650427   39.5060000
   7    31.1167980   49.1393060   50.0672250
   8    27.5741440   48.3391338   47.8571094
   1    29.6554621   53.4757737   48.3446786
   6    31.8808192   54.2605128   45.3767497
   1    31.0980204   55.7750590   44.9495320
   6    33.9061064   53.4137794   43.9910423
   6    34.3054123   53.5851141   39.3243507
   1    32.6105284   53.9806225   38.7508623
   6    35.1788566   57.3238723   42.0131166
   6    35.5790366   58.5444030   39.5467299
   6    36.2025105   57.2783574   37.3859658
   6    36.1932600   54.4653296   37.3553441
   1    37.8650853   53.8236747   37.7489670
   1    35.7101738   53.8524485   35.6976087
   6    36.7366319   59.1664395   35.6241760
   6    37.6267288   58.8384185   32.9933833
   6    35.1697246   63.1809027   40.6202741
   6    33.0930181   63.0906577   42.1843605
   1    32.0454124   61.6789122   42.1727658
   6    32.5654044   65.0917421   43.7659874
   1    31.1662112   65.0297477   44.8246667
   6    34.1081476   67.1794095   43.7755010
   6    36.1478050   67.2913656   42.1427387
   1    37.1574452   68.7284843   42.1073602
   6    36.6908221   65.3017906   40.5771658
   1    38.0732993   65.3776487   39.4941081
   6    31.8941990   69.0091593   47.2078099
   1    31.9272422   70.4862997   48.2614351
   1    32.1918957   67.5356810   48.2227863
   1    30.2701177   68.8749689   46.4092667
   1    38.0536892   60.8235467   29.9805623
   1    36.8460514   62.1654504   32.0675964
   7    34.7371102   54.7844568   41.8020348
   7    35.7481614   61.0694316   39.0419174
   7    36.4302994   61.4712179   36.6177470
   7    37.5510699   60.8907726   31.5455406
   8    35.3926434   58.4018421   44.0270154
   8    38.4260619   56.7907729   32.3039485
   8    33.7977882   69.2042977   45.3351279

           -------------------------------------------------
          | TOTAL ENERGY             -193.673004964800 Eh   |
          | GRADIENT NORM               1.318053169565 Eh/ﾎｱ |
          | HOMO-LUMO GAP               3.089835229595 eV   |
           -------------------------------------------------

------------------------------------------------------------------------
 * finished run on 2026/10/03 at 08:18:47.799     
------------------------------------------------------------------------
 total:
 * wall-time:     0 d,  0 h,  0 min,  0.451 sec
 *  cpu-time:     0 d,  0 h,  0 min,  1.734 sec
 * ratio c/w:     3.846 speedup
 SCF:
 * wall-time:     0 d,  0 h,  0 min,  0.356 sec
 *  cpu-time:     0 d,  0 h,  0 min,  1.438 sec
 * ratio c/w:     4.038 speedup


-------------------------   --------------------
FINAL SINGLE POINT ENERGY      -193.673004964800
-------------------------   --------------------


-------------
DIPOLE MOMENT
-------------
                                X             Y             Z
Total Dipole Moment    :      0.00000      -0.00000       0.00000
                        -----------------------------------------
Magnitude (a.u.)       :      0.00000
Magnitude (Debye)      :      0.00000


--------------------------------
SUGGESTED CITATIONS FOR THIS RUN
--------------------------------

Below you find a list of papers that are relevant to this ORCA run
We neither can nor want to force you to cite these papers, but we appreciate if you do
You receive ORCA, which is the product of decades of hard work by many enthusiastic individuals, for free
The only thing we kindly ask in return is that you cite our papers,
We deeply appreciate it, if you show your appreciation for ORCA by not just citing the generic ORCA reference.

Please note that relegating all ORCA citations to the supporting information does *not* help us.
SI sections are not indexed - citations you put there will not count into any citation statistics
But we need these citations in order to attract the funding resources that allow us to do what we are doing

Therefore, if you are a happy ORCA user, please consider citing a few of the papers listed below in the main body of your paper

In addition to the list printed below, the program has created the file D3\D3_pull_+1.0A_XTB2_SP.bibtex that contains the list in bibtex format
You can import this file easily into all common literature databanks and citation aid programs

It goes without saying that in many instances, there are alternative algorithms to achieve similar
results as the ones you have gotten from ORCA. It is, of course, also the case that in some instances
ORCA just re-implements algorithms worked out by others. We are fully aware of that and we are also
fully appreciative of our colleagues work. Hence this citation list should not be read as indicating
that the listed papers, which are focused on our own work, are the only ones worth citing. It simply
meant to make it easier for users to cite ORCA specific papers. It is not a substitute for doing your
own literature research and citing the relevant literature in a scientifically appropriate manner.

List of essential papers. We consider these as the minimum necessary citations

  1. Bannwarth, C.; Ehlert, S.; Grimme, S.
     GFN2-xTB窶尿n Accurate and Broadly Parametrized Self-Consistent Tight-Binding Quantum Chemical Method with Multipole Electrostatics and Density-Dependent Dispersion Contributions
     J. Chem. Theory Comput. 2019 15(3), 1652-1671
     doi.org/10.1021/acs.jctc.8b01176
  2. Neese, F.
     Software update: the ORCA program system, version 6.0
     WIRES Comput. Molec. Sci. 2025 15(1), e70019
     doi.org/10.1002/wcms.70019

List of papers to cite with high priority. The work reported in these papers was absolutely
necessary for this run to complete.
Our perspective: the developers of density functionals and basis sets usually get cited in chemistry papers
Good! But without the algorithms to do something with them, the functionals or basis sets would not do anything.
Hence, in our opinion, the algorithm design and method developments papers are equally worthy of getting cited

  1. Bannwarth, C.; Caldeweyher, E.; Ehlert, S.; Hansen, A.; Pracht, P.; Seibert, J.; Spicher, S.; Grimme, S.
     Extended tight-binding quantum chemistry methods
     WIRES Comput. Molec. Sci. 2020 11(2), e1493
     doi.org/10.1002/wcms.1493

List of suggested additional citations. These are papers that are important in the 'surrounding' of 
of this run, or papers that preceded the highly important papers. If you like your results we are grateful for a citation.

  1. Neese, F.
     The ORCA program system
     WIRES Comput. Molec. Sci. 2012 2(1), 73-78
     doi.org/10.1002/wcms.81
  2. Neese, F.
     Software update: the ORCA program system, version 4.0
     WIRES Comput. Molec. Sci. 2018 8(1), 1-6
     doi.org/10.1002/wcms.1327
  3. Neese, F.; Wennmohs, F.; Becker, U.; Riplinger, C.
     The ORCA quantum chemistry program package
     J. Chem. Phys. 2020 152(22), 224108
     doi.org/10.1063/5.0004608
  4. Neese, F.
     Software update: The ORCA program system窶之ersion 5.0
     WIRES Comput. Molec. Sci. 2022 12(1), e1606
     doi.org/10.1002/wcms.1606

List of optional additional citations

  1. Neese, F.
     Approximate second-order SCF convergence for spin unrestricted wavefunctions
     Chem. Phys. Lett. 2000 325(1-3), 93-98
     doi.org/10.1016/s0009-2614(00)00662-x

Timings for individual modules:

Sum of individual times          ...        0.521 sec (=   0.009 min)
XTB module                       ...        0.521 sec (=   0.009 min) 100.0 %
                             ****ORCA TERMINATED NORMALLY****
TOTAL RUN TIME: 0 days 0 hours 0 minutes 0 seconds 977 msec
