3
* (null), Energy   -1000.0000000
O     0.000000    0.000000    0.067297    0.000000   -0.000000   -0.100990
H     0.000000    0.757187   -0.534070    0.000000   -1.162996    0.801461
H     0.000000   -0.757187   -0.534070    0.000000    1.162997    0.801462
3
* Frequency(7) 3786.7110
O     0.000000   -0.000000    0.055820    0.000000   -0.000000   -0.100990
H     0.000000    0.625019   -0.442988    0.000000   -1.162996    0.801461
H     0.000000   -0.625019   -0.442988    0.000000    1.162997    0.801462
3
* Frequency(7) 3786.7110
O     0.000000   -0.000000    0.045587    0.000000   -0.000000   -0.100990
H     0.000000    0.507173   -0.361776    0.000000   -1.162996    0.801461
H     0.000000   -0.507173   -0.361776    0.000000    1.162997    0.801462
3
* Frequency(7) 3786.7110
O     0.000000   -0.000000    0.037706    0.000000   -0.000000   -0.100990
H     0.000000    0.416420   -0.299235    0.000000   -1.162996    0.801461
H     0.000000   -0.416420   -0.299235    0.000000    1.162997    0.801462
3
* Frequency(7) 3786.7110
O     0.000000   -0.000000    0.033032    0.000000   -0.000000   -0.100990
H     0.000000    0.362594   -0.262142    0.000000   -1.162996    0.801461
H     0.000000   -0.362594   -0.262142    0.000000    1.162997    0.801462
3
* Frequency(7) 3786.7110
O     0.000000   -0.000000    0.032071    0.000000   -0.000000   -0.100990
H     0.000000    0.351529   -0.254517    0.000000   -1.162996    0.801461
H     0.000000   -0.351529   -0.254516    0.000000    1.162997    0.801462
3
* Frequency(7) 3786.7110
O     0.000000   -0.000000    0.034927    0.000000   -0.000000   -0.100990
H     0.000000    0.384423   -0.277185    0.000000   -1.162996    0.801461
H     0.000000   -0.384423   -0.277185    0.000000    1.162997    0.801462
3
* Frequency(7) 3786.7110
O     0.000000   -0.000000    0.041292    0.000000   -0.000000   -0.100990
H     0.000000    0.457712   -0.327691    0.000000   -1.162996    0.801461
H     0.000000   -0.457712   -0.327691    0.000000    1.162997    0.801462
3
* Frequency(7) 3786.7110
O     0.000000   -0.000000    0.050474    0.000000   -0.000000   -0.100990
H     0.000000    0.563454   -0.400561    0.000000   -1.162996    0.801461
H     0.000000   -0.563453   -0.400561    0.000000    1.162997    0.801462
3
* Frequency(7) 3786.7110
O     0.000000   -0.000000    0.061479    0.000000   -0.000000   -0.100990
H     0.000000    0.690189   -0.487899    0.000000   -1.162996    0.801461
H     0.000000   -0.690189   -0.487899    0.000000    1.162997    0.801462
3
* Frequency(7) 3786.7110
O     0.000000    0.000000    0.073115    0.000000   -0.000000   -0.100990
H     0.000000    0.824185   -0.580240    0.000000   -1.162996    0.801461
H     0.000000   -0.824185   -0.580240    0.000000    1.162997    0.801462
3
* Frequency(7) 3786.7110
O     0.000000    0.000000    0.084120    0.000000   -0.000000   -0.100990
H     0.000000    0.950921   -0.667578    0.000000   -1.162996    0.801461
H     0.000000   -0.950921   -0.667579    0.000000    1.162997    0.801462
3
* Frequency(7) 3786.7110
O     0.000000    0.000000    0.093302    0.000000   -0.000000   -0.100990
H     0.000000    1.056663   -0.740449    0.000000   -1.162996    0.801461
H     0.000000   -1.056663   -0.740449    0.000000    1.162997    0.801462
3
* Frequency(7) 3786.7110
O     0.000000    0.000000    0.099667    0.000000   -0.000000   -0.100990
H     0.000000    1.129951   -0.790955    0.000000   -1.162996    0.801461
H     0.000000   -1.129952   -0.790955    0.000000    1.162997    0.801462
3
* Frequency(7) 3786.7110
O     0.000000    0.000000    0.102523    0.000000   -0.000000   -0.100990
H     0.000000    1.162845   -0.813623    0.000000   -1.162996    0.801461
H     0.000000   -1.162846   -0.813623    0.000000    1.162997    0.801462
3
* Frequency(7) 3786.7110
O     0.000000    0.000000    0.101562    0.000000   -0.000000   -0.100990
H     0.000000    1.151780   -0.805998    0.000000   -1.162996    0.801461
H     0.000000   -1.151781   -0.805998    0.000000    1.162997    0.801462
3
* Frequency(7) 3786.7110
O     0.000000    0.000000    0.096888    0.000000   -0.000000   -0.100990
H     0.000000    1.097955   -0.768904    0.000000   -1.162996    0.801461
H     0.000000   -1.097955   -0.768905    0.000000    1.162997    0.801462
3
* Frequency(7) 3786.7110
O     0.000000    0.000000    0.089007    0.000000   -0.000000   -0.100990
H     0.000000    1.007202   -0.706363    0.000000   -1.162996    0.801461
H     0.000000   -1.007202   -0.706364    0.000000    1.162997    0.801462
3
* Frequency(7) 3786.7110
O     0.000000    0.000000    0.078774    0.000000   -0.000000   -0.100990
H     0.000000    0.889356   -0.625152    0.000000   -1.162996    0.801461
H     0.000000   -0.889356   -0.625152    0.000000    1.162997    0.801462
3
* Frequency(7) 3786.7110
O     0.000000    0.000000    0.067297    0.000000   -0.000000   -0.100990
H     0.000000    0.757187   -0.534070    0.000000   -1.162996    0.801461
H     0.000000   -0.757187   -0.534070    0.000000    1.162997    0.801462
