3
* (null), Energy   -1000.0000000
O     0.000000    0.000000    0.067297    0.000000   -0.139207    0.000000
H     0.000000    0.757187   -0.534070    0.000000    1.104750   -0.877405
H     0.000000   -0.757187   -0.534070    0.000000    1.104749    0.877404
3
* Frequency(8) 3881.7241
O     0.000000   -0.015820    0.067297    0.000000   -0.139207    0.000000
H     0.000000    0.882736   -0.633782    0.000000    1.104750   -0.877405
H     0.000000   -0.631638   -0.434357    0.000000    1.104749    0.877404
3
* Frequency(8) 3881.7241
O     0.000000   -0.029926    0.067297    0.000000   -0.139207    0.000000
H     0.000000    0.994680   -0.722689    0.000000    1.104750   -0.877405
H     0.000000   -0.519695   -0.345450    0.000000    1.104749    0.877404
3
* Frequency(8) 3881.7241
O     0.000000   -0.040789    0.067297    0.000000   -0.139207    0.000000
H     0.000000    1.080888   -0.791157    0.000000    1.104750   -0.877405
H     0.000000   -0.433487   -0.276983    0.000000    1.104749    0.877404
3
* Frequency(8) 3881.7241
O     0.000000   -0.047232    0.067297    0.000000   -0.139207    0.000000
H     0.000000    1.132018   -0.831765    0.000000    1.104750   -0.877405
H     0.000000   -0.382357   -0.236375    0.000000    1.104749    0.877404
3
* Frequency(8) 3881.7241
O     0.000000   -0.048556    0.067297    0.000000   -0.139207    0.000000
H     0.000000    1.142529   -0.840113    0.000000    1.104750   -0.877405
H     0.000000   -0.371846   -0.228027    0.000000    1.104749    0.877404
3
* Frequency(8) 3881.7241
O     0.000000   -0.044619    0.067297    0.000000   -0.139207    0.000000
H     0.000000    1.111283   -0.815296    0.000000    1.104750   -0.877405
H     0.000000   -0.403092   -0.252844    0.000000    1.104749    0.877404
3
* Frequency(8) 3881.7241
O     0.000000   -0.035846    0.067297    0.000000   -0.139207    0.000000
H     0.000000    1.041664   -0.760005    0.000000    1.104750   -0.877405
H     0.000000   -0.472711   -0.308135    0.000000    1.104749    0.877404
3
* Frequency(8) 3881.7241
O     0.000000   -0.023189    0.067297    0.000000   -0.139207    0.000000
H     0.000000    0.941218   -0.680229    0.000000    1.104750   -0.877405
H     0.000000   -0.573156   -0.387910    0.000000    1.104749    0.877404
3
* Frequency(8) 3881.7241
O     0.000000   -0.008019    0.067297    0.000000   -0.139207    0.000000
H     0.000000    0.820830   -0.584615    0.000000    1.104750   -0.877405
H     0.000000   -0.693545   -0.483524    0.000000    1.104749    0.877404
3
* Frequency(8) 3881.7241
O     0.000000    0.008019    0.067297    0.000000   -0.139207    0.000000
H     0.000000    0.693545   -0.483524    0.000000    1.104750   -0.877405
H     0.000000   -0.820830   -0.584615    0.000000    1.104749    0.877404
3
* Frequency(8) 3881.7241
O     0.000000    0.023189    0.067297    0.000000   -0.139207    0.000000
H     0.000000    0.573156   -0.387910    0.000000    1.104750   -0.877405
H     0.000000   -0.941218   -0.680229    0.000000    1.104749    0.877404
3
* Frequency(8) 3881.7241
O     0.000000    0.035846    0.067297    0.000000   -0.139207    0.000000
H     0.000000    0.472710   -0.308135    0.000000    1.104750   -0.877405
H     0.000000   -1.041664   -0.760004    0.000000    1.104749    0.877404
3
* Frequency(8) 3881.7241
O     0.000000    0.044619    0.067297    0.000000   -0.139207    0.000000
H     0.000000    0.403092   -0.252843    0.000000    1.104750   -0.877405
H     0.000000   -1.111282   -0.815296    0.000000    1.104749    0.877404
3
* Frequency(8) 3881.7241
O     0.000000    0.048556    0.067297    0.000000   -0.139207    0.000000
H     0.000000    0.371845   -0.228027    0.000000    1.104750   -0.877405
H     0.000000   -1.142529   -0.840112    0.000000    1.104749    0.877404
3
* Frequency(8) 3881.7241
O     0.000000    0.047232    0.067297    0.000000   -0.139207    0.000000
H     0.000000    0.382356   -0.236375    0.000000    1.104750   -0.877405
H     0.000000   -1.132018   -0.831764    0.000000    1.104749    0.877404
3
* Frequency(8) 3881.7241
O     0.000000    0.040789    0.067297    0.000000   -0.139207    0.000000
H     0.000000    0.433486   -0.276983    0.000000    1.104750   -0.877405
H     0.000000   -1.080888   -0.791156    0.000000    1.104749    0.877404
3
* Frequency(8) 3881.7241
O     0.000000    0.029926    0.067297    0.000000   -0.139207    0.000000
H     0.000000    0.519694   -0.345450    0.000000    1.104750   -0.877405
H     0.000000   -0.994680   -0.722689    0.000000    1.104749    0.877404
3
* Frequency(8) 3881.7241
O     0.000000    0.015820    0.067297    0.000000   -0.139207    0.000000
H     0.000000    0.631638   -0.434357    0.000000    1.104750   -0.877405
H     0.000000   -0.882736   -0.633782    0.000000    1.104749    0.877404
3
* Frequency(8) 3881.7241
O     0.000000    0.000000    0.067297    0.000000   -0.139207    0.000000
H     0.000000    0.757187   -0.534070    0.000000    1.104750   -0.877405
H     0.000000   -0.757187   -0.534070    0.000000    1.104749    0.877404
