
                                 *****************
                                 * O   R   C   A *
                                 *****************

                                            #,                                       
                                            ###                                      
                                            ####                                     
                                            #####                                    
                                            ######                                   
                                           ########,                                 
                                     ,,################,,,,,                         
                               ,,#################################,,                 
                          ,,##########################################,,             
                       ,#########################################, ''#####,          
                    ,#############################################,,   '####,        
                  ,##################################################,,,,####,       
                ,###########''''           ''''###############################       
              ,#####''   ,,,,##########,,,,          '''####'''          '####       
            ,##' ,,,,###########################,,,                        '##       
           ' ,,###''''                  '''############,,,                           
         ,,##''                                '''############,,,,        ,,,,,,###''
      ,#''                                            '''#######################'''  
     '                                                          ''''####''''         
             ,#######,   #######,   ,#######,      ##                                
            ,#'     '#,  ##    ##  ,#'     '#,    #''#        ,####,    ,#,          
            ##       ##  ##   ,#'  ##            #'  '#       #'       ,# #          
            ##       ##  #######   ##           ,######,      #####,      #          
            '#,     ,#'  ##    ##  '#,     ,#' ,#      #,     #,   #      #          
             '#######'   ##     ##  '#######'  #'      '#     '####' #    #          



                #########################################################
                #                        -***-                          #
                #          Department of theory and spectroscopy        #
                #                                                       #
                #                      Frank Neese                      #
                #                                                       #
                #     Directorship, Architecture, Infrastructure        #
                #                    SHARK, DRIVERS                     #
                #        Core code/Algorithms in most modules           #
                #                                                       #
                #        Max Planck Institute fuer Kohlenforschung      #
                #                Kaiser Wilhelm Platz 1                 #
                #                 D-45470 Muelheim/Ruhr                 #
                #                      Germany                          #
                #                                                       #
                #                  All rights reserved                  #
                #                        -***-                          #
                #########################################################


                         Program Version 6.1.1  -  RELEASE   -


 With contributions from (in alphabetic order):
[Max-Planck-Institut fuer Kohlenforschung]                               
  Daniel Aravena         : Magnetic Suceptibility                        
  Michael Atanasov       : Ab Initio Ligand Field Theory (pilot matlab implementation)
  Alexander A. Auer      : GIAO ZORA, VPT2 properties, NMR spectrum      
  Ute Becker             : All parallelization in ORCA, NUMFREQ, NUMCALC 
  Giovanni Bistoni       : ED, misc. LED, open-shell LED, HFLD           
  Dmytro Bykov           : pre 5.0 version of the SCF Hessian            
  Marcos Casanova-Pﾃ｡ez   : Triplet and SCS-CIS(D). UHF-(DLPNO)-IP/EA/STEOM-CCSD. UHF-CVS-IP/STEOM-CCSD   
  Vijay G. Chilkuri      : MRCI spin determinant printing, contributions to CSF-ICE 
  Pauline Colinet        : FMM embedding                                 
  Dipayan Datta          : RHF DLPNO-CCSD density                        
  Achintya Kumar Dutta   : EOM-CC, STEOM-CC                              
  Nicolas Foglia         : Exact transition moments, OPA infrastructure, MCD improvements    
  Dmitry Ganyushin       : Spin-Orbit,Spin-Spin,Magnetic field MRCI      
  Miquel Garcia-Rates    : C-PCM and meta-GGA Hessian, CCSD/C-PCM, Gaussian charge scheme 
  Tiago L. C. Gouveia    : GS-ROHF, GS-ROCIS                             
  Yang Guo               : DLPNO-NEVPT2, F12-NEVPT2, CIM, IAO-localization        
  Andreas Hansen         : Spin unrestricted coupled pair/coupled cluster methods 
  Ingolf Harden          : AUTO-CI MPn and infrastructure                
  Benjamin Helmich-Paris : MC-RPA, TRAH-(SCF,CASSCF), AVAS, COSX integrals, SCF dyn. polar., MC-PDFT, srDFT 
  Lee Huntington         : MR-EOM, pCC                                   
  Robert Izsak           : Overlap fitted RIJCOSX, COSX-SCS-MP3, EOM     
  Riya Kayal             : Wick's Theorem for AUTO-CI, AUTO-CI UHF-CCSDT 
  Emily Kempfer          : AUTO-CI RHF CISDT and CCSDT, approximate NEVPT4
  Christian Kollmar      : KDIIS, OOCD, Brueckner-CCSD(T), CCSD density, CASPT2, CASPT2-K, improved NEVPT2 
  Axel Koslowski         : Symmetry handling                             
  Simone Kossmann        : meta-GGA functionals, TD-DFT gradient, OOMP2, (MP2 Hessian; deprecated post 5.0) 
  Lucas Lang             : DCDCAS, Hyperfine gauge corrections, ICE-SOC+SSC
  Marvin Lechner         : AUTO-CI (C++ implementation), FIC-MRCC        
  Spencer Leger          : CASSCF response                               
  Dagmar Lenk            : GEPOL surface, SMD, ORCA-2-JSON               
  Dimitrios Liakos       : Extrapolation schemes; Compound Job, Property file
  Dimitrios Manganas     : Further ROCIS development; embedding schemes. LFT, Crystal Embedding 
  Dimitrios Pantazis     : SARC Basis sets                               
  Anastasios Papadopoulos: AUTO-CI, single reference methods and gradients 
  Taras Petrenko         : pre 6.0 DFT Hessian and TD-DFT gradient,  ECA, NRVS 
  Petra Pikulova         : Analytic Raman intensities                    
  Peter Pinski           : DLPNO-MP2, DLPNO-MP2 Gradient                 
  Shashank Vittal Rao    : ES-AILFT, MagRelax                            
  Christoph Reimann      : Effective Core Potentials                     
  Marius Retegan         : Local ZFS, SOC                                
  Christoph Riplinger    : Optimizer, TS searches, QM/MM, DLPNO-CCSD(T), (RO)-DLPNO pert. Triples 
  Michael Roemelt        : Original ROCIS implementation, recursive CI coupling coefficients
  Masaaki Saitow         : Open-shell DLPNO-CCSD energy and density      
  Barbara Sandhoefer     : DKH picture change effects                    
  Yorick L. A. Schmerwitz: GMF and freeze-and-release deltaSCF, NEB S-IDPP initial path                    
  Kantharuban Sivalingam : CASSCF convergence/infrastructure, NEVPT2, NEVPT3, NEVPT4(SD), FIC-MRCI and CEPA variants
  Bernardo de Souza      : ESD, SOC TD-DFT                               
  Georgi L. Stoychev     : AutoAux, RI-MP2 NMR, DLPNO-MP2 response, X2C  
  Van Anh Tran           : RI-MP2 g-tensors                              
  Willem Van den Heuvel  : Paramagnetic NMR                              
  Zikuan Wang            : NOTCH, Electric field optimization            
  Frank Wennmohs         : Technical directorship and infrastructure     
  Hang Xu                : AUTO-CI-Response properties                   
                                                                         
[FACCTs GmbH]                                                            
  Markus Bursch, Nicolas Foglia, Miquel Garcia-Rates, Ingolf Harden, Hagen Neugebauer, Anastasios Papadopoulos, 
  Christoph Riplinger, Bernardo de Souza, Georgi L. Stoychev                                                    
                                                                 
  APM, various basis sets, CI-OPT, improved COSX, DLPNO-Multilevel,           
  DOCKER, DRACO, updates on ESD, Fragmentator, GOAT, IRC, LR-CPCM, L-BFGS, MBIS, meta-GGA TD-DFT gradient, ML-optimized integration grids, 
  MM, NACMEs, nearIR, NEB, NEB-TS, NL-DFT gradient (VV10), 2- and 3-layer-ONIOM, interface openCOSMO-RS, QMMM,   
  Crystal-QMMM, RESP, rigid body optimization, SF, symmetry and pop. for TD-DFT, various functionals, SOLVATOR                                   
                                                                         
[Other institutions]                                                     
  V. Asgeirsson          : NEB                                           
  Christoph Bannwarth    : sTDA-DFT, sTD-DFT, PBEh-3c, B97-3c, D3        
  Giovanni Bistoni       : ETS/NOCV, ADLD/ADEX, COVALED                  
  Martin Brehm           : Molecular dynamics                            
  Ronald Cardenas        : ETS/NOCV                                      
  Martina Colucci        : COVALED                                       
  Sebastian Ehlert       : rSCAN, r2SCAN, r2SCAN-3c, D4, dhf basis sets  
  Marvin Friede          : D4 for Fr, Ra, Ac-Lr                          
  Lars Goerigk           : TD-DFT with DH, B97 family of functionals     
  Stefan Grimme          : VdW corrections, initial TS optimization, DFT functionals, gCP, sTDA/sTD-DF 
  Waldemar Hujo          : DFT-NL                                        
  H. Jonsson             : NEB                                           
  Holger Kruse           : gCP                                           
  Marcel Mueller         : wB97X-3c, vDZP basis set                      
  Hagen Neugebauer       : wr2SCAN, Native XTB                           
  Gianluca Regni         : ADLD/ADEX                                     
  Tobias Risthaus        : pre 6.0 range-separated hybrid DFT and stability analysis
  Lukas Wittmann         : regularized MP2, r2SCAN double-hybrids, wr2SCAN        
                                                                         
We gratefully acknowledge several colleagues who have allowed us to      
interface, adapt or use parts of their codes:                            
  Ed Valeev, F. Pavosevic, A. Kumar             : LibInt (2-el integral package), F12 methods 
  Garnet Chan, S. Sharma, J. Yang, R. Olivares  : DMRG                   
  Ulf Ekstrom                                   : XCFun DFT Library      
  Mihaly Kallay                                 : mrcc  (arbitrary order and MRCC methods)
  Frank Weinhold                                : gennbo (NPA and NBO analysis)           
  Simon Mueller                                 : openCOSMO-RS                            
  Christopher J. Cramer and Donald G. Truhlar   : smd solvation model                     
  S Lehtola, MJT Oliveira, MAL Marques          : LibXC Library                           
  Liviu Ungur et al                             : ANISO software                          


 Your calculation uses the libint2 library for the computation of 2-el integrals
 For citations please refer to: http://libint.valeyev.net

 Your ORCA version has been built with support for libXC version: 7.0.0
 For citations please refer to: https://libxc.gitlab.io

 This ORCA versions uses:
   CBLAS   interface :  Fast vector & matrix operations
   LAPACKE interface :  Fast linear algebra routines
   Shared memory     :  Shared parallel matrices


  ***********************************
  * Starting time: Sat Oct  3 09:28:19 2026
  * Host name:     DESKTOP-2KDTO5M
  * Process ID:    2264
  * Working dir.:  C:\Users\naoki\Downloads\デスクトップ\data\Molecules\Calculations\Apixaban\CrystalFragment
  ***********************************

NOTE: MaxCore=2000 MB was set to SCF,MP2,MDCI,CIPSI,MRCI,RASCI and CIS
      => If you want to overwrite this, your respective input block should be placed after the MaxCore statement
Your calculation utilizes the semiempirical GFN2-xTB method
Please cite in your paper:
Bannwarth, C.; Ehlert S.; Grimme, S. J. Chem. Theory Comput. 2019, 15, 1652.
   

================================================================================

================================================================================
                                        WARNINGS
                       Please study these warnings very carefully!
================================================================================


WARNING: Found dipole moment calculation with XTB calculation
  ===> : Switching off dipole moment calculation

Environment variable XTBEXE for xtb has been set!

================================================================================
                                       INPUT FILE
================================================================================
NAME = D2\D2_pull_+8.0A_XTB2_SP.inp
|  1> # D2 pull-apart: molecule B displaced +8.0 A along centroid vector (rigid), XTB2 single point
|  2> 
|  3> ! XTB2
|  4> 
|  5> %pal
|  6>   nprocs 4
|  7> end
|  8> 
|  9> %maxcore 2000
| 10> 
| 11> * xyz 0 1
| 12> H     13.42313039    27.56674130    21.56590380
| 13> C     12.24552212    27.15147530    23.13646418
| 14> H     12.65976143    26.35001192    23.36253803
| 15> C     11.17378631    27.59954731    23.86974896
| 16> C     10.96248270    27.50888090    26.33925576
| 17> H     11.85937665    27.29958684    26.64273277
| 18> C     10.50027590    25.53041526    24.91642213
| 19> C     10.28850978    24.88453821    26.22157779
| 20> C      9.95858159    25.55450069    27.36500490
| 21> C      9.96347671    27.04309087    27.38120922
| 22> H      9.07878487    27.38264004    27.17291292
| 23> H     10.21911492    27.36741362    28.25844499
| 24> C      9.67593669    24.55537069    28.29730390
| 25> C      9.20491770    24.72895188    29.68945945
| 26> C     10.50510832    22.43100826    25.65348267
| 27> C     11.60405407    22.47876385    24.82580380
| 28> H     12.15842317    23.22582738    24.83193942
| 29> C     11.88325522    21.41983555    23.98884284
| 30> H     12.62367639    21.45264156    23.42861390
| 31> C     11.06687070    20.31508956    23.98380849
| 32> C      9.98753047    20.25584495    24.84782909
| 33> H      9.45325189    19.49535448    24.86655058
| 34> C      9.70017823    21.30868268    25.67629458
| 35> H      8.96860279    21.26854030    26.24942405
| 36> C     12.23844184    19.34682767    22.16750882
| 37> H     12.22095615    18.56515864    21.60995437
| 38> H     12.08090755    20.12655880    21.63040643
| 39> H     13.09786863    19.41783816    22.59007971
| 40> H      8.97897997    23.67846732    31.28377568
| 41> H      9.61803440    22.96836246    30.17936479
| 42> N     10.73403801    26.87421603    25.02812181
| 43> N     10.19901274    23.54835064    26.48871307
| 44> N      9.83804090    23.33573445    27.77152880
| 45> N      9.24495466    23.64289287    30.45562483
| 46> O     10.38714479    24.95997820    23.85071282
| 47> O      8.78192884    25.81251929    30.05429261
| 48> O     11.23110584    19.24356486    23.15848947
| 49> C     11.75235738    30.11439821    19.52054112
| 50> H     11.05818695    30.73106822    19.80388073
| 51> H     11.32147613    29.28178988    19.27212733
| 52> C     12.41998786    30.67016254    18.33699652
| 53> H     12.85945434    29.94898392    17.85778917
| 54> H     11.74999586    31.04943882    17.74766273
| 55> C     13.41651570    31.70694332    18.65683517
| 56> H     13.87408166    31.97271356    17.84363006
| 57> H     12.96292215    32.48764340    19.01254358
| 58> C     14.41923773    31.22412738    19.65111962
| 59> H     15.07284560    30.67985208    19.18559942
| 60> H     14.88650136    31.99347686    20.01154773
| 61> C     13.86975067    30.42640140    20.79486138
| 62> C     11.03304735    29.52499733    22.46044515
| 63> H     10.62115078    30.32826020    22.23452862
| 64> C     12.12018061    29.08315431    21.73785837
| 65> C     12.70791857    27.88386610    22.06886699
| 66> C     10.55371227    28.77862591    23.51750167
| 67> H      9.81065253    29.07277266    23.99340522
| 68> H     10.89656743    28.47202118    26.24313111
| 69> N     12.64982471    29.86150122    20.65437150
| 70> O     14.52451648    30.28493411    21.82391432
| 71> C     -0.40579377    29.63295832    27.25073848
| 72> H      0.28837666    29.01628831    26.96739888
| 73> H      0.02508749    30.46556665    27.49915227
| 74> C     -1.07342425    29.07719399    28.43428309
| 75> H     -1.51289073    29.79837261    28.91349043
| 76> H     -0.40343225    28.69791771    29.02361687
| 77> C     -2.06995209    28.04041321    28.11444443
| 78> H     -2.52751805    27.77464297    28.92764955
| 79> H     -1.61635854    27.25971313    27.75873603
| 80> C     -3.07267412    28.52322915    27.12015999
| 81> H     -3.72628199    29.06750445    27.58568019
| 82> H     -3.53993775    27.75387967    26.75973187
| 83> C     -2.52318706    29.32095513    25.97641823
| 84> C      0.31351627    30.22235920    24.31083445
| 85> H      0.72541284    29.41909633    24.53675098
| 86> C     -0.77361699    30.66420222    25.03342124
| 87> C     -1.36135496    31.86349043    24.70241262
| 88> C      0.79285134    30.96873062    23.25377793
| 89> H      1.53591108    30.67458387    22.77787438
| 90> H      0.44999618    31.27533535    20.52814850
| 91> N     -1.30326110    29.88585531    26.11690810
| 92> O     -3.17795287    29.46242242    24.94736529
| 93> H     -2.07656678    32.18061523    25.20537581
| 94> C     -0.89895850    32.59588123    23.63481542
| 95> H     -1.31319781    33.39734461    23.40874157
| 96> C      0.17277730    32.14780922    22.90153064
| 97> C      0.38408092    32.23847563    20.43202385
| 98> H     -0.51281304    32.44776969    20.12854684
| 99> C      0.84628771    34.21694127    21.85485748
|100> C      1.05805383    34.86281832    20.54970182
|101> C      1.38798202    34.19285584    19.40627470
|102> C      1.38308691    32.70426566    19.39007038
|103> H      2.26777874    32.36471649    19.59836668
|104> H      1.12744869    32.37994291    18.51283461
|105> C      1.67062692    35.19198584    18.47397571
|106> C      2.14164591    35.01840465    17.08182016
|107> C      0.84145529    37.31634827    21.11779693
|108> C     -0.25749046    37.26859268    21.94547580
|109> H     -0.81185956    36.52152915    21.93934019
|110> C     -0.53669161    38.32752098    22.78243676
|111> H     -1.27711278    38.29471497    23.34266571
|112> C      0.27969291    39.43226697    22.78747111
|113> C      1.35903314    39.49151158    21.92345052
|114> H      1.89331172    40.25200205    21.90472902
|115> C      1.64638538    38.43867385    21.09498503
|116> H      2.37796082    38.47881623    20.52185556
|117> C     -0.89187823    40.40052886    24.60377079
|118> H     -0.87439254    41.18219789    25.16132523
|119> H     -0.73434394    39.62079773    25.14087318
|120> H     -1.75130502    40.32951837    24.18119990
|121> H      2.36758364    36.06888921    15.48750393
|122> H      1.72852921    36.77899407    16.59191482
|123> N      0.61252560    32.87314050    21.74315780
|124> N      1.14755087    36.19900589    20.28256653
|125> N      1.50852271    36.41162208    18.99975081
|126> N      2.10160895    36.10446366    16.31565477
|127> O      0.95941882    34.78737833    22.92056679
|128> O      2.56463478    33.93483724    16.71698699
|129> O      0.11545777    40.50379167    23.61279014
|130> *
|131> 
|132>                          ****END OF INPUT****
================================================================================

                       ****************************
                       * Single Point Calculation *
                       ****************************

      -----------------------------------------------------------      
     |                   =====================                   |     
     |                           x T B                           |     
     |                   =====================                   |     
     |                         S. Grimme                         |     
     |          Mulliken Center for Theoretical Chemistry        |     
     |                    University of Bonn                     |     
      -----------------------------------------------------------      

   * xtb version 6.7.1pre (5071a88) compiled by 'Marcel@Raven' on 2024-07-23

   xtb is free software: you can redistribute it and/or modify it under
   the terms of the GNU Lesser General Public License as published by
   the Free Software Foundation, either version 3 of the License, or
   (at your option) any later version.
   
   xtb is distributed in the hope that it will be useful,
   but WITHOUT ANY WARRANTY; without even the implied warranty of
   MERCHANTABILITY or FITNESS FOR A PARTICULAR PURPOSE.  See the
   GNU Lesser General Public License for more details.
   
   Cite this work as:
   * C. Bannwarth, E. Caldeweyher, S. Ehlert, A. Hansen, P. Pracht,
     J. Seibert, S. Spicher, S. Grimme, WIREs Comput. Mol. Sci., 2020, 11,
     e01493. DOI: 10.1002/wcms.1493
   
   for GFN2-xTB:
   * C. Bannwarth, S. Ehlert and S. Grimme., J. Chem. Theory Comput., 2019,
     15, 1652-1671. DOI: 10.1021/acs.jctc.8b01176
   for GFN1-xTB:
   * S. Grimme, C. Bannwarth, P. Shushkov, J. Chem. Theory Comput., 2017,
     13, 1989-2009. DOI: 10.1021/acs.jctc.7b00118
   for GFN0-xTB:
   * P. Pracht, E. Caldeweyher, S. Ehlert, S. Grimme, ChemRxiv, 2019, preprint.
     DOI: 10.26434/chemrxiv.8326202.v1
   for GFN-FF:
   * S. Spicher and S. Grimme, Angew. Chem. Int. Ed., 2020, 59, 15665-15673.
     DOI: 10.1002/anie.202004239
   
   for ALPB and GBSA implicit solvation:
   * S. Ehlert, M. Stahn, S. Spicher, S. Grimme, J. Chem. Theory Comput.,
     2021, 17, 4250-4261. DOI: 10.1021/acs.jctc.1c00471
   
   for ddCOSMO and CPCM-X implicit solvation:
   * M. Stahn, S. Ehlert, S. Grimme, J. Phys. Chem. A,
     2023, XX, XXXX-XXXX. DOI: 10.1021/acs.jpca.3c04382
   
   for DFT-D4:
   * E. Caldeweyher, C. Bannwarth and S. Grimme, J. Chem. Phys., 2017,
     147, 034112. DOI: 10.1063/1.4993215
   * E. Caldeweyher, S. Ehlert, A. Hansen, H. Neugebauer, S. Spicher,
     C. Bannwarth and S. Grimme, J. Chem. Phys., 2019, 150, 154122.
     DOI: 10.1063/1.5090222
   * E. Caldeweyher, J.-M. Mewes, S. Ehlert and S. Grimme, Phys. Chem. Chem. Phys.
     2020, 22, 8499-8512. DOI: 10.1039/D0CP00502A
   
   for sTDA-xTB:
   * S. Grimme and C. Bannwarth, J. Chem. Phys., 2016, 145, 054103.
     DOI: 10.1063/1.4959605
   
   in the mass-spec context:
   * V. Asgeirsson, C. Bauer and S. Grimme, Chem. Sci., 2017, 8, 4879.
     DOI: 10.1039/c7sc00601b
   * J. Koopman and S. Grimme, ACS Omega 2019, 4, 12, 15120-15133.
     DOI: 10.1021/acsomega.9b02011
   
   for metadynamics refer to:
   * S. Grimme, J. Chem. Theory Comput., 2019, 155, 2847-2862
     DOI: 10.1021/acs.jctc.9b00143
   
   for SPH calculations refer to:
   * S. Spicher and S. Grimme, J. Chem. Theory Comput., 2021, 17, 1701-1714
     DOI: 10.1021/acs.jctc.0c01306
   
   for ONIOM refer to:
   * C. Plett, A. Katbashev, S. Ehlert, S. Grimme, M. Bursch,
     Phys. Chem. Chem. Phys., 2023, 25, 17860-17868. DOI: 10.1039/D3CP02178E
   
   for DIPRO refer to:
   * J. Kohn, N. Gildemeister, S. Grimme, D. Fazzi, A. Hansen,
     J. Chem. Phys., 2023, just accepted.
   
   for PTB refer to:
   * S. Grimme, M. Mueller, A. Hansen, J. Chem. Phys., 2023, 158, 124111.
     DOI: 10.1063/5.0137838
   
   with help from (in alphabetical order)
   P. Atkinson, C. Bannwarth, F. Bohle, G. Brandenburg, E. Caldeweyher
   M. Checinski, S. Dohm, S. Ehlert, S. Ehrlich, I. Gerasimov, C. Hﾃｶlzer
   A. Katbashev, J. Kohn, J. Koopman, C. Lavigne, S. Lehtola, F. Mﾃ､rz, M. Mﾃｼller,
   F. Musil, H. Neugebauer, J. Pisarek, C. Plett, P. Pracht, F. Pultar,
   J. Seibert, P. Shushkov, S. Spicher, M. Stahn, M. Steiner, T. Strunk,
   J. Stﾃｼckrath, T. Rose, and J. Unsleber
   
 * started run on 2026/10/03 at 09:28:20.332     
   ID    Z sym.   atoms
    1    1 H      1, 3, 6, 11, 12, 17, 19, 22, 24, 26-30, 39, 40, 42, 43, 45,
                  46, 48, 49, 52, 56, 57, 61, 62, 64, 65, 67, 68, 70, 71, 74,
                  78, 79, 82, 84, 87, 92, 93, 98, 100, 103, 105, 107-111
    2    6 C      2, 4, 5, 7-10, 13-16, 18, 20, 21, 23, 25, 38, 41, 44, 47,
                  50, 51, 53-55, 60, 63, 66, 69, 72, 73, 75-77, 83, 85, 86,
                  88-91, 94-97, 99, 101, 102, 104, 106
    3    7 N      31-34, 58, 80, 112-115
    4    8 O      35-37, 59, 81, 116-118

           -------------------------------------------------
          |                Calculation Setup                |
           -------------------------------------------------

          program call               : C:\ORCA_6.1.1\xtb-6.7.1pre\xtb.exe  D2\D2_pull_+8.0A_XTB2_SP_XTB.xyz --grad -c 0 -u 0 -P 4 --namespace D2\D2_pull_+8.0A_XTB2_SP --input D2\D2_pull_+8.0A_XTB2_SP_XTB.input.tmp --acc 1.000000      
          calculation namespace      : D2\D2_pull_+8.0A_XTB2_SP
          coordinate file            : D2\D2_pull_+8.0A_XTB2_SP_XTB.xyz
          omp threads                :                     4


molecular fragmentation (1/2 indicates fragments):
111111111111111111111111111111111111111111111111111111111112222222222222
2222222222222222222222222222222222222222222222
# atoms in fragment 1/2:    59    59
 fragment masses (1/2) :      459.50      459.50
CMA distance (Bohr)    :  26.068
constraining FC (au)   :  0.0500

           -------------------------------------------------
          |                 G F N 2 - x T B                 |
           -------------------------------------------------

        Reference                      10.1021/acs.jctc.8b01176
      * Hamiltonian:
        H0-scaling (s, p, d)           1.850000    2.230000    2.230000
        zeta-weighting                 0.500000
      * Dispersion:
        s8                             2.700000
        a1                             0.520000
        a2                             5.000000
        s9                             5.000000
      * Repulsion:
        kExp                           1.500000    1.000000
        rExp                           1.000000
      * Coulomb:
        alpha                          2.000000
        third order                    shell-resolved
        anisotropic                    true
        a3                             3.000000
        a5                             4.000000
        cn-shift                       1.200000
        cn-exp                         4.000000
        max-rad                        5.000000


          ...................................................
          :                      SETUP                      :
          :.................................................:
          :  # basis functions                 322          :
          :  # atomic orbitals                 322          :
          :  # shells                          186          :
          :  # electrons                       348          :
          :  max. iterations                   250          :
          :  Hamiltonian                  GFN2-xTB          :
          :  restarted?                      false          :
          :  GBSA solvation                  false          :
          :  PC potential                    false          :
          :  electronic temp.          300.0000000     K    :
          :  accuracy                    1.0000000          :
          :  -> integral cutoff          0.2500000E+02      :
          :  -> integral neglect         0.1000000E-07      :
          :  -> SCF convergence          0.1000000E-05 Eh   :
          :  -> wf. convergence          0.1000000E-03 e    :
          :  Broyden damping             0.4000000          :
          :  net charge                          0          :
          :  unpaired electrons                  0          :
          ...................................................

 iter      E             dE          RMSdq      gap      omega  full diag
   1   -197.4396476 -0.197440E+03  0.413E+00    2.90       0.0  T
   2   -197.9688390 -0.529191E+00  0.242E+00    2.72       1.0  T
   3   -198.0192246 -0.503855E-01  0.129E+00    3.13       1.0  T
   4   -198.0261573 -0.693277E-02  0.433E-01    2.91       1.0  T
   5   -198.0408804 -0.147231E-01  0.915E-02    2.97       1.0  T
   6   -198.0410801 -0.199614E-03  0.527E-02    2.99       1.0  T
   7   -198.0412440 -0.163924E-03  0.221E-02    3.01       1.0  T
   8   -198.0412511 -0.708203E-05  0.827E-03    3.01       1.1  T
   9   -198.0412539 -0.285674E-05  0.364E-03    3.01       2.5  T
  10   -198.0412541 -0.203589E-06  0.146E-03    3.01       6.3  T
  11   -198.0412542 -0.124012E-06  0.549E-04    3.01      16.8  T
  12   -198.0412543 -0.107486E-07  0.258E-04    3.01      35.7  T

   *** convergence criteria satisfied after 12 iterations ***

         #    Occupation            Energy/Eh            Energy/eV
      -------------------------------------------------------------
         1        2.0000           -0.7215746             -19.6350
       ...           ...                  ...                  ...
       168        2.0000           -0.3875695             -10.5463
       169        2.0000           -0.3819261             -10.3927
       170        2.0000           -0.3819260             -10.3927
       171        2.0000           -0.3809221             -10.3654
       172        2.0000           -0.3809221             -10.3654
       173        2.0000           -0.3786731             -10.3042
       174        2.0000           -0.3786731             -10.3042 (HOMO)
       175                         -0.2681377              -7.2964 (LUMO)
       176                         -0.2681376              -7.2964
       177                         -0.2404264              -6.5423
       178                         -0.2404264              -6.5423
       179                         -0.2327755              -6.3341
       ...                                ...                  ...
       322                          0.8683626              23.6293
      -------------------------------------------------------------
                  HL-Gap            0.1105354 Eh            3.0078 eV
             Fermi-level           -0.3234054 Eh           -8.8003 eV

 SCC (total)                   0 d,  0 h,  0 min,  0.238 sec
 SCC setup                      ...        0 min,  0.006 sec (  2.521%)
 Dispersion                     ...        0 min,  0.004 sec (  1.681%)
 classical contributions        ...        0 min,  0.002 sec (  0.840%)
 integral evaluation            ...        0 min,  0.016 sec (  6.723%)
 iterations                     ...        0 min,  0.151 sec ( 63.445%)
 molecular gradient             ...        0 min,  0.056 sec ( 23.529%)
 printout                       ...        0 min,  0.003 sec (  1.261%)

         :::::::::::::::::::::::::::::::::::::::::::::::::::::
         ::                     SUMMARY                     ::
         :::::::::::::::::::::::::::::::::::::::::::::::::::::
         :: total energy            -193.659160247329 Eh    ::
         :: gradient norm              1.318570392465 Eh/a0 ::
         :: HOMO-LUMO gap              3.007820009441 eV    ::
         ::.................................................::
         :: SCC energy              -198.041955429342 Eh    ::
         :: -> isotropic ES            0.296839753434 Eh    ::
         :: -> anisotropic ES          0.005514333027 Eh    ::
         :: -> anisotropic XC          0.036977532884 Eh    ::
         :: -> dispersion             -0.138434673743 Eh    ::
         :: repulsion energy           4.382795182013 Eh    ::
         :: add. restraining           0.000000000000 Eh    ::
         :: total charge               0.000000000000 e     ::
         :::::::::::::::::::::::::::::::::::::::::::::::::::::


Property printout bound to 'properties.out'
#
# Number of atoms
#
       118
#
# The current total energy in Eh
#
   -193.659160247329
#
# The current gradient in Eh/bohr
#
      -0.125136761047
       0.054278145230
       0.085530715271
       0.062419447804
      -0.119528275887
       0.033296992502
      -0.071949567066
       0.138808283063
      -0.038113049822
       0.007216323117
       0.004372969666
      -0.015641550425
       0.081714097692
       0.075791652171
       0.030957008642
      -0.108429568986
       0.030415429061
      -0.034859006883
      -0.000572640850
      -0.003249982821
      -0.003190187718
      -0.004506844758
       0.017235512288
       0.015180575302
       0.003073018166
      -0.006481289816
      -0.004799848651
      -0.056698862590
       0.073275828856
       0.061450021474
       0.104910013388
      -0.036418979893
       0.026154800493
      -0.032273382577
      -0.037020615485
      -0.102377806515
       0.001938919795
       0.013888565372
      -0.014171748320
       0.004407210770
      -0.031102883148
       0.018600746660
       0.004503000739
      -0.019200213030
      -0.008407966410
       0.085905983309
       0.113025595092
      -0.001443879427
      -0.095920104365
      -0.127849375766
       0.000476491876
       0.111834407696
       0.002596274594
      -0.085704133149
      -0.129557328460
      -0.009989552951
       0.096136438464
       0.003319672217
       0.013344335182
       0.008189013139
      -0.080982958151
      -0.114778388024
       0.001039158899
       0.092505706429
       0.132168512008
      -0.001291435935
      -0.113695775974
      -0.010814095745
       0.084475229687
       0.125923563039
       0.006413612143
      -0.098808564703
       0.073223116249
       0.003689377553
      -0.076896260862
       0.010100524640
       0.107642247552
       0.068600193892
       0.023951103624
      -0.107401607063
       0.074439128937
      -0.118159608458
      -0.007991044367
      -0.059233466858
       0.062945123478
      -0.014636361809
      -0.185707399418
      -0.148914917794
       0.273426455960
       0.117405450155
      -0.002609487498
       0.000842472107
       0.005041912976
       0.000490732173
       0.014581119253
      -0.009394285163
      -0.005151550086
      -0.015521123384
       0.021995079219
       0.082686035230
      -0.233703553458
       0.055509218734
      -0.001103336882
       0.001897603976
       0.005323467288
       0.000077935195
      -0.000277764738
      -0.004155396254
       0.009616681519
       0.004408431889
      -0.007485559173
      -0.095994249894
      -0.014251835257
      -0.030345039608
       0.081120440046
      -0.076393643018
      -0.039362693268
       0.047877922807
       0.103577095352
       0.025986532421
      -0.026478771703
      -0.016430342013
      -0.068932743928
      -0.055316319203
       0.086721860391
       0.055946239501
       0.082563251333
      -0.045426799703
       0.068498326054
      -0.000011214744
       0.072269995775
      -0.044713400059
      -0.055869560645
      -0.029911460308
       0.096071321002
       0.055293074118
      -0.092553082024
      -0.045307023429
       0.099333307897
       0.025033078671
      -0.013493156732
      -0.076668390411
       0.070815027827
       0.051590215605
      -0.054800974389
      -0.089105391971
      -0.048387775460
      -0.004261080626
       0.006996266894
      -0.023805476593
      -0.062702754344
       0.122784337283
      -0.032617158603
       0.071872441496
      -0.138439682685
       0.037462438261
      -0.004070519969
      -0.007910836680
       0.010484107792
       0.107671222827
      -0.049140770745
      -0.072602870840
      -0.113878683360
       0.045073768381
       0.072478269698
       0.128233472270
      -0.052201840604
      -0.082386691192
       0.011983186348
      -0.111832398601
       0.016711553504
       0.000893924714
       0.003943141733
      -0.001390967033
       0.006210480295
       0.000233077303
       0.010019185604
       0.095994233616
       0.014251852727
       0.030344991851
      -0.081120444730
       0.076393647865
       0.039362693641
      -0.047877925363
      -0.103577089186
      -0.025986536218
       0.026478784723
       0.016430344535
       0.068932773530
       0.055316322411
      -0.086721863057
      -0.055946241293
      -0.082563260314
       0.045426797886
      -0.068498333962
       0.000011210503
      -0.072270005030
       0.044713387839
       0.055869558726
       0.029911456406
      -0.096071307932
      -0.055293076971
       0.092553087392
       0.045307025024
      -0.099333293631
      -0.025033048169
       0.013493132030
       0.076668389049
      -0.070815032901
      -0.051590209031
       0.054800972963
       0.089105386971
       0.048387774118
       0.004261095676
      -0.006996248961
       0.023805484960
       0.062702670728
      -0.122784371938
       0.032617206704
      -0.071872439753
       0.138439674506
      -0.037462436279
       0.004070609746
       0.007910853991
      -0.010484200689
      -0.107671228414
       0.049140750035
       0.072602890103
       0.113878687263
      -0.045073771213
      -0.072478247618
      -0.128233472617
       0.052201839307
       0.082386686516
      -0.011983185549
       0.111832395952
      -0.016711542860
      -0.000893975036
      -0.003943211424
       0.001391020964
      -0.006210464205
      -0.000233085687
      -0.010019177107
       0.125136755514
      -0.054278141780
      -0.085530703334
      -0.062419410642
       0.119528297169
      -0.033297050999
       0.071949554366
      -0.138808281581
       0.038113048748
      -0.007216577117
      -0.004373116557
       0.015641797330
      -0.081714141135
      -0.075791648515
      -0.030956963474
       0.108429559146
      -0.030415418980
       0.034858982118
       0.000572533064
       0.003249670640
       0.003190480054
       0.004506579559
      -0.017235227786
      -0.015180890596
      -0.003072985205
       0.006481331793
       0.004799851866
       0.056698875666
      -0.073275881447
      -0.061450067397
      -0.104910042446
       0.036418978356
      -0.026154775288
       0.032273384168
       0.037020633307
       0.102377800548
      -0.001938926240
      -0.013888618107
       0.014171788023
      -0.004407110221
       0.031102888948
      -0.018600764742
      -0.004503066005
       0.019200313160
       0.008408075123
      -0.085905913724
      -0.113025620142
       0.001443857054
       0.095920078624
       0.127849401358
      -0.000476532658
      -0.111834324223
      -0.002596253081
       0.085704194977
       0.129557334913
       0.009989567770
      -0.096136434665
      -0.003319688310
      -0.013344327685
      -0.008189040026
       0.080982912878
       0.114778388046
      -0.001039169384
      -0.092505716323
      -0.132168483713
       0.001291443708
       0.113695788892
       0.010814047715
      -0.084475209719
      -0.125923559036
      -0.006413623374
       0.098808580392
      -0.073223113414
      -0.003689394521
       0.076896242185
      -0.010100526175
      -0.107642253258
      -0.068600196466
      -0.023951102705
       0.107401602703
      -0.074439133704
       0.118159608203
       0.007991049355
       0.059233474662
      -0.062945126595
       0.014636364073
       0.185707404512
       0.148914907137
      -0.273426433299
      -0.117405448477
       0.002610066458
      -0.000842048328
      -0.005042102759
      -0.000490822368
      -0.014581364746
       0.009394262435
       0.005151677498
       0.015521152515
      -0.021995032483
      -0.082686053201
       0.233703520534
      -0.055509214791
       0.001103341160
      -0.001897626599
      -0.005323612367
      -0.000077949892
       0.000277736038
       0.004155374409
      -0.009616696681
      -0.004408421619
       0.007485560279
#
# The atomic numbers and current coordinates in Bohr
#
   1    25.3660402   52.0935912   40.7536518
   6    23.1406831   51.3088522   43.7215808
   1    23.9234819   49.7943059   44.1487985
   6    21.1153959   52.1555856   45.1072882
   6    20.7160899   51.9842509   49.7739797
   1    22.4109739   51.5887424   50.3474681
   6    19.8426457   48.2454927   47.0852138
   6    19.4424657   47.0249620   49.5516006
   6    18.8189918   48.2910076   51.7123647
   6    18.8282422   51.1040353   51.7429864
   1    17.1564169   51.7456902   51.3493634
   1    19.3113284   51.7169165   53.4007217
   6    18.2848703   46.4029255   53.4741544
   6    17.3947735   46.7309464   56.1049471
   6    19.8517776   42.3884623   48.4780564
   6    21.9284841   42.4787073   46.9139700
   1    22.9760899   43.8904528   46.9255646
   6    22.4560978   40.4776228   45.3323430
   1    23.8552911   40.5396172   44.2736638
   6    20.9133547   38.3899555   45.3228295
   6    18.8736972   38.2779994   46.9555918
   1    17.8640571   36.8408807   46.9909703
   6    18.3306802   40.2675743   48.5211647
   1    16.9482030   40.1917162   49.6042224
   6    23.1273033   36.5602057   41.8905205
   1    23.0942601   35.0830653   40.8368953
   1    22.8296066   38.0336840   40.8755441
   1    24.7513845   36.6943961   42.6890638
   1    16.9678130   44.7458183   59.1177682
   1    18.1754509   43.4039146   57.0307341
   7    20.2843921   50.7849081   47.2962956
   7    19.2733408   44.4999334   50.0564131
   7    18.5912029   44.0981470   52.4805835
   7    17.4704323   44.6785923   57.5527899
   8    19.6288589   47.1675229   45.0713151
   8    16.5954404   48.7785920   56.7943819
   8    21.2237141   36.3650672   43.7632026
   6    22.2087368   56.9079650   36.8884765
   1    20.8969448   58.0733025   37.4239108
   1    21.3944892   55.3345633   36.4190425
   6    23.4703755   57.9582074   34.6519014
   1    24.3008468   56.5953773   33.7463307
   1    22.2042741   58.6749357   33.5382219
   6    25.3535402   59.9174391   35.2563088
   1    26.2182146   60.4196721   33.7195739
   1    24.4963726   61.3927485   35.9285003
   6    27.2484102   59.0050492   37.1352341
   1    28.4835501   57.9765180   36.2555284
   1    28.1314105   60.4589090   37.8163445
   6    26.2100302   57.4975656   39.2965928
   6    20.8494378   55.7941588   42.4440900
   1    20.0710661   57.3121056   42.0171696
   6    22.9038219   54.9591965   41.0785989
   6    24.0144857   52.6928702   41.7041145
   6    19.9436258   54.3837212   44.4416373
   1    18.5394464   54.9395780   45.3409647
   1    20.5915281   53.8043222   49.5923305
   7    23.9047042   56.4300590   39.0311054
   8    27.4473582   57.2302312   41.2412210
   6    -0.7668391   55.9981755   51.4964324
   1     0.5449529   54.8328381   50.9609982
   1     0.0474085   57.5715772   51.9658664
   6    -2.0284778   54.9479331   53.7330076
   1    -2.8589491   56.3107632   54.6385782
   1    -0.7623765   54.2312048   54.8466870
   6    -3.9116425   52.9887014   53.1286001
   1    -4.7763169   52.4864684   54.6653351
   1    -3.0544750   51.5133921   52.4564087
   6    -5.8065126   53.9010913   51.2496748
   1    -7.0416524   54.9296225   52.1293805
   1    -6.6895128   52.4472315   50.5685644
   6    -4.7681325   55.4085749   49.0883162
   6     0.5924599   57.1119817   45.9408190
   1     1.3708316   55.5940349   46.3677393
   6    -1.4619242   57.9469440   47.3063101
   6    -2.5725880   60.2132703   46.6807945
   6     1.4982719   58.5224193   43.9432717
   1     2.9024513   57.9665625   43.0439443
   1     0.8503695   59.1018183   38.7925785
   7    -2.4628065   56.4760815   49.3538035
   8    -6.0054606   55.6759093   47.1436879
   1    -3.9241425   60.8125493   47.6312571
   6    -1.6987854   61.5972883   44.6633281
   1    -2.4815842   63.1118346   44.2361105
   6     0.3265018   60.7505549   43.2776207
   6     0.7258077   60.9218896   38.6109292
   1    -0.9690762   61.3173981   38.0374408
   6     1.5992520   64.6606478   41.2996951
   6     1.9994320   65.8811786   38.8333084
   6     2.6229059   64.6151330   36.6725443
   6     2.6136555   61.8021052   36.6419226
   1     4.2854807   61.1604503   37.0355455
   1     2.1305692   61.1892240   34.9841872
   6     3.1570273   66.5032150   34.9107545
   6     4.0471242   66.1751941   32.2799618
   6     1.5901200   70.5176782   39.9068526
   6    -0.4865864   70.4274332   41.4709389
   1    -1.5341922   69.0156877   41.4593443
   6    -1.0142002   72.4285177   43.0525659
   1    -2.4133934   72.3665233   44.1112452
   6     0.5285430   74.5161850   43.0620795
   6     2.5682004   74.6281411   41.4293172
   1     3.5778406   76.0652598   41.3939387
   6     3.1112175   72.6385662   39.8637443
   1     4.4936947   72.7144243   38.7806866
   6    -1.6854056   76.3459348   46.4943884
   1    -1.6523624   77.8230752   47.5480136
   1    -1.3877089   74.8724565   47.5093648
   1    -3.3094868   76.2117445   45.6958452
   1     4.4740847   68.1603222   29.2671408
   1     3.2664468   69.5022259   31.3541749
   7     1.1575056   62.1212324   41.0886133
   7     2.1685569   68.4062071   38.3284958
   7     2.8506948   68.8079935   35.9043255
   7     3.9714653   68.2275482   30.8321191
   8     1.8130388   65.7386176   43.3135939
   8     4.8464573   64.1275485   31.5905270
   8     0.2181836   76.5410733   44.6217064

           -------------------------------------------------
          | TOTAL ENERGY             -193.659160247329 Eh   |
          | GRADIENT NORM               1.318570392465 Eh/ﾎｱ |
          | HOMO-LUMO GAP               3.007820009441 eV   |
           -------------------------------------------------

------------------------------------------------------------------------
 * finished run on 2026/10/03 at 09:28:20.708     
------------------------------------------------------------------------
 total:
 * wall-time:     0 d,  0 h,  0 min,  0.374 sec
 *  cpu-time:     0 d,  0 h,  0 min,  1.031 sec
 * ratio c/w:     2.757 speedup
 SCF:
 * wall-time:     0 d,  0 h,  0 min,  0.242 sec
 *  cpu-time:     0 d,  0 h,  0 min,  0.719 sec
 * ratio c/w:     2.970 speedup


-------------------------   --------------------
FINAL SINGLE POINT ENERGY      -193.659160247330
-------------------------   --------------------


-------------
DIPOLE MOMENT
-------------
                                X             Y             Z
Total Dipole Moment    :     -0.00000      -0.00000       0.00000
                        -----------------------------------------
Magnitude (a.u.)       :      0.00000
Magnitude (Debye)      :      0.00000


--------------------------------
SUGGESTED CITATIONS FOR THIS RUN
--------------------------------

Below you find a list of papers that are relevant to this ORCA run
We neither can nor want to force you to cite these papers, but we appreciate if you do
You receive ORCA, which is the product of decades of hard work by many enthusiastic individuals, for free
The only thing we kindly ask in return is that you cite our papers,
We deeply appreciate it, if you show your appreciation for ORCA by not just citing the generic ORCA reference.

Please note that relegating all ORCA citations to the supporting information does *not* help us.
SI sections are not indexed - citations you put there will not count into any citation statistics
But we need these citations in order to attract the funding resources that allow us to do what we are doing

Therefore, if you are a happy ORCA user, please consider citing a few of the papers listed below in the main body of your paper

In addition to the list printed below, the program has created the file D2\D2_pull_+8.0A_XTB2_SP.bibtex that contains the list in bibtex format
You can import this file easily into all common literature databanks and citation aid programs

It goes without saying that in many instances, there are alternative algorithms to achieve similar
results as the ones you have gotten from ORCA. It is, of course, also the case that in some instances
ORCA just re-implements algorithms worked out by others. We are fully aware of that and we are also
fully appreciative of our colleagues work. Hence this citation list should not be read as indicating
that the listed papers, which are focused on our own work, are the only ones worth citing. It simply
meant to make it easier for users to cite ORCA specific papers. It is not a substitute for doing your
own literature research and citing the relevant literature in a scientifically appropriate manner.

List of essential papers. We consider these as the minimum necessary citations

  1. Bannwarth, C.; Ehlert, S.; Grimme, S.
     GFN2-xTB窶尿n Accurate and Broadly Parametrized Self-Consistent Tight-Binding Quantum Chemical Method with Multipole Electrostatics and Density-Dependent Dispersion Contributions
     J. Chem. Theory Comput. 2019 15(3), 1652-1671
     doi.org/10.1021/acs.jctc.8b01176
  2. Neese, F.
     Software update: the ORCA program system, version 6.0
     WIRES Comput. Molec. Sci. 2025 15(1), e70019
     doi.org/10.1002/wcms.70019

List of papers to cite with high priority. The work reported in these papers was absolutely
necessary for this run to complete.
Our perspective: the developers of density functionals and basis sets usually get cited in chemistry papers
Good! But without the algorithms to do something with them, the functionals or basis sets would not do anything.
Hence, in our opinion, the algorithm design and method developments papers are equally worthy of getting cited

  1. Bannwarth, C.; Caldeweyher, E.; Ehlert, S.; Hansen, A.; Pracht, P.; Seibert, J.; Spicher, S.; Grimme, S.
     Extended tight-binding quantum chemistry methods
     WIRES Comput. Molec. Sci. 2020 11(2), e1493
     doi.org/10.1002/wcms.1493

List of suggested additional citations. These are papers that are important in the 'surrounding' of 
of this run, or papers that preceded the highly important papers. If you like your results we are grateful for a citation.

  1. Neese, F.
     The ORCA program system
     WIRES Comput. Molec. Sci. 2012 2(1), 73-78
     doi.org/10.1002/wcms.81
  2. Neese, F.
     Software update: the ORCA program system, version 4.0
     WIRES Comput. Molec. Sci. 2018 8(1), 1-6
     doi.org/10.1002/wcms.1327
  3. Neese, F.; Wennmohs, F.; Becker, U.; Riplinger, C.
     The ORCA quantum chemistry program package
     J. Chem. Phys. 2020 152(22), 224108
     doi.org/10.1063/5.0004608
  4. Neese, F.
     Software update: The ORCA program system窶之ersion 5.0
     WIRES Comput. Molec. Sci. 2022 12(1), e1606
     doi.org/10.1002/wcms.1606

List of optional additional citations

  1. Neese, F.
     Approximate second-order SCF convergence for spin unrestricted wavefunctions
     Chem. Phys. Lett. 2000 325(1-3), 93-98
     doi.org/10.1016/s0009-2614(00)00662-x

Timings for individual modules:

Sum of individual times          ...        0.440 sec (=   0.007 min)
XTB module                       ...        0.440 sec (=   0.007 min) 100.0 %
                             ****ORCA TERMINATED NORMALLY****
TOTAL RUN TIME: 0 days 0 hours 0 minutes 1 seconds 68 msec
