
                                 *****************
                                 * O   R   C   A *
                                 *****************

                                            #,                                       
                                            ###                                      
                                            ####                                     
                                            #####                                    
                                            ######                                   
                                           ########,                                 
                                     ,,################,,,,,                         
                               ,,#################################,,                 
                          ,,##########################################,,             
                       ,#########################################, ''#####,          
                    ,#############################################,,   '####,        
                  ,##################################################,,,,####,       
                ,###########''''           ''''###############################       
              ,#####''   ,,,,##########,,,,          '''####'''          '####       
            ,##' ,,,,###########################,,,                        '##       
           ' ,,###''''                  '''############,,,                           
         ,,##''                                '''############,,,,        ,,,,,,###''
      ,#''                                            '''#######################'''  
     '                                                          ''''####''''         
             ,#######,   #######,   ,#######,      ##                                
            ,#'     '#,  ##    ##  ,#'     '#,    #''#        ,####,    ,#,          
            ##       ##  ##   ,#'  ##            #'  '#       #'       ,# #          
            ##       ##  #######   ##           ,######,      #####,      #          
            '#,     ,#'  ##    ##  '#,     ,#' ,#      #,     #,   #      #          
             '#######'   ##     ##  '#######'  #'      '#     '####' #    #          



                #########################################################
                #                        -***-                          #
                #          Department of theory and spectroscopy        #
                #                                                       #
                #                      Frank Neese                      #
                #                                                       #
                #     Directorship, Architecture, Infrastructure        #
                #                    SHARK, DRIVERS                     #
                #        Core code/Algorithms in most modules           #
                #                                                       #
                #        Max Planck Institute fuer Kohlenforschung      #
                #                Kaiser Wilhelm Platz 1                 #
                #                 D-45470 Muelheim/Ruhr                 #
                #                      Germany                          #
                #                                                       #
                #                  All rights reserved                  #
                #                        -***-                          #
                #########################################################


                         Program Version 6.1.1  -  RELEASE   -


 With contributions from (in alphabetic order):
[Max-Planck-Institut fuer Kohlenforschung]                               
  Daniel Aravena         : Magnetic Suceptibility                        
  Michael Atanasov       : Ab Initio Ligand Field Theory (pilot matlab implementation)
  Alexander A. Auer      : GIAO ZORA, VPT2 properties, NMR spectrum      
  Ute Becker             : All parallelization in ORCA, NUMFREQ, NUMCALC 
  Giovanni Bistoni       : ED, misc. LED, open-shell LED, HFLD           
  Dmytro Bykov           : pre 5.0 version of the SCF Hessian            
  Marcos Casanova-Pﾃ｡ez   : Triplet and SCS-CIS(D). UHF-(DLPNO)-IP/EA/STEOM-CCSD. UHF-CVS-IP/STEOM-CCSD   
  Vijay G. Chilkuri      : MRCI spin determinant printing, contributions to CSF-ICE 
  Pauline Colinet        : FMM embedding                                 
  Dipayan Datta          : RHF DLPNO-CCSD density                        
  Achintya Kumar Dutta   : EOM-CC, STEOM-CC                              
  Nicolas Foglia         : Exact transition moments, OPA infrastructure, MCD improvements    
  Dmitry Ganyushin       : Spin-Orbit,Spin-Spin,Magnetic field MRCI      
  Miquel Garcia-Rates    : C-PCM and meta-GGA Hessian, CCSD/C-PCM, Gaussian charge scheme 
  Tiago L. C. Gouveia    : GS-ROHF, GS-ROCIS                             
  Yang Guo               : DLPNO-NEVPT2, F12-NEVPT2, CIM, IAO-localization        
  Andreas Hansen         : Spin unrestricted coupled pair/coupled cluster methods 
  Ingolf Harden          : AUTO-CI MPn and infrastructure                
  Benjamin Helmich-Paris : MC-RPA, TRAH-(SCF,CASSCF), AVAS, COSX integrals, SCF dyn. polar., MC-PDFT, srDFT 
  Lee Huntington         : MR-EOM, pCC                                   
  Robert Izsak           : Overlap fitted RIJCOSX, COSX-SCS-MP3, EOM     
  Riya Kayal             : Wick's Theorem for AUTO-CI, AUTO-CI UHF-CCSDT 
  Emily Kempfer          : AUTO-CI RHF CISDT and CCSDT, approximate NEVPT4
  Christian Kollmar      : KDIIS, OOCD, Brueckner-CCSD(T), CCSD density, CASPT2, CASPT2-K, improved NEVPT2 
  Axel Koslowski         : Symmetry handling                             
  Simone Kossmann        : meta-GGA functionals, TD-DFT gradient, OOMP2, (MP2 Hessian; deprecated post 5.0) 
  Lucas Lang             : DCDCAS, Hyperfine gauge corrections, ICE-SOC+SSC
  Marvin Lechner         : AUTO-CI (C++ implementation), FIC-MRCC        
  Spencer Leger          : CASSCF response                               
  Dagmar Lenk            : GEPOL surface, SMD, ORCA-2-JSON               
  Dimitrios Liakos       : Extrapolation schemes; Compound Job, Property file
  Dimitrios Manganas     : Further ROCIS development; embedding schemes. LFT, Crystal Embedding 
  Dimitrios Pantazis     : SARC Basis sets                               
  Anastasios Papadopoulos: AUTO-CI, single reference methods and gradients 
  Taras Petrenko         : pre 6.0 DFT Hessian and TD-DFT gradient,  ECA, NRVS 
  Petra Pikulova         : Analytic Raman intensities                    
  Peter Pinski           : DLPNO-MP2, DLPNO-MP2 Gradient                 
  Shashank Vittal Rao    : ES-AILFT, MagRelax                            
  Christoph Reimann      : Effective Core Potentials                     
  Marius Retegan         : Local ZFS, SOC                                
  Christoph Riplinger    : Optimizer, TS searches, QM/MM, DLPNO-CCSD(T), (RO)-DLPNO pert. Triples 
  Michael Roemelt        : Original ROCIS implementation, recursive CI coupling coefficients
  Masaaki Saitow         : Open-shell DLPNO-CCSD energy and density      
  Barbara Sandhoefer     : DKH picture change effects                    
  Yorick L. A. Schmerwitz: GMF and freeze-and-release deltaSCF, NEB S-IDPP initial path                    
  Kantharuban Sivalingam : CASSCF convergence/infrastructure, NEVPT2, NEVPT3, NEVPT4(SD), FIC-MRCI and CEPA variants
  Bernardo de Souza      : ESD, SOC TD-DFT                               
  Georgi L. Stoychev     : AutoAux, RI-MP2 NMR, DLPNO-MP2 response, X2C  
  Van Anh Tran           : RI-MP2 g-tensors                              
  Willem Van den Heuvel  : Paramagnetic NMR                              
  Zikuan Wang            : NOTCH, Electric field optimization            
  Frank Wennmohs         : Technical directorship and infrastructure     
  Hang Xu                : AUTO-CI-Response properties                   
                                                                         
[FACCTs GmbH]                                                            
  Markus Bursch, Nicolas Foglia, Miquel Garcia-Rates, Ingolf Harden, Hagen Neugebauer, Anastasios Papadopoulos, 
  Christoph Riplinger, Bernardo de Souza, Georgi L. Stoychev                                                    
                                                                 
  APM, various basis sets, CI-OPT, improved COSX, DLPNO-Multilevel,           
  DOCKER, DRACO, updates on ESD, Fragmentator, GOAT, IRC, LR-CPCM, L-BFGS, MBIS, meta-GGA TD-DFT gradient, ML-optimized integration grids, 
  MM, NACMEs, nearIR, NEB, NEB-TS, NL-DFT gradient (VV10), 2- and 3-layer-ONIOM, interface openCOSMO-RS, QMMM,   
  Crystal-QMMM, RESP, rigid body optimization, SF, symmetry and pop. for TD-DFT, various functionals, SOLVATOR                                   
                                                                         
[Other institutions]                                                     
  V. Asgeirsson          : NEB                                           
  Christoph Bannwarth    : sTDA-DFT, sTD-DFT, PBEh-3c, B97-3c, D3        
  Giovanni Bistoni       : ETS/NOCV, ADLD/ADEX, COVALED                  
  Martin Brehm           : Molecular dynamics                            
  Ronald Cardenas        : ETS/NOCV                                      
  Martina Colucci        : COVALED                                       
  Sebastian Ehlert       : rSCAN, r2SCAN, r2SCAN-3c, D4, dhf basis sets  
  Marvin Friede          : D4 for Fr, Ra, Ac-Lr                          
  Lars Goerigk           : TD-DFT with DH, B97 family of functionals     
  Stefan Grimme          : VdW corrections, initial TS optimization, DFT functionals, gCP, sTDA/sTD-DF 
  Waldemar Hujo          : DFT-NL                                        
  H. Jonsson             : NEB                                           
  Holger Kruse           : gCP                                           
  Marcel Mueller         : wB97X-3c, vDZP basis set                      
  Hagen Neugebauer       : wr2SCAN, Native XTB                           
  Gianluca Regni         : ADLD/ADEX                                     
  Tobias Risthaus        : pre 6.0 range-separated hybrid DFT and stability analysis
  Lukas Wittmann         : regularized MP2, r2SCAN double-hybrids, wr2SCAN        
                                                                         
We gratefully acknowledge several colleagues who have allowed us to      
interface, adapt or use parts of their codes:                            
  Ed Valeev, F. Pavosevic, A. Kumar             : LibInt (2-el integral package), F12 methods 
  Garnet Chan, S. Sharma, J. Yang, R. Olivares  : DMRG                   
  Ulf Ekstrom                                   : XCFun DFT Library      
  Mihaly Kallay                                 : mrcc  (arbitrary order and MRCC methods)
  Frank Weinhold                                : gennbo (NPA and NBO analysis)           
  Simon Mueller                                 : openCOSMO-RS                            
  Christopher J. Cramer and Donald G. Truhlar   : smd solvation model                     
  S Lehtola, MJT Oliveira, MAL Marques          : LibXC Library                           
  Liviu Ungur et al                             : ANISO software                          


 Your calculation uses the libint2 library for the computation of 2-el integrals
 For citations please refer to: http://libint.valeyev.net

 Your ORCA version has been built with support for libXC version: 7.0.0
 For citations please refer to: https://libxc.gitlab.io

 This ORCA versions uses:
   CBLAS   interface :  Fast vector & matrix operations
   LAPACKE interface :  Fast linear algebra routines
   Shared memory     :  Shared parallel matrices


  ***********************************
  * Starting time: Sat Oct  3 08:18:39 2026
  * Host name:     DESKTOP-2KDTO5M
  * Process ID:    20172
  * Working dir.:  C:\Users\naoki\Downloads\デスクトップ\data\Molecules\Calculations\Apixaban\CrystalFragment
  ***********************************

NOTE: MaxCore=2000 MB was set to SCF,MP2,MDCI,CIPSI,MRCI,RASCI and CIS
      => If you want to overwrite this, your respective input block should be placed after the MaxCore statement
Your calculation utilizes the semiempirical GFN2-xTB method
Please cite in your paper:
Bannwarth, C.; Ehlert S.; Grimme, S. J. Chem. Theory Comput. 2019, 15, 1652.
   

================================================================================

================================================================================
                                        WARNINGS
                       Please study these warnings very carefully!
================================================================================


WARNING: Found dipole moment calculation with XTB calculation
  ===> : Switching off dipole moment calculation

Environment variable XTBEXE for xtb has been set!

================================================================================
                                       INPUT FILE
================================================================================
NAME = D2\D2_pull_+0.5A_XTB2_SP.inp
|  1> # D2 pull-apart: molecule B displaced +0.5 A along centroid vector (rigid), XTB2 single point
|  2> 
|  3> ! XTB2
|  4> 
|  5> %pal
|  6>   nprocs 4
|  7> end
|  8> 
|  9> %maxcore 2000
| 10> 
| 11> * xyz 0 1
| 12> H     13.42313039    27.56674130    21.56590380
| 13> C     12.24552212    27.15147530    23.13646418
| 14> H     12.65976143    26.35001192    23.36253803
| 15> C     11.17378631    27.59954731    23.86974896
| 16> C     10.96248270    27.50888090    26.33925576
| 17> H     11.85937665    27.29958684    26.64273277
| 18> C     10.50027590    25.53041526    24.91642213
| 19> C     10.28850978    24.88453821    26.22157779
| 20> C      9.95858159    25.55450069    27.36500490
| 21> C      9.96347671    27.04309087    27.38120922
| 22> H      9.07878487    27.38264004    27.17291292
| 23> H     10.21911492    27.36741362    28.25844499
| 24> C      9.67593669    24.55537069    28.29730390
| 25> C      9.20491770    24.72895188    29.68945945
| 26> C     10.50510832    22.43100826    25.65348267
| 27> C     11.60405407    22.47876385    24.82580380
| 28> H     12.15842317    23.22582738    24.83193942
| 29> C     11.88325522    21.41983555    23.98884284
| 30> H     12.62367639    21.45264156    23.42861390
| 31> C     11.06687070    20.31508956    23.98380849
| 32> C      9.98753047    20.25584495    24.84782909
| 33> H      9.45325189    19.49535448    24.86655058
| 34> C      9.70017823    21.30868268    25.67629458
| 35> H      8.96860279    21.26854030    26.24942405
| 36> C     12.23844184    19.34682767    22.16750882
| 37> H     12.22095615    18.56515864    21.60995437
| 38> H     12.08090755    20.12655880    21.63040643
| 39> H     13.09786863    19.41783816    22.59007971
| 40> H      8.97897997    23.67846732    31.28377568
| 41> H      9.61803440    22.96836246    30.17936479
| 42> N     10.73403801    26.87421603    25.02812181
| 43> N     10.19901274    23.54835064    26.48871307
| 44> N      9.83804090    23.33573445    27.77152880
| 45> N      9.24495466    23.64289287    30.45562483
| 46> O     10.38714479    24.95997820    23.85071282
| 47> O      8.78192884    25.81251929    30.05429261
| 48> O     11.23110584    19.24356486    23.15848947
| 49> C     11.75235738    30.11439821    19.52054112
| 50> H     11.05818695    30.73106822    19.80388073
| 51> H     11.32147613    29.28178988    19.27212733
| 52> C     12.41998786    30.67016254    18.33699652
| 53> H     12.85945434    29.94898392    17.85778917
| 54> H     11.74999586    31.04943882    17.74766273
| 55> C     13.41651570    31.70694332    18.65683517
| 56> H     13.87408166    31.97271356    17.84363006
| 57> H     12.96292215    32.48764340    19.01254358
| 58> C     14.41923773    31.22412738    19.65111962
| 59> H     15.07284560    30.67985208    19.18559942
| 60> H     14.88650136    31.99347686    20.01154773
| 61> C     13.86975067    30.42640140    20.79486138
| 62> C     11.03304735    29.52499733    22.46044515
| 63> H     10.62115078    30.32826020    22.23452862
| 64> C     12.12018061    29.08315431    21.73785837
| 65> C     12.70791857    27.88386610    22.06886699
| 66> C     10.55371227    28.77862591    23.51750167
| 67> H      9.81065253    29.07277266    23.99340522
| 68> H     10.89656743    28.47202118    26.24313111
| 69> N     12.64982471    29.86150122    20.65437150
| 70> O     14.52451648    30.28493411    21.82391432
| 71> C      5.85842979    25.52806157    27.64989498
| 72> H      6.55260022    24.91139156    27.36655537
| 73> H      6.28931104    26.36066990    27.89830877
| 74> C      5.19079931    24.97229724    28.83343958
| 75> H      4.75133282    25.69347586    29.31264693
| 76> H      5.86079131    24.59302096    29.42277337
| 77> C      4.19427146    23.93551646    28.51360093
| 78> H      3.73670550    23.66974622    29.32680604
| 79> H      4.64786501    23.15481638    28.15789252
| 80> C      3.19154944    24.41833240    27.51931648
| 81> H      2.53794157    24.96260770    27.98483668
| 82> H      2.72428581    23.64898292    27.15888837
| 83> C      3.74103650    25.21605838    26.37557472
| 84> C      6.57773982    26.11746245    24.70999095
| 85> H      6.98963639    25.31419958    24.93590748
| 86> C      5.49060656    26.55930547    25.43257773
| 87> C      4.90286859    27.75859368    25.10156911
| 88> C      7.05707490    26.86383387    23.65293443
| 89> H      7.80013463    26.56968712    23.17703088
| 90> H      6.71421974    27.17043860    20.92730499
| 91> N      4.96096246    25.78095857    26.51606460
| 92> O      3.08627069    25.35752567    25.34652178
| 93> H      4.18765678    28.07571848    25.60453230
| 94> C      5.36526505    28.49098448    24.03397192
| 95> H      4.95102574    29.29244786    23.80789807
| 96> C      6.43700086    28.04291247    23.30068714
| 97> C      6.64830447    28.13357888    20.83118034
| 98> H      5.75141052    28.34287294    20.52770333
| 99> C      7.11051127    30.11204452    22.25401397
|100> C      7.32227739    30.75792158    20.94885831
|101> C      7.65220558    30.08795910    19.80543120
|102> C      7.64731046    28.59936891    19.78922688
|103> H      8.53200229    28.25981974    19.99752318
|104> H      7.39167225    28.27504616    18.91199111
|105> C      7.93485047    31.08708909    18.87313220
|106> C      8.40586946    30.91350790    17.48097666
|107> C      7.10567885    33.21145153    21.51695343
|108> C      6.00673310    33.16369594    22.34463230
|109> H      5.45236400    32.41663240    22.33849668
|110> C      5.72753195    34.22262424    23.18159326
|111> H      4.98711078    34.18981822    23.74182220
|112> C      6.54391646    35.32737022    23.18662761
|113> C      7.62325670    35.38661483    22.32260701
|114> H      8.15753528    36.14710530    22.30388552
|115> C      7.91060894    34.33377710    21.49414152
|116> H      8.64218438    34.37391948    20.92101205
|117> C      5.37234533    36.29563211    25.00292728
|118> H      5.38983102    37.07730114    25.56048173
|119> H      5.52987962    35.51590098    25.54002967
|120> H      4.51291854    36.22462162    24.58035639
|121> H      8.63180719    31.96399246    15.88666042
|122> H      7.99275276    32.67409732    16.99107131
|123> N      6.87674916    28.76824375    22.14231429
|124> N      7.41177442    32.09410914    20.68172303
|125> N      7.77274626    32.30672533    19.39890730
|126> N      8.36583251    31.99956692    16.71481127
|127> O      7.22364238    30.68248159    23.31972328
|128> O      8.82885833    29.82994049    17.11614349
|129> O      6.37968132    36.39889492    24.01194663
|130> *
|131> 
|132>                          ****END OF INPUT****
================================================================================

                       ****************************
                       * Single Point Calculation *
                       ****************************

      -----------------------------------------------------------      
     |                   =====================                   |     
     |                           x T B                           |     
     |                   =====================                   |     
     |                         S. Grimme                         |     
     |          Mulliken Center for Theoretical Chemistry        |     
     |                    University of Bonn                     |     
      -----------------------------------------------------------      

   * xtb version 6.7.1pre (5071a88) compiled by 'Marcel@Raven' on 2024-07-23

   xtb is free software: you can redistribute it and/or modify it under
   the terms of the GNU Lesser General Public License as published by
   the Free Software Foundation, either version 3 of the License, or
   (at your option) any later version.
   
   xtb is distributed in the hope that it will be useful,
   but WITHOUT ANY WARRANTY; without even the implied warranty of
   MERCHANTABILITY or FITNESS FOR A PARTICULAR PURPOSE.  See the
   GNU Lesser General Public License for more details.
   
   Cite this work as:
   * C. Bannwarth, E. Caldeweyher, S. Ehlert, A. Hansen, P. Pracht,
     J. Seibert, S. Spicher, S. Grimme, WIREs Comput. Mol. Sci., 2020, 11,
     e01493. DOI: 10.1002/wcms.1493
   
   for GFN2-xTB:
   * C. Bannwarth, S. Ehlert and S. Grimme., J. Chem. Theory Comput., 2019,
     15, 1652-1671. DOI: 10.1021/acs.jctc.8b01176
   for GFN1-xTB:
   * S. Grimme, C. Bannwarth, P. Shushkov, J. Chem. Theory Comput., 2017,
     13, 1989-2009. DOI: 10.1021/acs.jctc.7b00118
   for GFN0-xTB:
   * P. Pracht, E. Caldeweyher, S. Ehlert, S. Grimme, ChemRxiv, 2019, preprint.
     DOI: 10.26434/chemrxiv.8326202.v1
   for GFN-FF:
   * S. Spicher and S. Grimme, Angew. Chem. Int. Ed., 2020, 59, 15665-15673.
     DOI: 10.1002/anie.202004239
   
   for ALPB and GBSA implicit solvation:
   * S. Ehlert, M. Stahn, S. Spicher, S. Grimme, J. Chem. Theory Comput.,
     2021, 17, 4250-4261. DOI: 10.1021/acs.jctc.1c00471
   
   for ddCOSMO and CPCM-X implicit solvation:
   * M. Stahn, S. Ehlert, S. Grimme, J. Phys. Chem. A,
     2023, XX, XXXX-XXXX. DOI: 10.1021/acs.jpca.3c04382
   
   for DFT-D4:
   * E. Caldeweyher, C. Bannwarth and S. Grimme, J. Chem. Phys., 2017,
     147, 034112. DOI: 10.1063/1.4993215
   * E. Caldeweyher, S. Ehlert, A. Hansen, H. Neugebauer, S. Spicher,
     C. Bannwarth and S. Grimme, J. Chem. Phys., 2019, 150, 154122.
     DOI: 10.1063/1.5090222
   * E. Caldeweyher, J.-M. Mewes, S. Ehlert and S. Grimme, Phys. Chem. Chem. Phys.
     2020, 22, 8499-8512. DOI: 10.1039/D0CP00502A
   
   for sTDA-xTB:
   * S. Grimme and C. Bannwarth, J. Chem. Phys., 2016, 145, 054103.
     DOI: 10.1063/1.4959605
   
   in the mass-spec context:
   * V. Asgeirsson, C. Bauer and S. Grimme, Chem. Sci., 2017, 8, 4879.
     DOI: 10.1039/c7sc00601b
   * J. Koopman and S. Grimme, ACS Omega 2019, 4, 12, 15120-15133.
     DOI: 10.1021/acsomega.9b02011
   
   for metadynamics refer to:
   * S. Grimme, J. Chem. Theory Comput., 2019, 155, 2847-2862
     DOI: 10.1021/acs.jctc.9b00143
   
   for SPH calculations refer to:
   * S. Spicher and S. Grimme, J. Chem. Theory Comput., 2021, 17, 1701-1714
     DOI: 10.1021/acs.jctc.0c01306
   
   for ONIOM refer to:
   * C. Plett, A. Katbashev, S. Ehlert, S. Grimme, M. Bursch,
     Phys. Chem. Chem. Phys., 2023, 25, 17860-17868. DOI: 10.1039/D3CP02178E
   
   for DIPRO refer to:
   * J. Kohn, N. Gildemeister, S. Grimme, D. Fazzi, A. Hansen,
     J. Chem. Phys., 2023, just accepted.
   
   for PTB refer to:
   * S. Grimme, M. Mueller, A. Hansen, J. Chem. Phys., 2023, 158, 124111.
     DOI: 10.1063/5.0137838
   
   with help from (in alphabetical order)
   P. Atkinson, C. Bannwarth, F. Bohle, G. Brandenburg, E. Caldeweyher
   M. Checinski, S. Dohm, S. Ehlert, S. Ehrlich, I. Gerasimov, C. Hﾃｶlzer
   A. Katbashev, J. Kohn, J. Koopman, C. Lavigne, S. Lehtola, F. Mﾃ､rz, M. Mﾃｼller,
   F. Musil, H. Neugebauer, J. Pisarek, C. Plett, P. Pracht, F. Pultar,
   J. Seibert, P. Shushkov, S. Spicher, M. Stahn, M. Steiner, T. Strunk,
   J. Stﾃｼckrath, T. Rose, and J. Unsleber
   
 * started run on 2026/10/03 at 08:18:39.906     
   ID    Z sym.   atoms
    1    1 H      1, 3, 6, 11, 12, 17, 19, 22, 24, 26-30, 39, 40, 42, 43, 45,
                  46, 48, 49, 52, 56, 57, 61, 62, 64, 65, 67, 68, 70, 71, 74,
                  78, 79, 82, 84, 87, 92, 93, 98, 100, 103, 105, 107-111
    2    6 C      2, 4, 5, 7-10, 13-16, 18, 20, 21, 23, 25, 38, 41, 44, 47,
                  50, 51, 53-55, 60, 63, 66, 69, 72, 73, 75-77, 83, 85, 86,
                  88-91, 94-97, 99, 101, 102, 104, 106
    3    7 N      31-34, 58, 80, 112-115
    4    8 O      35-37, 59, 81, 116-118

           -------------------------------------------------
          |                Calculation Setup                |
           -------------------------------------------------

          program call               : C:\ORCA_6.1.1\xtb-6.7.1pre\xtb.exe  D2\D2_pull_+0.5A_XTB2_SP_XTB.xyz --grad -c 0 -u 0 -P 4 --namespace D2\D2_pull_+0.5A_XTB2_SP --input D2\D2_pull_+0.5A_XTB2_SP_XTB.input.tmp --acc 1.000000      
          calculation namespace      : D2\D2_pull_+0.5A_XTB2_SP
          coordinate file            : D2\D2_pull_+0.5A_XTB2_SP_XTB.xyz
          omp threads                :                     4


molecular fragmentation (1/2 indicates fragments):
111111111111111111111111111111111111111111111111111111111112222222222222
2222222222222222222222222222222222222222222222
# atoms in fragment 1/2:    59    59
 fragment masses (1/2) :      459.50      459.50
CMA distance (Bohr)    :  12.007
constraining FC (au)   :  0.0500

           -------------------------------------------------
          |                 G F N 2 - x T B                 |
           -------------------------------------------------

        Reference                      10.1021/acs.jctc.8b01176
      * Hamiltonian:
        H0-scaling (s, p, d)           1.850000    2.230000    2.230000
        zeta-weighting                 0.500000
      * Dispersion:
        s8                             2.700000
        a1                             0.520000
        a2                             5.000000
        s9                             5.000000
      * Repulsion:
        kExp                           1.500000    1.000000
        rExp                           1.000000
      * Coulomb:
        alpha                          2.000000
        third order                    shell-resolved
        anisotropic                    true
        a3                             3.000000
        a5                             4.000000
        cn-shift                       1.200000
        cn-exp                         4.000000
        max-rad                        5.000000


          ...................................................
          :                      SETUP                      :
          :.................................................:
          :  # basis functions                 322          :
          :  # atomic orbitals                 322          :
          :  # shells                          186          :
          :  # electrons                       348          :
          :  max. iterations                   250          :
          :  Hamiltonian                  GFN2-xTB          :
          :  restarted?                      false          :
          :  GBSA solvation                  false          :
          :  PC potential                    false          :
          :  electronic temp.          300.0000000     K    :
          :  accuracy                    1.0000000          :
          :  -> integral cutoff          0.2500000E+02      :
          :  -> integral neglect         0.1000000E-07      :
          :  -> SCF convergence          0.1000000E-05 Eh   :
          :  -> wf. convergence          0.1000000E-03 e    :
          :  Broyden damping             0.4000000          :
          :  net charge                          0          :
          :  unpaired electrons                  0          :
          ...................................................

 iter      E             dE          RMSdq      gap      omega  full diag
   1   -197.4834010 -0.197483E+03  0.412E+00    2.93       0.0  T
   2   -197.9994292 -0.516028E+00  0.241E+00    2.79       1.0  T
   3   -198.0453139 -0.458848E-01  0.128E+00    3.00       1.0  T
   4   -198.0521875 -0.687357E-02  0.424E-01    2.65       1.0  T
   5   -198.0665543 -0.143668E-01  0.917E-02    2.71       1.0  T
   6   -198.0667330 -0.178673E-03  0.527E-02    2.73       1.0  T
   7   -198.0668963 -0.163392E-03  0.215E-02    2.75       1.0  T
   8   -198.0669035 -0.718893E-05  0.816E-03    2.75       1.1  T
   9   -198.0669063 -0.276207E-05  0.369E-03    2.75       2.5  T
  10   -198.0669065 -0.207539E-06  0.147E-03    2.75       6.2  T
  11   -198.0669066 -0.127248E-06  0.535E-04    2.75      17.2  T
  12   -198.0669066 -0.995101E-08  0.256E-04    2.75      36.0  T

   *** convergence criteria satisfied after 12 iterations ***

         #    Occupation            Energy/Eh            Energy/eV
      -------------------------------------------------------------
         1        2.0000           -0.7236358             -19.6911
       ...           ...                  ...                  ...
       168        2.0000           -0.3875082             -10.5446
       169        2.0000           -0.3848468             -10.4722
       170        2.0000           -0.3847417             -10.4694
       171        2.0000           -0.3774529             -10.2710
       172        2.0000           -0.3771651             -10.2632
       173        2.0000           -0.3740491             -10.1784
       174        2.0000           -0.3740066             -10.1772 (HOMO)
       175                         -0.2728891              -7.4257 (LUMO)
       176                         -0.2727920              -7.4230
       177                         -0.2447868              -6.6610
       178                         -0.2445746              -6.6552
       179                         -0.2348635              -6.3910
       ...                                ...                  ...
       322                          0.8682045              23.6250
      -------------------------------------------------------------
                  HL-Gap            0.1011175 Eh            2.7515 eV
             Fermi-level           -0.3234479 Eh           -8.8015 eV

 SCC (total)                   0 d,  0 h,  0 min,  0.387 sec
 SCC setup                      ...        0 min,  0.022 sec (  5.685%)
 Dispersion                     ...        0 min,  0.009 sec (  2.326%)
 classical contributions        ...        0 min,  0.004 sec (  1.034%)
 integral evaluation            ...        0 min,  0.031 sec (  8.010%)
 iterations                     ...        0 min,  0.242 sec ( 62.532%)
 molecular gradient             ...        0 min,  0.075 sec ( 19.380%)
 printout                       ...        0 min,  0.004 sec (  1.034%)

         :::::::::::::::::::::::::::::::::::::::::::::::::::::
         ::                     SUMMARY                     ::
         :::::::::::::::::::::::::::::::::::::::::::::::::::::
         :: total energy            -193.679764922863 Eh    ::
         :: gradient norm              1.318624153942 Eh/a0 ::
         :: HOMO-LUMO gap              2.751547716834 eV    ::
         ::.................................................::
         :: SCC energy              -198.062561771694 Eh    ::
         :: -> isotropic ES            0.294092859819 Eh    ::
         :: -> anisotropic ES          0.005677018240 Eh    ::
         :: -> anisotropic XC          0.036951446473 Eh    ::
         :: -> dispersion             -0.153998237302 Eh    ::
         :: repulsion energy           4.382796848831 Eh    ::
         :: add. restraining           0.000000000000 Eh    ::
         :: total charge              -0.000000000000 e     ::
         :::::::::::::::::::::::::::::::::::::::::::::::::::::


Property printout bound to 'properties.out'
#
# Number of atoms
#
       118
#
# The current total energy in Eh
#
   -193.679764922863
#
# The current gradient in Eh/bohr
#
      -0.125140338805
       0.054239166311
       0.085532069873
       0.062438061610
      -0.119301279330
       0.033126251403
      -0.072125492368
       0.138851585237
      -0.038106365507
       0.007208774805
       0.003670785194
      -0.014571107422
       0.081955729725
       0.075842661890
       0.031175778265
      -0.108486307638
       0.030399185416
      -0.034835649831
      -0.001255825859
      -0.006289896054
      -0.003749469367
      -0.004180135328
       0.017596220686
       0.014973653930
       0.003340243448
      -0.006954493989
      -0.004666140501
      -0.056402427285
       0.073560403807
       0.061502918082
       0.104968103904
      -0.036849736008
       0.026636038225
      -0.032351757855
      -0.037048552907
      -0.102321416509
       0.002374037987
       0.013308118245
      -0.014514188787
       0.002977314970
      -0.030237626144
       0.019046692062
       0.004338523503
      -0.018916180767
      -0.008193309603
       0.085808776100
       0.112998821435
      -0.001321550555
      -0.095930454843
      -0.127836359101
       0.000478318084
       0.111769836704
       0.002327825605
      -0.085799556702
      -0.129539572613
      -0.009996006215
       0.096090638661
       0.003263618719
       0.014009064767
       0.008643274655
      -0.080812865914
      -0.114778491346
       0.000898096616
       0.092485805932
       0.132154970988
      -0.001295402333
      -0.113640870559
      -0.010854205639
       0.084563713770
       0.125943369918
       0.006585327985
      -0.098796555888
       0.073168193445
       0.003683253133
      -0.076828969455
       0.010092356025
       0.107612168400
       0.068585532451
       0.023954813294
      -0.107361331591
       0.074442459776
      -0.118159190828
      -0.007964377247
      -0.059220968436
       0.062473593170
      -0.014641461799
      -0.185956268426
      -0.149278759399
       0.273381369763
       0.117263734685
      -0.002078062455
       0.002887409088
       0.004235896923
       0.000595282377
       0.014235493601
      -0.009453652058
      -0.004646439806
      -0.014821818191
       0.022101655014
       0.083862829589
      -0.233756433677
       0.055920158909
       0.000081192845
       0.002585141314
       0.006127632700
       0.001751755918
      -0.000604904684
      -0.003943268823
       0.009737737102
       0.003830234439
      -0.007988575059
      -0.095735749558
      -0.014179617682
      -0.029981808500
       0.081498507334
      -0.076280204872
      -0.039042783288
       0.048193483703
       0.102808033389
       0.026829207103
      -0.026507853582
      -0.016644386052
      -0.069276808733
      -0.054732356144
       0.086670400492
       0.055915198581
       0.082971293149
      -0.044488786063
       0.068243777814
       0.000128265723
       0.072292445086
      -0.044724951134
      -0.055921899742
      -0.029850021800
       0.096104578789
       0.055345477712
      -0.092581655832
      -0.045417768607
       0.099243637882
       0.024998121258
      -0.013574532816
      -0.076594789090
       0.070860446150
       0.051624011780
      -0.054858068391
      -0.089140687708
      -0.048471124716
      -0.003290870562
       0.007232113289
      -0.023236855092
      -0.062202926194
       0.123084276225
      -0.032395806426
       0.072335954638
      -0.138429357936
       0.037134685142
      -0.004223916424
      -0.008403874170
       0.011074446862
       0.107574038978
      -0.049021834937
      -0.072587010926
      -0.112982583072
       0.045147693030
       0.072378935721
       0.128885055287
      -0.052834634260
      -0.082107305523
       0.012242341302
      -0.111674537286
       0.016778593556
       0.000398285792
       0.003925360229
      -0.001796666386
       0.005596476406
       0.000330228007
       0.009409060170
       0.095735749367
       0.014179627806
       0.029981798768
      -0.081498513351
       0.076280211738
       0.039042778949
      -0.048193492695
      -0.102808034117
      -0.026829211627
       0.026507867748
       0.016644386787
       0.069276814186
       0.054732354376
      -0.086670394371
      -0.055915194862
      -0.082971295292
       0.044488781638
      -0.068243778740
      -0.000128277611
      -0.072292449940
       0.044724948886
       0.055921901048
       0.029850019132
      -0.096104575605
      -0.055345478107
       0.092581658144
       0.045417768233
      -0.099243630145
      -0.024998108090
       0.013574519544
       0.076594788396
      -0.070860449160
      -0.051624007313
       0.054858067626
       0.089140686921
       0.048471125361
       0.003290887938
      -0.007232107087
       0.023236866828
       0.062202890223
      -0.123084289438
       0.032395824233
      -0.072335949627
       0.138429349814
      -0.037134679025
       0.004223947995
       0.008403866446
      -0.011074496742
      -0.107574054951
       0.049021842084
       0.072587016834
       0.112982597543
      -0.045147699770
      -0.072378910334
      -0.128885053759
       0.052834630051
       0.082107307987
      -0.012242341193
       0.111674539229
      -0.016778594726
      -0.000398307959
      -0.003925383504
       0.001796675863
      -0.005596475136
      -0.000330228955
      -0.009409065179
       0.125140343707
      -0.054239169846
      -0.085532068056
      -0.062438061344
       0.119301298120
      -0.033126267007
       0.072125486443
      -0.138851582006
       0.038106365412
      -0.007208906068
      -0.003670872160
       0.014571246741
      -0.081955766992
      -0.075842664767
      -0.031175751529
       0.108486305003
      -0.030399180732
       0.034835636620
       0.001255769493
       0.006289710715
       0.003749638998
       0.004179981017
      -0.017596075670
      -0.014973864193
      -0.003340228863
       0.006954506063
       0.004666156007
       0.056402429506
      -0.073560426258
      -0.061502952361
      -0.104968121452
       0.036849739066
      -0.026636026002
       0.032351758928
       0.037048558084
       0.102321417894
      -0.002374051000
      -0.013308078743
       0.014514272496
      -0.002977231248
       0.030237612098
      -0.019046661936
      -0.004338479263
       0.018916223163
       0.008193390048
      -0.085808750738
      -0.112998831937
       0.001321479197
       0.095930437709
       0.127836359160
      -0.000478330003
      -0.111769763480
      -0.002327785991
       0.085799630519
       0.129539588724
       0.009996015063
      -0.096090640698
      -0.003263640053
      -0.014009072534
      -0.008643304474
       0.080812803351
       0.114778530104
      -0.000898094040
      -0.092485809720
      -0.132154961283
       0.001295407824
       0.113640846040
       0.010854142514
      -0.084563725954
      -0.125943365350
      -0.006585336348
       0.098796572651
      -0.073168188117
      -0.003683250607
       0.076828954141
      -0.010092356507
      -0.107612167605
      -0.068585532453
      -0.023954811712
       0.107361327574
      -0.074442465871
       0.118159193742
       0.007964377300
       0.059220967547
      -0.062473598846
       0.014641466261
       0.185956268576
       0.149278758163
      -0.273381367163
      -0.117263736011
       0.002078397735
      -0.002887177704
      -0.004236006413
      -0.000595355426
      -0.014235631335
       0.009453645201
       0.004646510647
       0.014821798697
      -0.022101685986
      -0.083862842936
       0.233756460146
      -0.055920177564
      -0.000081203955
      -0.002585150724
      -0.006127716598
      -0.001751755900
       0.000604864335
       0.003943255490
      -0.009737758356
      -0.003830231583
       0.007988598072
#
# The atomic numbers and current coordinates in Bohr
#
   1    25.3660402   52.0935912   40.7536518
   6    23.1406831   51.3088522   43.7215808
   1    23.9234819   49.7943059   44.1487985
   6    21.1153959   52.1555856   45.1072882
   6    20.7160899   51.9842509   49.7739797
   1    22.4109739   51.5887424   50.3474681
   6    19.8426457   48.2454927   47.0852138
   6    19.4424657   47.0249620   49.5516006
   6    18.8189918   48.2910076   51.7123647
   6    18.8282422   51.1040353   51.7429864
   1    17.1564169   51.7456902   51.3493634
   1    19.3113284   51.7169165   53.4007217
   6    18.2848703   46.4029255   53.4741544
   6    17.3947735   46.7309464   56.1049471
   6    19.8517776   42.3884623   48.4780564
   6    21.9284841   42.4787073   46.9139700
   1    22.9760899   43.8904528   46.9255646
   6    22.4560978   40.4776228   45.3323430
   1    23.8552911   40.5396172   44.2736638
   6    20.9133547   38.3899555   45.3228295
   6    18.8736972   38.2779994   46.9555918
   1    17.8640571   36.8408807   46.9909703
   6    18.3306802   40.2675743   48.5211647
   1    16.9482030   40.1917162   49.6042224
   6    23.1273033   36.5602057   41.8905205
   1    23.0942601   35.0830653   40.8368953
   1    22.8296066   38.0336840   40.8755441
   1    24.7513845   36.6943961   42.6890638
   1    16.9678130   44.7458183   59.1177682
   1    18.1754509   43.4039146   57.0307341
   7    20.2843921   50.7849081   47.2962956
   7    19.2733408   44.4999334   50.0564131
   7    18.5912029   44.0981470   52.4805835
   7    17.4704323   44.6785923   57.5527899
   8    19.6288589   47.1675229   45.0713151
   8    16.5954404   48.7785920   56.7943819
   8    21.2237141   36.3650672   43.7632026
   6    22.2087368   56.9079650   36.8884765
   1    20.8969448   58.0733025   37.4239108
   1    21.3944892   55.3345633   36.4190425
   6    23.4703755   57.9582074   34.6519014
   1    24.3008468   56.5953773   33.7463307
   1    22.2042741   58.6749357   33.5382219
   6    25.3535402   59.9174391   35.2563088
   1    26.2182146   60.4196721   33.7195739
   1    24.4963726   61.3927485   35.9285003
   6    27.2484102   59.0050492   37.1352341
   1    28.4835501   57.9765180   36.2555284
   1    28.1314105   60.4589090   37.8163445
   6    26.2100302   57.4975656   39.2965928
   6    20.8494378   55.7941588   42.4440900
   1    20.0710661   57.3121056   42.0171696
   6    22.9038219   54.9591965   41.0785989
   6    24.0144857   52.6928702   41.7041145
   6    19.9436258   54.3837212   44.4416373
   1    18.5394464   54.9395780   45.3409647
   1    20.5915281   53.8043222   49.5923305
   7    23.9047042   56.4300590   39.0311054
   8    27.4473582   57.2302312   41.2412210
   6    11.0708278   48.2410449   52.2507289
   1    12.3826198   47.0757074   51.7152946
   1    11.8850754   49.8144466   52.7201629
   6     9.8091891   47.1908025   54.4873040
   1     8.9787178   48.5536326   55.3928747
   1    11.0752904   46.4740742   55.6009835
   6     7.9260244   45.2315708   53.8828966
   1     7.0613500   44.7293378   55.4196315
   1     8.7831919   43.7562614   53.2107051
   6     6.0311544   46.1439607   52.0039713
   1     4.7960145   47.1724919   52.8836770
   1     5.1481541   44.6901008   51.3228609
   6     7.0695344   47.6514443   49.8426126
   6    12.4301268   49.3548511   46.6951154
   1    13.2084985   47.8369043   47.1220358
   6    10.3757427   50.1898134   48.0606066
   6     9.2650789   52.4561397   47.4350909
   6    13.3359388   50.7652887   44.6975681
   1    14.7401182   50.2094319   43.7982407
   1    12.6880364   51.3446876   39.5468750
   7     9.3748604   48.7189509   50.1081000
   8     5.8322064   47.9187787   47.8979844
   1     7.9135244   53.0554187   48.3855536
   6    10.1388815   53.8401577   45.4176246
   1     9.3560827   55.3547040   44.9904070
   6    12.1641687   52.9934243   44.0319172
   6    12.5634746   53.1647590   39.3652257
   1    10.8685907   53.5602674   38.7917373
   6    13.4369189   56.9035172   42.0539916
   6    13.8370989   58.1240479   39.5876048
   6    14.4605728   56.8580023   37.4268407
   6    14.4513224   54.0449746   37.3962190
   1    16.1231476   53.4033196   37.7898420
   1    13.9682362   53.4320934   35.7384837
   6    14.9946942   58.7460844   35.6650510
   6    15.8847911   58.4180635   33.0342583
   6    13.4277870   62.7605476   40.6611490
   6    11.3510805   62.6703026   42.2252354
   1    10.3034747   61.2585571   42.2136408
   6    10.8234668   64.6713871   43.8068624
   1     9.4242735   64.6093927   44.8655417
   6    12.3662099   66.7590544   43.8163759
   6    14.4058673   66.8710105   42.1836136
   1    15.4155075   68.3081292   42.1482351
   6    14.9488844   64.8814355   40.6180408
   1    16.3313616   64.9572936   39.5349830
   6    10.1522613   68.5888042   47.2486849
   1    10.1853045   70.0659446   48.3023101
   1    10.4499580   67.1153259   48.2636613
   1     8.5281801   68.4546138   46.4501416
   1    16.3117515   60.4031916   30.0214372
   1    15.1041137   61.7450953   32.1084713
   7    12.9951725   54.3641018   41.8429098
   7    14.0062238   60.6490765   39.0827923
   7    14.6883617   61.0508629   36.6586219
   7    15.8091322   60.4704176   31.5864155
   8    13.6507057   57.9814870   44.0678903
   8    16.6841242   56.3704178   32.3448235
   8    12.0558505   68.7839426   45.3760028

           -------------------------------------------------
          | TOTAL ENERGY             -193.679764922863 Eh   |
          | GRADIENT NORM               1.318624153942 Eh/ﾎｱ |
          | HOMO-LUMO GAP               2.751547716834 eV   |
           -------------------------------------------------

------------------------------------------------------------------------
 * finished run on 2026/10/03 at 08:18:40.587     
------------------------------------------------------------------------
 total:
 * wall-time:     0 d,  0 h,  0 min,  0.680 sec
 *  cpu-time:     0 d,  0 h,  0 min,  1.938 sec
 * ratio c/w:     2.849 speedup
 SCF:
 * wall-time:     0 d,  0 h,  0 min,  0.396 sec
 *  cpu-time:     0 d,  0 h,  0 min,  1.344 sec
 * ratio c/w:     3.393 speedup


-------------------------   --------------------
FINAL SINGLE POINT ENERGY      -193.679764922860
-------------------------   --------------------


-------------
DIPOLE MOMENT
-------------
                                X             Y             Z
Total Dipole Moment    :      0.00000      -0.00000       0.00000
                        -----------------------------------------
Magnitude (a.u.)       :      0.00000
Magnitude (Debye)      :      0.00000


--------------------------------
SUGGESTED CITATIONS FOR THIS RUN
--------------------------------

Below you find a list of papers that are relevant to this ORCA run
We neither can nor want to force you to cite these papers, but we appreciate if you do
You receive ORCA, which is the product of decades of hard work by many enthusiastic individuals, for free
The only thing we kindly ask in return is that you cite our papers,
We deeply appreciate it, if you show your appreciation for ORCA by not just citing the generic ORCA reference.

Please note that relegating all ORCA citations to the supporting information does *not* help us.
SI sections are not indexed - citations you put there will not count into any citation statistics
But we need these citations in order to attract the funding resources that allow us to do what we are doing

Therefore, if you are a happy ORCA user, please consider citing a few of the papers listed below in the main body of your paper

In addition to the list printed below, the program has created the file D2\D2_pull_+0.5A_XTB2_SP.bibtex that contains the list in bibtex format
You can import this file easily into all common literature databanks and citation aid programs

It goes without saying that in many instances, there are alternative algorithms to achieve similar
results as the ones you have gotten from ORCA. It is, of course, also the case that in some instances
ORCA just re-implements algorithms worked out by others. We are fully aware of that and we are also
fully appreciative of our colleagues work. Hence this citation list should not be read as indicating
that the listed papers, which are focused on our own work, are the only ones worth citing. It simply
meant to make it easier for users to cite ORCA specific papers. It is not a substitute for doing your
own literature research and citing the relevant literature in a scientifically appropriate manner.

List of essential papers. We consider these as the minimum necessary citations

  1. Bannwarth, C.; Ehlert, S.; Grimme, S.
     GFN2-xTB窶尿n Accurate and Broadly Parametrized Self-Consistent Tight-Binding Quantum Chemical Method with Multipole Electrostatics and Density-Dependent Dispersion Contributions
     J. Chem. Theory Comput. 2019 15(3), 1652-1671
     doi.org/10.1021/acs.jctc.8b01176
  2. Neese, F.
     Software update: the ORCA program system, version 6.0
     WIRES Comput. Molec. Sci. 2025 15(1), e70019
     doi.org/10.1002/wcms.70019

List of papers to cite with high priority. The work reported in these papers was absolutely
necessary for this run to complete.
Our perspective: the developers of density functionals and basis sets usually get cited in chemistry papers
Good! But without the algorithms to do something with them, the functionals or basis sets would not do anything.
Hence, in our opinion, the algorithm design and method developments papers are equally worthy of getting cited

  1. Bannwarth, C.; Caldeweyher, E.; Ehlert, S.; Hansen, A.; Pracht, P.; Seibert, J.; Spicher, S.; Grimme, S.
     Extended tight-binding quantum chemistry methods
     WIRES Comput. Molec. Sci. 2020 11(2), e1493
     doi.org/10.1002/wcms.1493

List of suggested additional citations. These are papers that are important in the 'surrounding' of 
of this run, or papers that preceded the highly important papers. If you like your results we are grateful for a citation.

  1. Neese, F.
     The ORCA program system
     WIRES Comput. Molec. Sci. 2012 2(1), 73-78
     doi.org/10.1002/wcms.81
  2. Neese, F.
     Software update: the ORCA program system, version 4.0
     WIRES Comput. Molec. Sci. 2018 8(1), 1-6
     doi.org/10.1002/wcms.1327
  3. Neese, F.; Wennmohs, F.; Becker, U.; Riplinger, C.
     The ORCA quantum chemistry program package
     J. Chem. Phys. 2020 152(22), 224108
     doi.org/10.1063/5.0004608
  4. Neese, F.
     Software update: The ORCA program system窶之ersion 5.0
     WIRES Comput. Molec. Sci. 2022 12(1), e1606
     doi.org/10.1002/wcms.1606

List of optional additional citations

  1. Neese, F.
     Approximate second-order SCF convergence for spin unrestricted wavefunctions
     Chem. Phys. Lett. 2000 325(1-3), 93-98
     doi.org/10.1016/s0009-2614(00)00662-x

Timings for individual modules:

Sum of individual times          ...        0.797 sec (=   0.013 min)
XTB module                       ...        0.797 sec (=   0.013 min) 100.0 %
                             ****ORCA TERMINATED NORMALLY****
TOTAL RUN TIME: 0 days 0 hours 0 minutes 1 seconds 518 msec
