
                                 *****************
                                 * O   R   C   A *
                                 *****************

                                            #,                                       
                                            ###                                      
                                            ####                                     
                                            #####                                    
                                            ######                                   
                                           ########,                                 
                                     ,,################,,,,,                         
                               ,,#################################,,                 
                          ,,##########################################,,             
                       ,#########################################, ''#####,          
                    ,#############################################,,   '####,        
                  ,##################################################,,,,####,       
                ,###########''''           ''''###############################       
              ,#####''   ,,,,##########,,,,          '''####'''          '####       
            ,##' ,,,,###########################,,,                        '##       
           ' ,,###''''                  '''############,,,                           
         ,,##''                                '''############,,,,        ,,,,,,###''
      ,#''                                            '''#######################'''  
     '                                                          ''''####''''         
             ,#######,   #######,   ,#######,      ##                                
            ,#'     '#,  ##    ##  ,#'     '#,    #''#        ,####,    ,#,          
            ##       ##  ##   ,#'  ##            #'  '#       #'       ,# #          
            ##       ##  #######   ##           ,######,      #####,      #          
            '#,     ,#'  ##    ##  '#,     ,#' ,#      #,     #,   #      #          
             '#######'   ##     ##  '#######'  #'      '#     '####' #    #          



                #########################################################
                #                        -***-                          #
                #          Department of theory and spectroscopy        #
                #                                                       #
                #                      Frank Neese                      #
                #                                                       #
                #     Directorship, Architecture, Infrastructure        #
                #                    SHARK, DRIVERS                     #
                #        Core code/Algorithms in most modules           #
                #                                                       #
                #        Max Planck Institute fuer Kohlenforschung      #
                #                Kaiser Wilhelm Platz 1                 #
                #                 D-45470 Muelheim/Ruhr                 #
                #                      Germany                          #
                #                                                       #
                #                  All rights reserved                  #
                #                        -***-                          #
                #########################################################


                         Program Version 6.1.1  -  RELEASE   -


 With contributions from (in alphabetic order):
[Max-Planck-Institut fuer Kohlenforschung]                               
  Daniel Aravena         : Magnetic Suceptibility                        
  Michael Atanasov       : Ab Initio Ligand Field Theory (pilot matlab implementation)
  Alexander A. Auer      : GIAO ZORA, VPT2 properties, NMR spectrum      
  Ute Becker             : All parallelization in ORCA, NUMFREQ, NUMCALC 
  Giovanni Bistoni       : ED, misc. LED, open-shell LED, HFLD           
  Dmytro Bykov           : pre 5.0 version of the SCF Hessian            
  Marcos Casanova-Pﾃ｡ez   : Triplet and SCS-CIS(D). UHF-(DLPNO)-IP/EA/STEOM-CCSD. UHF-CVS-IP/STEOM-CCSD   
  Vijay G. Chilkuri      : MRCI spin determinant printing, contributions to CSF-ICE 
  Pauline Colinet        : FMM embedding                                 
  Dipayan Datta          : RHF DLPNO-CCSD density                        
  Achintya Kumar Dutta   : EOM-CC, STEOM-CC                              
  Nicolas Foglia         : Exact transition moments, OPA infrastructure, MCD improvements    
  Dmitry Ganyushin       : Spin-Orbit,Spin-Spin,Magnetic field MRCI      
  Miquel Garcia-Rates    : C-PCM and meta-GGA Hessian, CCSD/C-PCM, Gaussian charge scheme 
  Tiago L. C. Gouveia    : GS-ROHF, GS-ROCIS                             
  Yang Guo               : DLPNO-NEVPT2, F12-NEVPT2, CIM, IAO-localization        
  Andreas Hansen         : Spin unrestricted coupled pair/coupled cluster methods 
  Ingolf Harden          : AUTO-CI MPn and infrastructure                
  Benjamin Helmich-Paris : MC-RPA, TRAH-(SCF,CASSCF), AVAS, COSX integrals, SCF dyn. polar., MC-PDFT, srDFT 
  Lee Huntington         : MR-EOM, pCC                                   
  Robert Izsak           : Overlap fitted RIJCOSX, COSX-SCS-MP3, EOM     
  Riya Kayal             : Wick's Theorem for AUTO-CI, AUTO-CI UHF-CCSDT 
  Emily Kempfer          : AUTO-CI RHF CISDT and CCSDT, approximate NEVPT4
  Christian Kollmar      : KDIIS, OOCD, Brueckner-CCSD(T), CCSD density, CASPT2, CASPT2-K, improved NEVPT2 
  Axel Koslowski         : Symmetry handling                             
  Simone Kossmann        : meta-GGA functionals, TD-DFT gradient, OOMP2, (MP2 Hessian; deprecated post 5.0) 
  Lucas Lang             : DCDCAS, Hyperfine gauge corrections, ICE-SOC+SSC
  Marvin Lechner         : AUTO-CI (C++ implementation), FIC-MRCC        
  Spencer Leger          : CASSCF response                               
  Dagmar Lenk            : GEPOL surface, SMD, ORCA-2-JSON               
  Dimitrios Liakos       : Extrapolation schemes; Compound Job, Property file
  Dimitrios Manganas     : Further ROCIS development; embedding schemes. LFT, Crystal Embedding 
  Dimitrios Pantazis     : SARC Basis sets                               
  Anastasios Papadopoulos: AUTO-CI, single reference methods and gradients 
  Taras Petrenko         : pre 6.0 DFT Hessian and TD-DFT gradient,  ECA, NRVS 
  Petra Pikulova         : Analytic Raman intensities                    
  Peter Pinski           : DLPNO-MP2, DLPNO-MP2 Gradient                 
  Shashank Vittal Rao    : ES-AILFT, MagRelax                            
  Christoph Reimann      : Effective Core Potentials                     
  Marius Retegan         : Local ZFS, SOC                                
  Christoph Riplinger    : Optimizer, TS searches, QM/MM, DLPNO-CCSD(T), (RO)-DLPNO pert. Triples 
  Michael Roemelt        : Original ROCIS implementation, recursive CI coupling coefficients
  Masaaki Saitow         : Open-shell DLPNO-CCSD energy and density      
  Barbara Sandhoefer     : DKH picture change effects                    
  Yorick L. A. Schmerwitz: GMF and freeze-and-release deltaSCF, NEB S-IDPP initial path                    
  Kantharuban Sivalingam : CASSCF convergence/infrastructure, NEVPT2, NEVPT3, NEVPT4(SD), FIC-MRCI and CEPA variants
  Bernardo de Souza      : ESD, SOC TD-DFT                               
  Georgi L. Stoychev     : AutoAux, RI-MP2 NMR, DLPNO-MP2 response, X2C  
  Van Anh Tran           : RI-MP2 g-tensors                              
  Willem Van den Heuvel  : Paramagnetic NMR                              
  Zikuan Wang            : NOTCH, Electric field optimization            
  Frank Wennmohs         : Technical directorship and infrastructure     
  Hang Xu                : AUTO-CI-Response properties                   
                                                                         
[FACCTs GmbH]                                                            
  Markus Bursch, Nicolas Foglia, Miquel Garcia-Rates, Ingolf Harden, Hagen Neugebauer, Anastasios Papadopoulos, 
  Christoph Riplinger, Bernardo de Souza, Georgi L. Stoychev                                                    
                                                                 
  APM, various basis sets, CI-OPT, improved COSX, DLPNO-Multilevel,           
  DOCKER, DRACO, updates on ESD, Fragmentator, GOAT, IRC, LR-CPCM, L-BFGS, MBIS, meta-GGA TD-DFT gradient, ML-optimized integration grids, 
  MM, NACMEs, nearIR, NEB, NEB-TS, NL-DFT gradient (VV10), 2- and 3-layer-ONIOM, interface openCOSMO-RS, QMMM,   
  Crystal-QMMM, RESP, rigid body optimization, SF, symmetry and pop. for TD-DFT, various functionals, SOLVATOR                                   
                                                                         
[Other institutions]                                                     
  V. Asgeirsson          : NEB                                           
  Christoph Bannwarth    : sTDA-DFT, sTD-DFT, PBEh-3c, B97-3c, D3        
  Giovanni Bistoni       : ETS/NOCV, ADLD/ADEX, COVALED                  
  Martin Brehm           : Molecular dynamics                            
  Ronald Cardenas        : ETS/NOCV                                      
  Martina Colucci        : COVALED                                       
  Sebastian Ehlert       : rSCAN, r2SCAN, r2SCAN-3c, D4, dhf basis sets  
  Marvin Friede          : D4 for Fr, Ra, Ac-Lr                          
  Lars Goerigk           : TD-DFT with DH, B97 family of functionals     
  Stefan Grimme          : VdW corrections, initial TS optimization, DFT functionals, gCP, sTDA/sTD-DF 
  Waldemar Hujo          : DFT-NL                                        
  H. Jonsson             : NEB                                           
  Holger Kruse           : gCP                                           
  Marcel Mueller         : wB97X-3c, vDZP basis set                      
  Hagen Neugebauer       : wr2SCAN, Native XTB                           
  Gianluca Regni         : ADLD/ADEX                                     
  Tobias Risthaus        : pre 6.0 range-separated hybrid DFT and stability analysis
  Lukas Wittmann         : regularized MP2, r2SCAN double-hybrids, wr2SCAN        
                                                                         
We gratefully acknowledge several colleagues who have allowed us to      
interface, adapt or use parts of their codes:                            
  Ed Valeev, F. Pavosevic, A. Kumar             : LibInt (2-el integral package), F12 methods 
  Garnet Chan, S. Sharma, J. Yang, R. Olivares  : DMRG                   
  Ulf Ekstrom                                   : XCFun DFT Library      
  Mihaly Kallay                                 : mrcc  (arbitrary order and MRCC methods)
  Frank Weinhold                                : gennbo (NPA and NBO analysis)           
  Simon Mueller                                 : openCOSMO-RS                            
  Christopher J. Cramer and Donald G. Truhlar   : smd solvation model                     
  S Lehtola, MJT Oliveira, MAL Marques          : LibXC Library                           
  Liviu Ungur et al                             : ANISO software                          


 Your calculation uses the libint2 library for the computation of 2-el integrals
 For citations please refer to: http://libint.valeyev.net

 Your ORCA version has been built with support for libXC version: 7.0.0
 For citations please refer to: https://libxc.gitlab.io

 This ORCA versions uses:
   CBLAS   interface :  Fast vector & matrix operations
   LAPACKE interface :  Fast linear algebra routines
   Shared memory     :  Shared parallel matrices


  ***********************************
  * Starting time: Sat Oct  3 09:28:20 2026
  * Host name:     DESKTOP-2KDTO5M
  * Process ID:    4032
  * Working dir.:  C:\Users\naoki\Downloads\デスクトップ\data\Molecules\Calculations\Apixaban\CrystalFragment
  ***********************************

NOTE: MaxCore=2000 MB was set to SCF,MP2,MDCI,CIPSI,MRCI,RASCI and CIS
      => If you want to overwrite this, your respective input block should be placed after the MaxCore statement
Your calculation utilizes the semiempirical GFN2-xTB method
Please cite in your paper:
Bannwarth, C.; Ehlert S.; Grimme, S. J. Chem. Theory Comput. 2019, 15, 1652.
   

================================================================================

================================================================================
                                        WARNINGS
                       Please study these warnings very carefully!
================================================================================


WARNING: Found dipole moment calculation with XTB calculation
  ===> : Switching off dipole moment calculation

Environment variable XTBEXE for xtb has been set!

================================================================================
                                       INPUT FILE
================================================================================
NAME = D2\D2_pull_+10.0A_XTB2_SP.inp
|  1> # D2 pull-apart: molecule B displaced +10.0 A along centroid vector (rigid), XTB2 single point
|  2> 
|  3> ! XTB2
|  4> 
|  5> %pal
|  6>   nprocs 4
|  7> end
|  8> 
|  9> %maxcore 2000
| 10> 
| 11> * xyz 0 1
| 12> H     13.42313039    27.56674130    21.56590380
| 13> C     12.24552212    27.15147530    23.13646418
| 14> H     12.65976143    26.35001192    23.36253803
| 15> C     11.17378631    27.59954731    23.86974896
| 16> C     10.96248270    27.50888090    26.33925576
| 17> H     11.85937665    27.29958684    26.64273277
| 18> C     10.50027590    25.53041526    24.91642213
| 19> C     10.28850978    24.88453821    26.22157779
| 20> C      9.95858159    25.55450069    27.36500490
| 21> C      9.96347671    27.04309087    27.38120922
| 22> H      9.07878487    27.38264004    27.17291292
| 23> H     10.21911492    27.36741362    28.25844499
| 24> C      9.67593669    24.55537069    28.29730390
| 25> C      9.20491770    24.72895188    29.68945945
| 26> C     10.50510832    22.43100826    25.65348267
| 27> C     11.60405407    22.47876385    24.82580380
| 28> H     12.15842317    23.22582738    24.83193942
| 29> C     11.88325522    21.41983555    23.98884284
| 30> H     12.62367639    21.45264156    23.42861390
| 31> C     11.06687070    20.31508956    23.98380849
| 32> C      9.98753047    20.25584495    24.84782909
| 33> H      9.45325189    19.49535448    24.86655058
| 34> C      9.70017823    21.30868268    25.67629458
| 35> H      8.96860279    21.26854030    26.24942405
| 36> C     12.23844184    19.34682767    22.16750882
| 37> H     12.22095615    18.56515864    21.60995437
| 38> H     12.08090755    20.12655880    21.63040643
| 39> H     13.09786863    19.41783816    22.59007971
| 40> H      8.97897997    23.67846732    31.28377568
| 41> H      9.61803440    22.96836246    30.17936479
| 42> N     10.73403801    26.87421603    25.02812181
| 43> N     10.19901274    23.54835064    26.48871307
| 44> N      9.83804090    23.33573445    27.77152880
| 45> N      9.24495466    23.64289287    30.45562483
| 46> O     10.38714479    24.95997820    23.85071282
| 47> O      8.78192884    25.81251929    30.05429261
| 48> O     11.23110584    19.24356486    23.15848947
| 49> C     11.75235738    30.11439821    19.52054112
| 50> H     11.05818695    30.73106822    19.80388073
| 51> H     11.32147613    29.28178988    19.27212733
| 52> C     12.41998786    30.67016254    18.33699652
| 53> H     12.85945434    29.94898392    17.85778917
| 54> H     11.74999586    31.04943882    17.74766273
| 55> C     13.41651570    31.70694332    18.65683517
| 56> H     13.87408166    31.97271356    17.84363006
| 57> H     12.96292215    32.48764340    19.01254358
| 58> C     14.41923773    31.22412738    19.65111962
| 59> H     15.07284560    30.67985208    19.18559942
| 60> H     14.88650136    31.99347686    20.01154773
| 61> C     13.86975067    30.42640140    20.79486138
| 62> C     11.03304735    29.52499733    22.46044515
| 63> H     10.62115078    30.32826020    22.23452862
| 64> C     12.12018061    29.08315431    21.73785837
| 65> C     12.70791857    27.88386610    22.06886699
| 66> C     10.55371227    28.77862591    23.51750167
| 67> H      9.81065253    29.07277266    23.99340522
| 68> H     10.89656743    28.47202118    26.24313111
| 69> N     12.64982471    29.86150122    20.65437150
| 70> O     14.52451648    30.28493411    21.82391432
| 71> C     -2.07625339    30.72759745    27.14429675
| 72> H     -1.38208296    30.11092744    26.86095715
| 73> H     -1.64537213    31.56020578    27.39271054
| 74> C     -2.74388387    30.17183312    28.32784136
| 75> H     -3.18335035    30.89301174    28.80704870
| 76> H     -2.07389187    29.79255684    28.91717514
| 77> C     -3.74041171    29.13505234    28.00800270
| 78> H     -4.19797767    28.86928210    28.82120782
| 79> H     -3.28681816    28.35435226    27.65229430
| 80> C     -4.74313374    29.61786828    27.01371826
| 81> H     -5.39674161    30.16214358    27.47923846
| 82> H     -5.21039737    28.84851880    26.65329014
| 83> C     -4.19364668    30.41559426    25.86997650
| 84> C     -1.35694335    31.31699833    24.20439272
| 85> H     -0.94504678    30.51373546    24.43030925
| 86> C     -2.44407661    31.75884135    24.92697951
| 87> C     -3.03181458    32.95812956    24.59597089
| 88> C     -0.87760828    32.06336975    23.14733620
| 89> H     -0.13454854    31.76922300    22.67143265
| 90> H     -1.22046344    32.36997448    20.42170677
| 91> N     -2.97372072    30.98049444    26.01046637
| 92> O     -4.84841249    30.55706155    24.84092356
| 93> H     -3.74702640    33.27525436    25.09893408
| 94> C     -2.56941812    33.69052036    23.52837369
| 95> H     -2.98365743    34.49198374    23.30229984
| 96> C     -1.49768232    33.24244835    22.79508891
| 97> C     -1.28637870    33.33311476    20.32558212
| 98> H     -2.18327266    33.54240882    20.02210511
| 99> C     -0.82417191    35.31158040    21.74841575
|100> C     -0.61240579    35.95745745    20.44326009
|101> C     -0.28247760    35.28749497    19.29983297
|102> C     -0.28737271    33.79890479    19.28362865
|103> H      0.59731912    33.45935562    19.49192495
|104> H     -0.54301093    33.47458204    18.40639288
|105> C      0.00016730    36.28662497    18.36753398
|106> C      0.47118629    36.11304378    16.97537843
|107> C     -0.82900433    38.41098740    21.01135520
|108> C     -1.92795008    38.36323181    21.83903407
|109> H     -2.48231918    37.61616828    21.83289846
|110> C     -2.20715123    39.42216011    22.67599503
|111> H     -2.94757240    39.38935410    23.23622398
|112> C     -1.39076671    40.52690610    22.68102938
|113> C     -0.31142648    40.58615071    21.81700879
|114> H      0.22285210    41.34664118    21.79828729
|115> C     -0.02407424    39.53331298    20.98854330
|116> H      0.70750120    39.57345536    20.41541383
|117> C     -2.56233785    41.49516799    24.49732906
|118> H     -2.54485216    42.27683702    25.05488350
|119> H     -2.40480356    40.71543686    25.03443145
|120> H     -3.42176464    41.42415750    24.07475817
|121> H      0.69712402    37.16352834    15.38106220
|122> H      0.05806959    37.87363320    16.48547309
|123> N     -1.05793402    33.96777963    21.63671607
|124> N     -0.52290875    37.29364502    20.17612480
|125> N     -0.16193691    37.50626121    18.89330908
|126> N      0.43114933    37.19910279    16.20921304
|127> O     -0.71104080    35.88201746    22.81412506
|128> O      0.89417516    35.02947637    16.61054526
|129> O     -1.55500185    41.59843080    23.50634841
|130> *
|131> 
|132>                          ****END OF INPUT****
================================================================================

                       ****************************
                       * Single Point Calculation *
                       ****************************

      -----------------------------------------------------------      
     |                   =====================                   |     
     |                           x T B                           |     
     |                   =====================                   |     
     |                         S. Grimme                         |     
     |          Mulliken Center for Theoretical Chemistry        |     
     |                    University of Bonn                     |     
      -----------------------------------------------------------      

   * xtb version 6.7.1pre (5071a88) compiled by 'Marcel@Raven' on 2024-07-23

   xtb is free software: you can redistribute it and/or modify it under
   the terms of the GNU Lesser General Public License as published by
   the Free Software Foundation, either version 3 of the License, or
   (at your option) any later version.
   
   xtb is distributed in the hope that it will be useful,
   but WITHOUT ANY WARRANTY; without even the implied warranty of
   MERCHANTABILITY or FITNESS FOR A PARTICULAR PURPOSE.  See the
   GNU Lesser General Public License for more details.
   
   Cite this work as:
   * C. Bannwarth, E. Caldeweyher, S. Ehlert, A. Hansen, P. Pracht,
     J. Seibert, S. Spicher, S. Grimme, WIREs Comput. Mol. Sci., 2020, 11,
     e01493. DOI: 10.1002/wcms.1493
   
   for GFN2-xTB:
   * C. Bannwarth, S. Ehlert and S. Grimme., J. Chem. Theory Comput., 2019,
     15, 1652-1671. DOI: 10.1021/acs.jctc.8b01176
   for GFN1-xTB:
   * S. Grimme, C. Bannwarth, P. Shushkov, J. Chem. Theory Comput., 2017,
     13, 1989-2009. DOI: 10.1021/acs.jctc.7b00118
   for GFN0-xTB:
   * P. Pracht, E. Caldeweyher, S. Ehlert, S. Grimme, ChemRxiv, 2019, preprint.
     DOI: 10.26434/chemrxiv.8326202.v1
   for GFN-FF:
   * S. Spicher and S. Grimme, Angew. Chem. Int. Ed., 2020, 59, 15665-15673.
     DOI: 10.1002/anie.202004239
   
   for ALPB and GBSA implicit solvation:
   * S. Ehlert, M. Stahn, S. Spicher, S. Grimme, J. Chem. Theory Comput.,
     2021, 17, 4250-4261. DOI: 10.1021/acs.jctc.1c00471
   
   for ddCOSMO and CPCM-X implicit solvation:
   * M. Stahn, S. Ehlert, S. Grimme, J. Phys. Chem. A,
     2023, XX, XXXX-XXXX. DOI: 10.1021/acs.jpca.3c04382
   
   for DFT-D4:
   * E. Caldeweyher, C. Bannwarth and S. Grimme, J. Chem. Phys., 2017,
     147, 034112. DOI: 10.1063/1.4993215
   * E. Caldeweyher, S. Ehlert, A. Hansen, H. Neugebauer, S. Spicher,
     C. Bannwarth and S. Grimme, J. Chem. Phys., 2019, 150, 154122.
     DOI: 10.1063/1.5090222
   * E. Caldeweyher, J.-M. Mewes, S. Ehlert and S. Grimme, Phys. Chem. Chem. Phys.
     2020, 22, 8499-8512. DOI: 10.1039/D0CP00502A
   
   for sTDA-xTB:
   * S. Grimme and C. Bannwarth, J. Chem. Phys., 2016, 145, 054103.
     DOI: 10.1063/1.4959605
   
   in the mass-spec context:
   * V. Asgeirsson, C. Bauer and S. Grimme, Chem. Sci., 2017, 8, 4879.
     DOI: 10.1039/c7sc00601b
   * J. Koopman and S. Grimme, ACS Omega 2019, 4, 12, 15120-15133.
     DOI: 10.1021/acsomega.9b02011
   
   for metadynamics refer to:
   * S. Grimme, J. Chem. Theory Comput., 2019, 155, 2847-2862
     DOI: 10.1021/acs.jctc.9b00143
   
   for SPH calculations refer to:
   * S. Spicher and S. Grimme, J. Chem. Theory Comput., 2021, 17, 1701-1714
     DOI: 10.1021/acs.jctc.0c01306
   
   for ONIOM refer to:
   * C. Plett, A. Katbashev, S. Ehlert, S. Grimme, M. Bursch,
     Phys. Chem. Chem. Phys., 2023, 25, 17860-17868. DOI: 10.1039/D3CP02178E
   
   for DIPRO refer to:
   * J. Kohn, N. Gildemeister, S. Grimme, D. Fazzi, A. Hansen,
     J. Chem. Phys., 2023, just accepted.
   
   for PTB refer to:
   * S. Grimme, M. Mueller, A. Hansen, J. Chem. Phys., 2023, 158, 124111.
     DOI: 10.1063/5.0137838
   
   with help from (in alphabetical order)
   P. Atkinson, C. Bannwarth, F. Bohle, G. Brandenburg, E. Caldeweyher
   M. Checinski, S. Dohm, S. Ehlert, S. Ehrlich, I. Gerasimov, C. Hﾃｶlzer
   A. Katbashev, J. Kohn, J. Koopman, C. Lavigne, S. Lehtola, F. Mﾃ､rz, M. Mﾃｼller,
   F. Musil, H. Neugebauer, J. Pisarek, C. Plett, P. Pracht, F. Pultar,
   J. Seibert, P. Shushkov, S. Spicher, M. Stahn, M. Steiner, T. Strunk,
   J. Stﾃｼckrath, T. Rose, and J. Unsleber
   
 * started run on 2026/10/03 at 09:28:21.117     
   ID    Z sym.   atoms
    1    1 H      1, 3, 6, 11, 12, 17, 19, 22, 24, 26-30, 39, 40, 42, 43, 45,
                  46, 48, 49, 52, 56, 57, 61, 62, 64, 65, 67, 68, 70, 71, 74,
                  78, 79, 82, 84, 87, 92, 93, 98, 100, 103, 105, 107-111
    2    6 C      2, 4, 5, 7-10, 13-16, 18, 20, 21, 23, 25, 38, 41, 44, 47,
                  50, 51, 53-55, 60, 63, 66, 69, 72, 73, 75-77, 83, 85, 86,
                  88-91, 94-97, 99, 101, 102, 104, 106
    3    7 N      31-34, 58, 80, 112-115
    4    8 O      35-37, 59, 81, 116-118

           -------------------------------------------------
          |                Calculation Setup                |
           -------------------------------------------------

          program call               : C:\ORCA_6.1.1\xtb-6.7.1pre\xtb.exe  D2\D2_pull_+10.0A_XTB2_SP_XTB.xyz --grad -c 0 -u 0 -P 4 --namespace D2\D2_pull_+10.0A_XTB2_SP --input D2\D2_pull_+10.0A_XTB2_SP_XTB.input.tmp --acc 1.000000      
          calculation namespace      : D2\D2_pull_+10.0A_XTB2_SP
          coordinate file            : D2\D2_pull_+10.0A_XTB2_SP_XTB.xyz
          omp threads                :                     4


molecular fragmentation (1/2 indicates fragments):
111111111111111111111111111111111111111111111111111111111112222222222222
2222222222222222222222222222222222222222222222
# atoms in fragment 1/2:    59    59
 fragment masses (1/2) :      459.50      459.50
CMA distance (Bohr)    :  29.835
constraining FC (au)   :  0.0500

           -------------------------------------------------
          |                 G F N 2 - x T B                 |
           -------------------------------------------------

        Reference                      10.1021/acs.jctc.8b01176
      * Hamiltonian:
        H0-scaling (s, p, d)           1.850000    2.230000    2.230000
        zeta-weighting                 0.500000
      * Dispersion:
        s8                             2.700000
        a1                             0.520000
        a2                             5.000000
        s9                             5.000000
      * Repulsion:
        kExp                           1.500000    1.000000
        rExp                           1.000000
      * Coulomb:
        alpha                          2.000000
        third order                    shell-resolved
        anisotropic                    true
        a3                             3.000000
        a5                             4.000000
        cn-shift                       1.200000
        cn-exp                         4.000000
        max-rad                        5.000000


          ...................................................
          :                      SETUP                      :
          :.................................................:
          :  # basis functions                 322          :
          :  # atomic orbitals                 322          :
          :  # shells                          186          :
          :  # electrons                       348          :
          :  max. iterations                   250          :
          :  Hamiltonian                  GFN2-xTB          :
          :  restarted?                      false          :
          :  GBSA solvation                  false          :
          :  PC potential                    false          :
          :  electronic temp.          300.0000000     K    :
          :  accuracy                    1.0000000          :
          :  -> integral cutoff          0.2500000E+02      :
          :  -> integral neglect         0.1000000E-07      :
          :  -> SCF convergence          0.1000000E-05 Eh   :
          :  -> wf. convergence          0.1000000E-03 e    :
          :  Broyden damping             0.4000000          :
          :  net charge                          0          :
          :  unpaired electrons                  0          :
          ...................................................

 iter      E             dE          RMSdq      gap      omega  full diag
   1   -197.4385182 -0.197439E+03  0.413E+00    2.90       0.0  T
   2   -197.9682665 -0.529748E+00  0.242E+00    2.71       1.0  T
   3   -198.0188622 -0.505957E-01  0.129E+00    3.13       1.0  T
   4   -198.0257882 -0.692602E-02  0.433E-01    2.93       1.0  T
   5   -198.0405480 -0.147598E-01  0.915E-02    2.98       1.0  T
   6   -198.0407488 -0.200785E-03  0.528E-02    3.01       1.0  T
   7   -198.0409128 -0.164017E-03  0.221E-02    3.03       1.0  T
   8   -198.0409198 -0.707355E-05  0.827E-03    3.02       1.1  T
   9   -198.0409227 -0.285999E-05  0.364E-03    3.03       2.5  T
  10   -198.0409229 -0.204051E-06  0.146E-03    3.02       6.3  T
  11   -198.0409230 -0.123866E-06  0.550E-04    3.02      16.7  T
  12   -198.0409230 -0.108060E-07  0.258E-04    3.02      35.6  T

   *** convergence criteria satisfied after 12 iterations ***

         #    Occupation            Energy/Eh            Energy/eV
      -------------------------------------------------------------
         1        2.0000           -0.7214583             -19.6319
       ...           ...                  ...                  ...
       168        2.0000           -0.3875118             -10.5447
       169        2.0000           -0.3821639             -10.3992
       170        2.0000           -0.3821639             -10.3992
       171        2.0000           -0.3807864             -10.3617
       172        2.0000           -0.3807864             -10.3617
       173        2.0000           -0.3790332             -10.3140
       174        2.0000           -0.3790332             -10.3140 (HOMO)
       175                         -0.2678935              -7.2898 (LUMO)
       176                         -0.2678935              -7.2898
       177                         -0.2402502              -6.5375
       178                         -0.2402501              -6.5375
       179                         -0.2329780              -6.3397
       ...                                ...                  ...
       322                          0.8685158              23.6335
      -------------------------------------------------------------
                  HL-Gap            0.1111396 Eh            3.0243 eV
             Fermi-level           -0.3234634 Eh           -8.8019 eV

 SCC (total)                   0 d,  0 h,  0 min,  0.200 sec
 SCC setup                      ...        0 min,  0.001 sec (  0.500%)
 Dispersion                     ...        0 min,  0.003 sec (  1.500%)
 classical contributions        ...        0 min,  0.001 sec (  0.500%)
 integral evaluation            ...        0 min,  0.016 sec (  8.000%)
 iterations                     ...        0 min,  0.124 sec ( 62.000%)
 molecular gradient             ...        0 min,  0.054 sec ( 27.000%)
 printout                       ...        0 min,  0.001 sec (  0.500%)

         :::::::::::::::::::::::::::::::::::::::::::::::::::::
         ::                     SUMMARY                     ::
         :::::::::::::::::::::::::::::::::::::::::::::::::::::
         :: total energy            -193.658889700199 Eh    ::
         :: gradient norm              1.318596710053 Eh/a0 ::
         :: HOMO-LUMO gap              3.024262533661 eV    ::
         ::.................................................::
         :: SCC energy              -198.041684882212 Eh    ::
         :: -> isotropic ES            0.296892047968 Eh    ::
         :: -> anisotropic ES          0.005545231212 Eh    ::
         :: -> anisotropic XC          0.036978364772 Eh    ::
         :: -> dispersion             -0.138412503490 Eh    ::
         :: repulsion energy           4.382795182013 Eh    ::
         :: add. restraining           0.000000000000 Eh    ::
         :: total charge              -0.000000000000 e     ::
         :::::::::::::::::::::::::::::::::::::::::::::::::::::


Property printout bound to 'properties.out'
#
# Number of atoms
#
       118
#
# The current total energy in Eh
#
   -193.658889700199
#
# The current gradient in Eh/bohr
#
      -0.125140661949
       0.054279227217
       0.085534931325
       0.062415207710
      -0.119533995097
       0.033316727211
      -0.071945358531
       0.138810799390
      -0.038113736785
       0.007248824003
       0.004413404956
      -0.015712531609
       0.081734818018
       0.075783680069
       0.030953226576
      -0.108440381668
       0.030422520556
      -0.034858650117
      -0.000530279876
      -0.003166051759
      -0.003232669556
      -0.004516206411
       0.017199223042
       0.015207843104
       0.003070525407
      -0.006487062613
      -0.004800217929
      -0.056712479849
       0.073282815101
       0.061451580698
       0.104920446047
      -0.036408756693
       0.026148054686
      -0.032265605985
      -0.037020326581
      -0.102378414676
       0.001929908456
       0.013912076324
      -0.014145128071
       0.004486644197
      -0.031174633462
       0.018549504354
       0.004511392897
      -0.019209262207
      -0.008416065017
       0.085910052375
       0.113023046901
      -0.001450001145
      -0.095919257230
      -0.127849242891
       0.000475173117
       0.111838799638
       0.002611029786
      -0.085697995011
      -0.129559820591
      -0.009989292191
       0.096138882791
       0.003324183488
       0.013308076279
       0.008161534254
      -0.080989844276
      -0.114776523519
       0.001045275172
       0.092506727086
       0.132166164840
      -0.001292084843
      -0.113696526922
      -0.010815975431
       0.084472126220
       0.125922483615
       0.006411013721
      -0.098808079191
       0.073228707055
       0.003690926612
      -0.076902774226
       0.010100669450
       0.107644135153
       0.068600659302
       0.023950968051
      -0.107404580193
       0.074439231241
      -0.118160384070
      -0.007992280257
      -0.059234540487
       0.062967451037
      -0.014640246886
      -0.185695875483
      -0.148897181019
       0.273431858092
       0.117409027268
      -0.002648230974
       0.000774934427
       0.005094423761
       0.000493191029
       0.014607815222
      -0.009380789268
      -0.005160251224
      -0.015552728171
       0.021992638531
       0.082642534169
      -0.233692818798
       0.055496571410
      -0.001132643836
       0.001870449777
       0.005340396842
      -0.000009917335
      -0.000228931875
      -0.004133485907
       0.009606836410
       0.004439011135
      -0.007455408138
      -0.096031017433
      -0.014220777379
      -0.030361936631
       0.081125638604
      -0.076408025739
      -0.039382204122
       0.047875226772
       0.103586903644
       0.025980378818
      -0.026482012898
      -0.016432443604
      -0.068931274298
      -0.055316245417
       0.086721905520
       0.055941750461
       0.082561048828
      -0.045433265486
       0.068519773861
      -0.000019225208
       0.072273315472
      -0.044712582711
      -0.055869940799
      -0.029912289198
       0.096072618802
       0.055288658138
      -0.092561310080
      -0.045312301785
       0.099333312093
       0.025027574441
      -0.013486990599
      -0.076668894758
       0.070812820977
       0.051590187313
      -0.054799766007
      -0.089103808866
      -0.048383167481
      -0.004309225125
       0.006998458214
      -0.023857298257
      -0.062704473750
       0.122795074955
      -0.032626319799
       0.071866237806
      -0.138451828945
       0.037461607326
      -0.004056808026
      -0.007872392128
       0.010455813776
       0.107677182250
      -0.049140136545
      -0.072601281195
      -0.113885350071
       0.045053040167
       0.072490421606
       0.128232785894
      -0.052190495573
      -0.082398994400
       0.011983539048
      -0.111833060232
       0.016709725156
       0.000923233470
       0.003922771378
      -0.001348258675
       0.006246801842
       0.000215732868
       0.010070858846
       0.096031000176
       0.014220806030
       0.030361863820
      -0.081125643478
       0.076408031080
       0.039382204743
      -0.047875230088
      -0.103586897420
      -0.025980382117
       0.026482021590
       0.016432441514
       0.068931313236
       0.055316247983
      -0.086721909149
      -0.055941748543
      -0.082561058539
       0.045433264690
      -0.068519786084
       0.000019221481
      -0.072273325481
       0.044712572839
       0.055869939228
       0.029912285489
      -0.096072605295
      -0.055288661177
       0.092561315666
       0.045312303237
      -0.099333297224
      -0.025027534035
       0.013486955229
       0.076668891654
      -0.070812828631
      -0.051590177007
       0.054799766138
       0.089103804516
       0.048383165205
       0.004309238829
      -0.006998440849
       0.023857321004
       0.062704373162
      -0.122795112895
       0.032626388436
      -0.071866236965
       0.138451820448
      -0.037461607336
       0.004056917257
       0.007872421799
      -0.010455930789
      -0.107677178947
       0.049140109410
       0.072601310927
       0.113885355105
      -0.045053035700
      -0.072490399751
      -0.128232787502
       0.052190493621
       0.082398988812
      -0.011983537739
       0.111833056667
      -0.016709715110
      -0.000923302081
      -0.003922867855
       0.001348325622
      -0.006246774687
      -0.000215741919
      -0.010070850307
       0.125140655601
      -0.054279222549
      -0.085534918928
      -0.062415166333
       0.119534017317
      -0.033316791556
       0.071945342261
      -0.138810797716
       0.038113732185
      -0.007249104709
      -0.004413573728
       0.015712798710
      -0.081734869283
      -0.075783678498
      -0.030953172171
       0.108440371576
      -0.030422509228
       0.034858625371
       0.000530148308
       0.003165694089
       0.003232977953
       0.004515915851
      -0.017198919563
      -0.015208190674
      -0.003070487064
       0.006487105396
       0.004800230760
       0.056712489942
      -0.073282868206
      -0.061451629509
      -0.104920477148
       0.036408755800
      -0.026148027890
       0.032265607310
       0.037020346765
       0.102378408641
      -0.001929922434
      -0.013912141835
       0.014145140633
      -0.004486540895
       0.031174657001
      -0.018549507502
      -0.004511467404
       0.019209370438
       0.008416172801
      -0.085909993968
      -0.113023063015
       0.001449952937
       0.095919234005
       0.127849263181
      -0.000475208441
      -0.111838707070
      -0.002611015710
       0.085698072575
       0.129559824428
       0.009989314080
      -0.096138878778
      -0.003324195515
      -0.013308073645
      -0.008161551449
       0.080989808576
       0.114776515007
      -0.001045282733
      -0.092506739277
      -0.132166129554
       0.001292092458
       0.113696544111
       0.010815929083
      -0.084472097060
      -0.125922478580
      -0.006411028904
       0.098808096321
      -0.073228722145
      -0.003690963039
       0.076902750149
      -0.010100670736
      -0.107644140796
      -0.068600661006
      -0.023950965489
       0.107404576194
      -0.074439234274
       0.118160389606
       0.007992291794
       0.059234558451
      -0.062967451963
       0.014640246113
       0.185695880840
       0.148897167561
      -0.273431834783
      -0.117409026770
       0.002648882215
      -0.000774453359
      -0.005094631923
      -0.000493272391
      -0.014608070428
       0.009380794501
       0.005160373973
       0.015552772179
      -0.021992589841
      -0.082642565005
       0.233692786140
      -0.055496553614
       0.001132652174
      -0.001870469564
      -0.005340550695
       0.000009927561
       0.000228887544
       0.004133440637
      -0.009606845471
      -0.004438994839
       0.007455381706
#
# The atomic numbers and current coordinates in Bohr
#
   1    25.3660402   52.0935912   40.7536518
   6    23.1406831   51.3088522   43.7215808
   1    23.9234819   49.7943059   44.1487985
   6    21.1153959   52.1555856   45.1072882
   6    20.7160899   51.9842509   49.7739797
   1    22.4109739   51.5887424   50.3474681
   6    19.8426457   48.2454927   47.0852138
   6    19.4424657   47.0249620   49.5516006
   6    18.8189918   48.2910076   51.7123647
   6    18.8282422   51.1040353   51.7429864
   1    17.1564169   51.7456902   51.3493634
   1    19.3113284   51.7169165   53.4007217
   6    18.2848703   46.4029255   53.4741544
   6    17.3947735   46.7309464   56.1049471
   6    19.8517776   42.3884623   48.4780564
   6    21.9284841   42.4787073   46.9139700
   1    22.9760899   43.8904528   46.9255646
   6    22.4560978   40.4776228   45.3323430
   1    23.8552911   40.5396172   44.2736638
   6    20.9133547   38.3899555   45.3228295
   6    18.8736972   38.2779994   46.9555918
   1    17.8640571   36.8408807   46.9909703
   6    18.3306802   40.2675743   48.5211647
   1    16.9482030   40.1917162   49.6042224
   6    23.1273033   36.5602057   41.8905205
   1    23.0942601   35.0830653   40.8368953
   1    22.8296066   38.0336840   40.8755441
   1    24.7513845   36.6943961   42.6890638
   1    16.9678130   44.7458183   59.1177682
   1    18.1754509   43.4039146   57.0307341
   7    20.2843921   50.7849081   47.2962956
   7    19.2733408   44.4999334   50.0564131
   7    18.5912029   44.0981470   52.4805835
   7    17.4704323   44.6785923   57.5527899
   8    19.6288589   47.1675229   45.0713151
   8    16.5954404   48.7785920   56.7943819
   8    21.2237141   36.3650672   43.7632026
   6    22.2087368   56.9079650   36.8884765
   1    20.8969448   58.0733025   37.4239108
   1    21.3944892   55.3345633   36.4190425
   6    23.4703755   57.9582074   34.6519014
   1    24.3008468   56.5953773   33.7463307
   1    22.2042741   58.6749357   33.5382219
   6    25.3535402   59.9174391   35.2563088
   1    26.2182146   60.4196721   33.7195739
   1    24.4963726   61.3927485   35.9285003
   6    27.2484102   59.0050492   37.1352341
   1    28.4835501   57.9765180   36.2555284
   1    28.1314105   60.4589090   37.8163445
   6    26.2100302   57.4975656   39.2965928
   6    20.8494378   55.7941588   42.4440900
   1    20.0710661   57.3121056   42.0171696
   6    22.9038219   54.9591965   41.0785989
   6    24.0144857   52.6928702   41.7041145
   6    19.9436258   54.3837212   44.4416373
   1    18.5394464   54.9395780   45.3409647
   1    20.5915281   53.8043222   49.5923305
   7    23.9047042   56.4300590   39.0311054
   8    27.4473582   57.2302312   41.2412210
   6    -3.9235503   58.0667436   51.2952867
   1    -2.6117583   56.9014062   50.7598525
   1    -3.1093027   59.6401454   51.7647207
   6    -5.1851890   57.0165013   53.5318619
   1    -6.0156603   58.3793314   54.4374325
   1    -3.9190876   56.2997730   54.6455413
   6    -7.0683537   55.0572695   52.9274544
   1    -7.9330281   54.5550366   54.4641894
   1    -6.2111861   53.5819602   52.2552629
   6    -8.9632237   55.9696594   51.0485291
   1   -10.1983636   56.9981907   51.9282348
   1    -9.8462240   54.5157996   50.3674187
   6    -7.9248437   57.4771431   48.8871704
   6    -2.5642513   59.1805499   45.7396733
   1    -1.7858796   57.6626031   46.1665936
   6    -4.6186354   60.0155122   47.1051644
   6    -5.7292992   62.2818384   46.4796488
   6    -1.6584393   60.5909875   43.7421259
   1    -0.2542599   60.0351307   42.8427986
   1    -2.3063416   61.1703864   38.5914328
   7    -5.6195177   58.5446497   49.1526578
   8    -9.1621717   57.7444775   46.9425422
   1    -7.0808537   62.8811175   47.4301114
   6    -4.8554965   63.6658565   44.4621824
   1    -5.6382954   65.1804028   44.0349648
   6    -2.8302094   62.8191231   43.0764750
   6    -2.4309034   62.9904578   38.4097835
   1    -4.1257874   63.3859662   37.8362951
   6    -1.5574592   66.7292160   41.0985494
   6    -1.1572792   67.9497467   38.6321627
   6    -0.5338053   66.6837011   36.4713986
   6    -0.5430557   63.8706734   36.4407768
   1     1.1287695   63.2290184   36.8343998
   1    -1.0261419   63.2577922   34.7830415
   6     0.0003162   68.5717832   34.7096088
   6     0.8904130   68.2437623   32.0788161
   6    -1.5665911   72.5862464   39.7057068
   6    -3.6432976   72.4960014   41.2697932
   1    -4.6909034   71.0842559   41.2581986
   6    -4.1709113   74.4970858   42.8514202
   1    -5.5701046   74.4350915   43.9100995
   6    -2.6281682   76.5847532   42.8609338
   6    -0.5885108   76.6967093   41.2281715
   1     0.4211294   78.1338280   41.1927930
   6    -0.0454937   74.7071343   39.6625986
   1     1.3369835   74.7829924   38.5795409
   6    -4.8421168   78.4145030   46.2932427
   1    -4.8090736   79.8916434   47.3468679
   1    -4.5444201   76.9410247   47.3082191
   1    -6.4661980   78.2803126   45.4946995
   1     1.3173735   70.2288904   29.0659951
   1     0.1097356   71.5707941   31.1530292
   7    -1.9992056   64.1898006   40.8874676
   7    -0.9881543   70.4747753   38.1273501
   7    -0.3060164   70.8765616   35.7031797
   7     0.8147542   70.2961164   30.6309733
   8    -1.3436724   67.8071858   43.1124481
   8     1.6897462   66.1961166   31.3893813
   8    -2.9385276   78.6096414   44.4205607

           -------------------------------------------------
          | TOTAL ENERGY             -193.658889700199 Eh   |
          | GRADIENT NORM               1.318596710053 Eh/ﾎｱ |
          | HOMO-LUMO GAP               3.024262533661 eV   |
           -------------------------------------------------

------------------------------------------------------------------------
 * finished run on 2026/10/03 at 09:28:21.373     
------------------------------------------------------------------------
 total:
 * wall-time:     0 d,  0 h,  0 min,  0.254 sec
 *  cpu-time:     0 d,  0 h,  0 min,  1.000 sec
 * ratio c/w:     3.937 speedup
 SCF:
 * wall-time:     0 d,  0 h,  0 min,  0.201 sec
 *  cpu-time:     0 d,  0 h,  0 min,  0.812 sec
 * ratio c/w:     4.042 speedup


-------------------------   --------------------
FINAL SINGLE POINT ENERGY      -193.658889700200
-------------------------   --------------------


-------------
DIPOLE MOMENT
-------------
                                X             Y             Z
Total Dipole Moment    :      0.00000      -0.00000       0.00000
                        -----------------------------------------
Magnitude (a.u.)       :      0.00000
Magnitude (Debye)      :      0.00000


--------------------------------
SUGGESTED CITATIONS FOR THIS RUN
--------------------------------

Below you find a list of papers that are relevant to this ORCA run
We neither can nor want to force you to cite these papers, but we appreciate if you do
You receive ORCA, which is the product of decades of hard work by many enthusiastic individuals, for free
The only thing we kindly ask in return is that you cite our papers,
We deeply appreciate it, if you show your appreciation for ORCA by not just citing the generic ORCA reference.

Please note that relegating all ORCA citations to the supporting information does *not* help us.
SI sections are not indexed - citations you put there will not count into any citation statistics
But we need these citations in order to attract the funding resources that allow us to do what we are doing

Therefore, if you are a happy ORCA user, please consider citing a few of the papers listed below in the main body of your paper

In addition to the list printed below, the program has created the file D2\D2_pull_+10.0A_XTB2_SP.bibtex that contains the list in bibtex format
You can import this file easily into all common literature databanks and citation aid programs

It goes without saying that in many instances, there are alternative algorithms to achieve similar
results as the ones you have gotten from ORCA. It is, of course, also the case that in some instances
ORCA just re-implements algorithms worked out by others. We are fully aware of that and we are also
fully appreciative of our colleagues work. Hence this citation list should not be read as indicating
that the listed papers, which are focused on our own work, are the only ones worth citing. It simply
meant to make it easier for users to cite ORCA specific papers. It is not a substitute for doing your
own literature research and citing the relevant literature in a scientifically appropriate manner.

List of essential papers. We consider these as the minimum necessary citations

  1. Bannwarth, C.; Ehlert, S.; Grimme, S.
     GFN2-xTB窶尿n Accurate and Broadly Parametrized Self-Consistent Tight-Binding Quantum Chemical Method with Multipole Electrostatics and Density-Dependent Dispersion Contributions
     J. Chem. Theory Comput. 2019 15(3), 1652-1671
     doi.org/10.1021/acs.jctc.8b01176
  2. Neese, F.
     Software update: the ORCA program system, version 6.0
     WIRES Comput. Molec. Sci. 2025 15(1), e70019
     doi.org/10.1002/wcms.70019

List of papers to cite with high priority. The work reported in these papers was absolutely
necessary for this run to complete.
Our perspective: the developers of density functionals and basis sets usually get cited in chemistry papers
Good! But without the algorithms to do something with them, the functionals or basis sets would not do anything.
Hence, in our opinion, the algorithm design and method developments papers are equally worthy of getting cited

  1. Bannwarth, C.; Caldeweyher, E.; Ehlert, S.; Hansen, A.; Pracht, P.; Seibert, J.; Spicher, S.; Grimme, S.
     Extended tight-binding quantum chemistry methods
     WIRES Comput. Molec. Sci. 2020 11(2), e1493
     doi.org/10.1002/wcms.1493

List of suggested additional citations. These are papers that are important in the 'surrounding' of 
of this run, or papers that preceded the highly important papers. If you like your results we are grateful for a citation.

  1. Neese, F.
     The ORCA program system
     WIRES Comput. Molec. Sci. 2012 2(1), 73-78
     doi.org/10.1002/wcms.81
  2. Neese, F.
     Software update: the ORCA program system, version 4.0
     WIRES Comput. Molec. Sci. 2018 8(1), 1-6
     doi.org/10.1002/wcms.1327
  3. Neese, F.; Wennmohs, F.; Becker, U.; Riplinger, C.
     The ORCA quantum chemistry program package
     J. Chem. Phys. 2020 152(22), 224108
     doi.org/10.1063/5.0004608
  4. Neese, F.
     Software update: The ORCA program system窶之ersion 5.0
     WIRES Comput. Molec. Sci. 2022 12(1), e1606
     doi.org/10.1002/wcms.1606

List of optional additional citations

  1. Neese, F.
     Approximate second-order SCF convergence for spin unrestricted wavefunctions
     Chem. Phys. Lett. 2000 325(1-3), 93-98
     doi.org/10.1016/s0009-2614(00)00662-x

Timings for individual modules:

Sum of individual times          ...        0.332 sec (=   0.006 min)
XTB module                       ...        0.332 sec (=   0.006 min) 100.0 %
                             ****ORCA TERMINATED NORMALLY****
TOTAL RUN TIME: 0 days 0 hours 0 minutes 0 seconds 617 msec
