      -----------------------------------------------------------      
     |                   =====================                   |     
     |                           x T B                           |     
     |                   =====================                   |     
     |                         S. Grimme                         |     
     |          Mulliken Center for Theoretical Chemistry        |     
     |                    University of Bonn                     |     
      -----------------------------------------------------------      

   * xtb version 6.7.1pre (5071a88) compiled by 'Marcel@Raven' on 2024-07-23

   xtb is free software: you can redistribute it and/or modify it under
   the terms of the GNU Lesser General Public License as published by
   the Free Software Foundation, either version 3 of the License, or
   (at your option) any later version.
   
   xtb is distributed in the hope that it will be useful,
   but WITHOUT ANY WARRANTY; without even the implied warranty of
   MERCHANTABILITY or FITNESS FOR A PARTICULAR PURPOSE.  See the
   GNU Lesser General Public License for more details.
   
   Cite this work as:
   * C. Bannwarth, E. Caldeweyher, S. Ehlert, A. Hansen, P. Pracht,
     J. Seibert, S. Spicher, S. Grimme, WIREs Comput. Mol. Sci., 2020, 11,
     e01493. DOI: 10.1002/wcms.1493
   
   for GFN2-xTB:
   * C. Bannwarth, S. Ehlert and S. Grimme., J. Chem. Theory Comput., 2019,
     15, 1652-1671. DOI: 10.1021/acs.jctc.8b01176
   for GFN1-xTB:
   * S. Grimme, C. Bannwarth, P. Shushkov, J. Chem. Theory Comput., 2017,
     13, 1989-2009. DOI: 10.1021/acs.jctc.7b00118
   for GFN0-xTB:
   * P. Pracht, E. Caldeweyher, S. Ehlert, S. Grimme, ChemRxiv, 2019, preprint.
     DOI: 10.26434/chemrxiv.8326202.v1
   for GFN-FF:
   * S. Spicher and S. Grimme, Angew. Chem. Int. Ed., 2020, 59, 15665-15673.
     DOI: 10.1002/anie.202004239
   
   for ALPB and GBSA implicit solvation:
   * S. Ehlert, M. Stahn, S. Spicher, S. Grimme, J. Chem. Theory Comput.,
     2021, 17, 4250-4261. DOI: 10.1021/acs.jctc.1c00471
   
   for ddCOSMO and CPCM-X implicit solvation:
   * M. Stahn, S. Ehlert, S. Grimme, J. Phys. Chem. A,
     2023, XX, XXXX-XXXX. DOI: 10.1021/acs.jpca.3c04382
   
   for DFT-D4:
   * E. Caldeweyher, C. Bannwarth and S. Grimme, J. Chem. Phys., 2017,
     147, 034112. DOI: 10.1063/1.4993215
   * E. Caldeweyher, S. Ehlert, A. Hansen, H. Neugebauer, S. Spicher,
     C. Bannwarth and S. Grimme, J. Chem. Phys., 2019, 150, 154122.
     DOI: 10.1063/1.5090222
   * E. Caldeweyher, J.-M. Mewes, S. Ehlert and S. Grimme, Phys. Chem. Chem. Phys.
     2020, 22, 8499-8512. DOI: 10.1039/D0CP00502A
   
   for sTDA-xTB:
   * S. Grimme and C. Bannwarth, J. Chem. Phys., 2016, 145, 054103.
     DOI: 10.1063/1.4959605
   
   in the mass-spec context:
   * V. Asgeirsson, C. Bauer and S. Grimme, Chem. Sci., 2017, 8, 4879.
     DOI: 10.1039/c7sc00601b
   * J. Koopman and S. Grimme, ACS Omega 2019, 4, 12, 15120-15133.
     DOI: 10.1021/acsomega.9b02011
   
   for metadynamics refer to:
   * S. Grimme, J. Chem. Theory Comput., 2019, 155, 2847-2862
     DOI: 10.1021/acs.jctc.9b00143
   
   for SPH calculations refer to:
   * S. Spicher and S. Grimme, J. Chem. Theory Comput., 2021, 17, 1701-1714
     DOI: 10.1021/acs.jctc.0c01306
   
   for ONIOM refer to:
   * C. Plett, A. Katbashev, S. Ehlert, S. Grimme, M. Bursch,
     Phys. Chem. Chem. Phys., 2023, 25, 17860-17868. DOI: 10.1039/D3CP02178E
   
   for DIPRO refer to:
   * J. Kohn, N. Gildemeister, S. Grimme, D. Fazzi, A. Hansen,
     J. Chem. Phys., 2023, just accepted.
   
   for PTB refer to:
   * S. Grimme, M. Mueller, A. Hansen, J. Chem. Phys., 2023, 158, 124111.
     DOI: 10.1063/5.0137838
   
   with help from (in alphabetical order)
   P. Atkinson, C. Bannwarth, F. Bohle, G. Brandenburg, E. Caldeweyher
   M. Checinski, S. Dohm, S. Ehlert, S. Ehrlich, I. Gerasimov, C. Hölzer
   A. Katbashev, J. Kohn, J. Koopman, C. Lavigne, S. Lehtola, F. März, M. Müller,
   F. Musil, H. Neugebauer, J. Pisarek, C. Plett, P. Pracht, F. Pultar,
   J. Seibert, P. Shushkov, S. Spicher, M. Stahn, M. Steiner, T. Strunk,
   J. Stückrath, T. Rose, and J. Unsleber
   
 * started run on 2026/10/03 at 18:56:01.751     
   ID    Z sym.   atoms
    1    1 H      1, 3, 6, 11, 12, 17, 19, 22, 24, 26-30, 39, 40, 42, 43, 45,
                  46, 48, 49, 52, 56, 57, 61, 62, 64, 65, 67, 68, 71, 74, 76,
                  78, 81, 83, 84, 89, 90, 95, 98-100, 108-110, 114, 116, 117
    2    6 C      2, 4, 5, 7-10, 13-16, 18, 20, 21, 23, 25, 38, 41, 44, 47,
                  50, 51, 53-55, 60, 63, 66, 69, 70, 72, 73, 75, 77, 80, 82,
                  85-88, 91-94, 96, 97, 107, 112, 113, 115
    3    7 N      31-34, 58, 79, 101-104
    4    8 O      35-37, 59, 105, 106, 111, 118

           -------------------------------------------------
          |                Calculation Setup                |
           -------------------------------------------------

          program call               : C:\ORCA_6.1.1\xTB_bigstack\xtb.exe p_A_D5a.xyz -c 0 -u 0 -P 1 --acc 1.0 --namespace p_A_D5a
          calculation namespace      : p_A_D5a
          coordinate file            : p_A_D5a.xyz
          omp threads                :                     1


molecular fragmentation (1/2 indicates fragments):
111111111111111111111111111111111111111111111111111111111112222222222222
2222222222222222222222222222222222222222222222
# atoms in fragment 1/2:    59    59
 fragment masses (1/2) :      459.50      459.50
CMA distance (Bohr)    :  19.169
constraining FC (au)   :  0.0500

           -------------------------------------------------
          |                 G F N 2 - x T B                 |
           -------------------------------------------------

        Reference                      10.1021/acs.jctc.8b01176
      * Hamiltonian:
        H0-scaling (s, p, d)           1.850000    2.230000    2.230000
        zeta-weighting                 0.500000
      * Dispersion:
        s8                             2.700000
        a1                             0.520000
        a2                             5.000000
        s9                             5.000000
      * Repulsion:
        kExp                           1.500000    1.000000
        rExp                           1.000000
      * Coulomb:
        alpha                          2.000000
        third order                    shell-resolved
        anisotropic                    true
        a3                             3.000000
        a5                             4.000000
        cn-shift                       1.200000
        cn-exp                         4.000000
        max-rad                        5.000000


          ...................................................
          :                      SETUP                      :
          :.................................................:
          :  # basis functions                 322          :
          :  # atomic orbitals                 322          :
          :  # shells                          186          :
          :  # electrons                       348          :
          :  max. iterations                   250          :
          :  Hamiltonian                  GFN2-xTB          :
          :  restarted?                      false          :
          :  GBSA solvation                  false          :
          :  PC potential                    false          :
          :  electronic temp.          300.0000000     K    :
          :  accuracy                    1.0000000          :
          :  -> integral cutoff          0.2500000E+02      :
          :  -> integral neglect         0.1000000E-07      :
          :  -> SCF convergence          0.1000000E-05 Eh   :
          :  -> wf. convergence          0.1000000E-03 e    :
          :  Broyden damping             0.4000000          :
          :  net charge                          0          :
          :  unpaired electrons                  0          :
          ...................................................

 iter      E             dE          RMSdq      gap      omega  full diag
   1   -197.4574048 -0.197457E+03  0.413E+00    2.88       0.0  T
   2   -197.9812437 -0.523839E+00  0.242E+00    2.63       1.0  T
   3   -198.0307018 -0.494581E-01  0.129E+00    2.82       1.0  T
   4   -198.0375662 -0.686434E-02  0.437E-01    2.61       1.0  T
   5   -198.0532836 -0.157174E-01  0.930E-02    2.63       1.0  T
   6   -198.0535062 -0.222628E-03  0.533E-02    2.63       1.0  T
   7   -198.0536699 -0.163663E-03  0.221E-02    2.65       1.0  T
   8   -198.0536769 -0.701582E-05  0.832E-03    2.64       1.1  T
   9   -198.0536798 -0.292111E-05  0.365E-03    2.64       2.5  T
  10   -198.0536800 -0.202209E-06  0.144E-03    2.64       6.4  T
  11   -198.0536801 -0.117002E-06  0.530E-04    2.64      17.4  T
  12   -198.0536801 -0.860294E-08  0.253E-04    2.64      36.3  T

   *** convergence criteria satisfied after 12 iterations ***

         #    Occupation            Energy/Eh            Energy/eV
      -------------------------------------------------------------
         1        2.0000           -0.7267382             -19.7756
       ...           ...                  ...                  ...
       168        2.0000           -0.3862008             -10.5091
       169        2.0000           -0.3853698             -10.4864
       170        2.0000           -0.3833599             -10.4318
       171        2.0000           -0.3824112             -10.4059
       172        2.0000           -0.3808832             -10.3644
       173        2.0000           -0.3784391             -10.2979
       174        2.0000           -0.3694226             -10.0525 (HOMO)
       175                         -0.2722970              -7.4096 (LUMO)
       176                         -0.2615610              -7.1174
       177                         -0.2447413              -6.6597
       178                         -0.2368546              -6.4451
       179                         -0.2366961              -6.4408
       ...                                ...                  ...
       322                          0.8862504              24.1161
      -------------------------------------------------------------
                  HL-Gap            0.0971256 Eh            2.6429 eV
             Fermi-level           -0.3208598 Eh           -8.7310 eV

 SCC (total)                   0 d,  0 h,  0 min,  0.408 sec
 SCC setup                      ...        0 min,  0.002 sec (  0.490%)
 Dispersion                     ...        0 min,  0.002 sec (  0.490%)
 classical contributions        ...        0 min,  0.001 sec (  0.245%)
 integral evaluation            ...        0 min,  0.037 sec (  9.069%)
 iterations                     ...        0 min,  0.217 sec ( 53.186%)
 molecular gradient             ...        0 min,  0.147 sec ( 36.029%)
 printout                       ...        0 min,  0.002 sec (  0.490%)

         :::::::::::::::::::::::::::::::::::::::::::::::::::::
         ::                     SUMMARY                     ::
         :::::::::::::::::::::::::::::::::::::::::::::::::::::
         :: total energy            -193.671009908118 Eh    ::
         :: gradient norm              1.318777053753 Eh/a0 ::
         :: HOMO-LUMO gap              2.642921522244 eV    ::
         ::.................................................::
         :: SCC energy              -198.053830713779 Eh    ::
         :: -> isotropic ES            0.295972761561 Eh    ::
         :: -> anisotropic ES          0.003990274382 Eh    ::
         :: -> anisotropic XC          0.036939669819 Eh    ::
         :: -> dispersion             -0.148348514585 Eh    ::
         :: repulsion energy           4.382820805661 Eh    ::
         :: add. restraining           0.000000000000 Eh    ::
         :: total charge               0.000000000000 e     ::
         :::::::::::::::::::::::::::::::::::::::::::::::::::::

           -------------------------------------------------
          |                Property Printout                |
           -------------------------------------------------

    * Orbital Energies and Occupations

         #    Occupation            Energy/Eh            Energy/eV
      -------------------------------------------------------------
         1        2.0000           -0.7267382             -19.7756
       ...           ...                  ...                  ...
       162        2.0000           -0.4022136             -10.9448
       163        2.0000           -0.4011442             -10.9157
       164        2.0000           -0.3947330             -10.7412
       165        2.0000           -0.3921342             -10.6705
       166        2.0000           -0.3918294             -10.6622
       167        2.0000           -0.3862730             -10.5110
       168        2.0000           -0.3862008             -10.5091
       169        2.0000           -0.3853698             -10.4864
       170        2.0000           -0.3833599             -10.4318
       171        2.0000           -0.3824112             -10.4059
       172        2.0000           -0.3808832             -10.3644
       173        2.0000           -0.3784391             -10.2979
       174        2.0000           -0.3694226             -10.0525 (HOMO)
       175                         -0.2722970              -7.4096 (LUMO)
       176                         -0.2615610              -7.1174
       177                         -0.2447413              -6.6597
       178                         -0.2368546              -6.4451
       179                         -0.2366961              -6.4408
       180                         -0.2364950              -6.4354
       181                         -0.2330341              -6.3412
       182                         -0.2320465              -6.3143
       183                         -0.2260521              -6.1512
       184                         -0.2187678              -5.9530
       185                         -0.2179523              -5.9308
       ...                                ...                  ...
       322                          0.8862504              24.1161
      -------------------------------------------------------------
                  HL-Gap            0.0971256 Eh            2.6429 eV
             Fermi-level           -0.3208598 Eh           -8.7310 eV

     #   Z          covCN         q      C6AA      α(0)
     1   1 H        0.930     0.075     2.029     2.227
     2   6 C        2.936    -0.044    29.083     8.844
     3   1 H        0.930     0.072     2.062     2.246
     4   6 C        2.928     0.070    26.444     8.433
     5   6 C        3.764    -0.013    20.845     6.508
     6   1 H        0.930     0.059     2.208     2.324
     7   6 C        2.767     0.269    22.466     7.763
     8   6 C        3.096    -0.008    28.112     8.690
     9   6 C        3.070    -0.016    28.339     8.729
    10   6 C        3.821    -0.083    22.064     6.685
    11   1 H        0.930     0.075     2.027     2.226
    12   1 H        0.930     0.082     1.956     2.187
    13   6 C        3.172     0.027    27.036     8.493
    14   6 C        2.748     0.280    22.260     7.725
    15   6 C        2.920     0.047    26.949     8.513
    16   6 C        2.934    -0.041    29.010     8.833
    17   1 H        0.930     0.071     2.075     2.252
    18   6 C        2.932    -0.078    29.942     8.974
    19   1 H        0.930     0.069     2.093     2.262
    20   6 C        2.878     0.144    24.857     8.173
    21   6 C        2.936    -0.069    29.710     8.939
    22   1 H        0.930     0.076     2.024     2.225
    23   6 C        2.932    -0.046    29.144     8.854
    24   1 H        0.930     0.080     1.982     2.202
    25   6 C        3.664     0.012    20.632     6.515
    26   1 H        0.930     0.073     2.053     2.241
    27   1 H        0.930     0.059     2.204     2.322
    28   1 H        0.930     0.057     2.229     2.335
    29   1 H        0.862     0.206     1.078     1.626
    30   1 H        0.863     0.215     1.030     1.590
    31   7 N        2.745    -0.120    23.600     7.215
    32   7 N        3.019     0.089    19.691     6.591
    33   7 N        1.991    -0.239    27.041     7.712
    34   7 N        2.645    -0.281    27.264     7.755
    35   8 O        0.858    -0.443    22.569     6.369
    36   8 O        0.860    -0.457    22.852     6.409
    37   8 O        1.705    -0.282    18.674     5.835
    38   6 C        3.762    -0.011    20.812     6.503
    39   1 H        0.930     0.057     2.230     2.335
    40   1 H        0.930     0.060     2.196     2.317
    41   6 C        3.827    -0.083    22.058     6.683
    42   1 H        0.930     0.055     2.255     2.348
    43   1 H        0.930     0.058     2.227     2.334
    44   6 C        3.825    -0.080    21.998     6.674
    45   1 H        0.930     0.053     2.283     2.363
    46   1 H        0.930     0.051     2.310     2.376
    47   6 C        3.826    -0.107    22.517     6.752
    48   1 H        0.930     0.074     2.039     2.233
    49   1 H        0.930     0.077     2.014     2.219
    50   6 C        2.766     0.268    22.473     7.764
    51   6 C        2.935    -0.056    29.381     8.890
    52   1 H        0.930     0.066     2.132     2.283
    53   6 C        2.930     0.070    26.437     8.432
    54   6 C        2.938    -0.042    29.043     8.838
    55   6 C        2.935    -0.057    29.410     8.894
    56   1 H        0.930     0.069     2.096     2.264
    57   1 H        0.930     0.070     2.086     2.258
    58   7 N        2.739    -0.113    23.465     7.194
    59   8 O        0.859    -0.467    23.071     6.440
    60   6 C        3.762    -0.011    20.819     6.504
    61   1 H        0.930     0.057     2.231     2.336
    62   1 H        0.930     0.061     2.189     2.314
    63   6 C        3.827    -0.083    22.059     6.683
    64   1 H        0.930     0.055     2.253     2.347
    65   1 H        0.930     0.058     2.227     2.334
    66   6 C        3.825    -0.080    22.001     6.675
    67   1 H        0.930     0.054     2.275     2.359
    68   1 H        0.930     0.050     2.316     2.380
    69   6 C        2.766     0.268    22.475     7.764
    70   6 C        2.935    -0.056    29.385     8.890
    71   1 H        0.930     0.065     2.138     2.286
    72   6 C        2.930     0.069    26.448     8.434
    73   6 C        2.938    -0.045    29.106     8.848
    74   1 H        0.930     0.077     2.011     2.217
    75   6 C        2.936    -0.047    29.164     8.857
    76   1 H        0.930     0.072     2.068     2.248
    77   6 C        2.935    -0.057    29.404     8.893
    78   1 H        0.930     0.094     1.838     2.120
    79   7 N        2.739    -0.112    23.454     7.193
    80   6 C        2.928     0.070    26.428     8.431
    81   1 H        0.930     0.069     2.092     2.262
    82   6 C        3.764    -0.012    20.835     6.506
    83   1 H        0.930     0.056     2.240     2.340
    84   1 H        0.930     0.069     2.098     2.265
    85   6 C        2.767     0.268    22.477     7.764
    86   6 C        3.096    -0.010    28.146     8.695
    87   6 C        3.070    -0.017    28.360     8.732
    88   6 C        3.821    -0.082    22.056     6.683
    89   1 H        0.930     0.077     2.012     2.218
    90   1 H        0.930     0.083     1.946     2.181
    91   6 C        3.172     0.025    27.074     8.500
    92   6 C        2.748     0.277    22.304     7.733
    93   6 C        2.920     0.042    27.048     8.529
    94   6 C        2.934    -0.040    28.997     8.831
    95   1 H        0.930     0.068     2.104     2.268
    96   6 C        2.932    -0.077    29.930     8.972
    97   6 C        2.932    -0.049    29.208     8.863
    98   1 H        0.930     0.076     2.018     2.221
    99   1 H        0.862     0.205     1.081     1.629
   100   1 H        0.863     0.211     1.049     1.604
   101   7 N        2.745    -0.122    23.650     7.223
   102   7 N        3.019     0.090    19.686     6.590
   103   7 N        1.991    -0.242    27.119     7.723
   104   7 N        2.645    -0.284    27.338     7.765
   105   8 O        0.858    -0.440    22.501     6.360
   106   8 O        0.860    -0.451    22.730     6.392
   107   6 C        3.664     0.010    20.679     6.522
   108   1 H        0.930     0.068     2.105     2.269
   109   1 H        0.930     0.064     2.150     2.293
   110   1 H        0.930     0.062     2.172     2.305
   111   8 O        1.705    -0.283    18.699     5.838
   112   6 C        2.878     0.145    24.854     8.173
   113   6 C        2.936    -0.069    29.715     8.940
   114   1 H        0.930     0.075     2.028     2.227
   115   6 C        3.826    -0.108    22.537     6.755
   116   1 H        0.930     0.076     2.021     2.223
   117   1 H        0.930     0.076     2.018     2.221
   118   8 O        0.859    -0.470    23.121     6.447

 Mol. C6AA /au·bohr⁶  :     167525.163603
 Mol. C8AA /au·bohr⁸  :    4001133.405223
 Mol. α(0) /au        :        634.389809


Wiberg/Mayer (AO) data.
largest (>0.10) Wiberg bond orders for each atom

 ---------------------------------------------------------------------------
     #   Z sym  total        # sym  WBO       # sym  WBO       # sym  WBO
 ---------------------------------------------------------------------------
     1   1 H    0.994 --    54 C    0.973
     2   6 C    3.992 --    54 C    1.441     4 C    1.404     3 H    0.973
                            51 C    0.109
     3   1 H    0.995 --     2 C    0.973
     4   6 C    3.965 --     2 C    1.404    55 C    1.402    31 N    0.996
     5   6 C    3.968 --    10 C    0.998     6 H    0.974    57 H    0.974
                            31 N    0.962
     6   1 H    0.996 --     5 C    0.974
     7   6 C    3.957 --    35 O    1.655    31 N    1.202     8 C    1.011
     8   6 C    3.952 --     9 C    1.430    32 N    1.220     7 C    1.011
                            33 N    0.134
     9   6 C    3.980 --     8 C    1.430    13 C    1.322    10 C    1.012
    10   6 C    3.990 --     9 C    1.012     5 C    0.998    12 H    0.963
                            11 H    0.961
    11   1 H    0.994 --    10 C    0.961
    12   1 H    0.992 --    10 C    0.963
    13   6 C    3.968 --    33 N    1.426     9 C    1.322    14 C    1.001
    14   6 C    3.951 --    36 O    1.650    34 N    1.259    13 C    1.001
    15   6 C    3.956 --    16 C    1.402    23 C    1.372    32 N    1.005
    16   6 C    3.991 --    18 C    1.436    15 C    1.402    17 H    0.973
                            21 C    0.108
    17   1 H    0.995 --    16 C    0.973
    18   6 C    3.991 --    16 C    1.436    20 C    1.380    19 H    0.971
                            23 C    0.100
    19   1 H    0.995 --    18 C    0.971
    20   6 C    3.933 --    18 C    1.380    21 C    1.344    37 O    1.070
    21   6 C    3.991 --    23 C    1.476    20 C    1.344    22 H    0.971
                            16 C    0.108
    22   1 H    0.994 --    21 C    0.971
    23   6 C    3.990 --    21 C    1.476    15 C    1.372    24 H    0.972
                            18 C    0.100
    24   1 H    0.993 --    23 C    0.972
    25   6 C    3.936 --    27 H    0.981    28 H    0.981    26 H    0.979
                            37 O    0.967
    26   1 H    0.994 --    25 C    0.979
    27   1 H    0.996 --    25 C    0.981
    28   1 H    0.996 --    25 C    0.981
    29   1 H    0.957 --    34 N    0.940
    30   1 H    0.954 --    34 N    0.940
    31   7 N    3.472 --     7 C    1.202     4 C    0.996     5 C    0.962
                            35 O    0.189
    32   7 N    3.692 --    33 N    1.220     8 C    1.220    15 C    1.005
    33   7 N    2.967 --    13 C    1.426    32 N    1.220     8 C    0.134
    34   7 N    3.375 --    14 C    1.259    29 H    0.940    30 H    0.940
                            36 O    0.192
    35   8 O    2.001 --     7 C    1.655    31 N    0.189
    36   8 O    1.965 --    14 C    1.650    34 N    0.192
    37   8 O    2.206 --    20 C    1.070    25 C    0.967
    38   6 C    3.971 --    41 C    1.007    40 H    0.974    39 H    0.972
                            58 N    0.960
    39   1 H    0.997 --    38 C    0.972
    40   1 H    0.996 --    38 C    0.974
    41   6 C    3.992 --    38 C    1.007    44 C    1.006    42 H    0.979
                            43 H    0.971
    42   1 H    0.997 --    41 C    0.979
    43   1 H    0.996 --    41 C    0.971
    44   6 C    3.994 --    41 C    1.006    47 C    1.002    46 H    0.981
                            45 H    0.977
    45   1 H    0.997 --    44 C    0.977
    46   1 H    0.997 --    44 C    0.981
    47   6 C    3.990 --    44 C    1.002    50 C    0.976    49 H    0.964
                            48 H    0.954
    48   1 H    0.994 --    47 C    0.954
    49   1 H    0.994 --    47 C    0.964
    50   6 C    3.951 --    59 O    1.658    58 N    1.237    47 C    0.976
    51   6 C    3.994 --    55 C    1.442    53 C    1.406    52 H    0.974
                             2 C    0.109
    52   1 H    0.995 --    51 C    0.974
    53   6 C    3.969 --    51 C    1.406    54 C    1.405    58 N    0.991
    54   6 C    3.993 --     2 C    1.441    53 C    1.405     1 H    0.973
                            55 C    0.110
    55   6 C    3.993 --    51 C    1.442     4 C    1.402    56 H    0.974
                            54 C    0.110
    56   1 H    0.995 --    55 C    0.974
    57   1 H    0.995 --     5 C    0.974
    58   7 N    3.480 --    50 C    1.237    53 C    0.991    38 C    0.960
                            59 O    0.189
    59   8 O    1.968 --    50 C    1.658    58 N    0.189
    60   6 C    3.970 --    63 C    1.007    62 H    0.974    61 H    0.972
                            79 N    0.960
    61   1 H    0.997 --    60 C    0.972
    62   1 H    0.996 --    60 C    0.974
    63   6 C    3.992 --    60 C    1.007    66 C    1.006    64 H    0.978
                            65 H    0.971
    64   1 H    0.997 --    63 C    0.978
    65   1 H    0.996 --    63 C    0.971
    66   6 C    3.994 --    63 C    1.006   115 C    1.002    68 H    0.981
                            67 H    0.976
    67   1 H    0.997 --    66 C    0.976
    68   1 H    0.997 --    66 C    0.981
    69   6 C    3.951 --   118 O    1.656    79 N    1.239   115 C    0.977
    70   6 C    3.994 --    77 C    1.442    72 C    1.405    71 H    0.974
                            75 C    0.109
    71   1 H    0.995 --    70 C    0.974
    72   6 C    3.968 --    70 C    1.405    73 C    1.405    79 N    0.991
    73   6 C    3.993 --    75 C    1.441    72 C    1.405    74 H    0.972
                            77 C    0.110
    74   1 H    0.994 --    73 C    0.972
    75   6 C    3.992 --    73 C    1.441    80 C    1.403    76 H    0.971
                            70 C    0.109
    76   1 H    0.995 --    75 C    0.971
    77   6 C    3.993 --    70 C    1.442    80 C    1.401    81 H    0.974
                            73 C    0.110
    78   1 H    0.991 --    96 C    0.964
    79   7 N    3.481 --    69 C    1.239    72 C    0.991    60 C    0.960
                           118 O    0.189
    80   6 C    3.966 --    75 C    1.403    77 C    1.401   101 N    0.998
    81   1 H    0.995 --    77 C    0.974
    82   6 C    3.968 --    88 C    0.998    83 H    0.975    84 H    0.974
                           101 N    0.961
    83   1 H    0.997 --    82 C    0.975
    84   1 H    0.995 --    82 C    0.974
    85   6 C    3.957 --   105 O    1.659   101 N    1.197    86 C    1.011
    86   6 C    3.952 --    87 C    1.428   102 N    1.222    85 C    1.011
                           103 N    0.132
    87   6 C    3.980 --    86 C    1.428    91 C    1.324    88 C    1.012
    88   6 C    3.989 --    87 C    1.012    82 C    0.998    90 H    0.963
                            89 H    0.961
    89   1 H    0.994 --    88 C    0.961
    90   1 H    0.992 --    88 C    0.963
    91   6 C    3.968 --   103 N    1.423    87 C    1.324    92 C    1.001
    92   6 C    3.951 --   106 O    1.658   104 N    1.252    91 C    1.001
    93   6 C    3.953 --    94 C    1.399    97 C    1.371   102 N    1.003
    94   6 C    3.992 --    96 C    1.438    93 C    1.399    95 H    0.974
                           113 C    0.106
    95   1 H    0.995 --    94 C    0.974
    96   6 C    3.988 --    94 C    1.438   112 C    1.379    78 H    0.964
                            97 C    0.100
    97   6 C    3.990 --   113 C    1.475    93 C    1.371    98 H    0.973
                            96 C    0.100
    98   1 H    0.994 --    97 C    0.973
    99   1 H    0.958 --   104 N    0.942
   100   1 H    0.955 --   104 N    0.942
   101   7 N    3.467 --    85 C    1.197    80 C    0.998    82 C    0.961
                           105 O    0.187
   102   7 N    3.694 --   103 N    1.223    86 C    1.222    93 C    1.003
   103   7 N    2.966 --    91 C    1.423   102 N    1.223    86 C    0.132
   104   7 N    3.368 --    92 C    1.252   100 H    0.942    99 H    0.942
                           106 O    0.192
   105   8 O    2.004 --    85 C    1.659   101 N    0.187
   106   8 O    1.970 --    92 C    1.658   104 N    0.192
   107   6 C    3.935 --   108 H    0.980   109 H    0.980   110 H    0.980
                           111 O    0.966
   108   1 H    0.995 --   107 C    0.980
   109   1 H    0.996 --   107 C    0.980
   110   1 H    0.996 --   107 C    0.980
   111   8 O    2.205 --   112 C    1.071   107 C    0.966
   112   6 C    3.933 --    96 C    1.379   113 C    1.345   111 O    1.071
   113   6 C    3.991 --    97 C    1.475   112 C    1.345   114 H    0.973
                            94 C    0.106
   114   1 H    0.994 --   113 C    0.973
   115   6 C    3.990 --    66 C    1.002    69 C    0.977   117 H    0.964
                           116 H    0.953
   116   1 H    0.994 --   115 C    0.953
   117   1 H    0.994 --   115 C    0.964
   118   8 O    1.966 --    69 C    1.656    79 N    0.189
 ---------------------------------------------------------------------------

Topologies differ in total number of bonds
Writing topology from bond orders to xtbtopo.mol

molecular dipole:
                 x           y           z       tot (Debye)
 q only:        0.848       0.103      -3.333
   full:        1.202       0.097      -3.716       9.930
molecular quadrupole (traceless):
                xx          xy          yy          xz          yz          zz
 q only:      271.886      90.280     284.112     -53.401    -336.791    -555.998
  q+dip:      326.425     132.651     302.744     -31.121    -385.249    -629.169
   full:      329.480     132.654     298.827     -26.117    -385.253    -628.307


           -------------------------------------------------
          | TOTAL ENERGY             -193.671009908118 Eh   |
          | GRADIENT NORM               1.318777053753 Eh/α |
          | HOMO-LUMO GAP               2.642921522244 eV   |
           -------------------------------------------------

------------------------------------------------------------------------
 * finished run on 2026/10/03 at 18:56:02.275     
------------------------------------------------------------------------
 total:
 * wall-time:     0 d,  0 h,  0 min,  0.522 sec
 *  cpu-time:     0 d,  0 h,  0 min,  0.469 sec
 * ratio c/w:     0.898 speedup
 SCF:
 * wall-time:     0 d,  0 h,  0 min,  0.409 sec
 *  cpu-time:     0 d,  0 h,  0 min,  0.422 sec
 * ratio c/w:     1.031 speedup

normal termination of xtb
