      -----------------------------------------------------------      
     |                   =====================                   |     
     |                           x T B                           |     
     |                   =====================                   |     
     |                         S. Grimme                         |     
     |          Mulliken Center for Theoretical Chemistry        |     
     |                    University of Bonn                     |     
      -----------------------------------------------------------      

   * xtb version 6.7.1pre (5071a88) compiled by 'Marcel@Raven' on 2024-07-23

   xtb is free software: you can redistribute it and/or modify it under
   the terms of the GNU Lesser General Public License as published by
   the Free Software Foundation, either version 3 of the License, or
   (at your option) any later version.
   
   xtb is distributed in the hope that it will be useful,
   but WITHOUT ANY WARRANTY; without even the implied warranty of
   MERCHANTABILITY or FITNESS FOR A PARTICULAR PURPOSE.  See the
   GNU Lesser General Public License for more details.
   
   Cite this work as:
   * C. Bannwarth, E. Caldeweyher, S. Ehlert, A. Hansen, P. Pracht,
     J. Seibert, S. Spicher, S. Grimme, WIREs Comput. Mol. Sci., 2020, 11,
     e01493. DOI: 10.1002/wcms.1493
   
   for GFN2-xTB:
   * C. Bannwarth, S. Ehlert and S. Grimme., J. Chem. Theory Comput., 2019,
     15, 1652-1671. DOI: 10.1021/acs.jctc.8b01176
   for GFN1-xTB:
   * S. Grimme, C. Bannwarth, P. Shushkov, J. Chem. Theory Comput., 2017,
     13, 1989-2009. DOI: 10.1021/acs.jctc.7b00118
   for GFN0-xTB:
   * P. Pracht, E. Caldeweyher, S. Ehlert, S. Grimme, ChemRxiv, 2019, preprint.
     DOI: 10.26434/chemrxiv.8326202.v1
   for GFN-FF:
   * S. Spicher and S. Grimme, Angew. Chem. Int. Ed., 2020, 59, 15665-15673.
     DOI: 10.1002/anie.202004239
   
   for ALPB and GBSA implicit solvation:
   * S. Ehlert, M. Stahn, S. Spicher, S. Grimme, J. Chem. Theory Comput.,
     2021, 17, 4250-4261. DOI: 10.1021/acs.jctc.1c00471
   
   for ddCOSMO and CPCM-X implicit solvation:
   * M. Stahn, S. Ehlert, S. Grimme, J. Phys. Chem. A,
     2023, XX, XXXX-XXXX. DOI: 10.1021/acs.jpca.3c04382
   
   for DFT-D4:
   * E. Caldeweyher, C. Bannwarth and S. Grimme, J. Chem. Phys., 2017,
     147, 034112. DOI: 10.1063/1.4993215
   * E. Caldeweyher, S. Ehlert, A. Hansen, H. Neugebauer, S. Spicher,
     C. Bannwarth and S. Grimme, J. Chem. Phys., 2019, 150, 154122.
     DOI: 10.1063/1.5090222
   * E. Caldeweyher, J.-M. Mewes, S. Ehlert and S. Grimme, Phys. Chem. Chem. Phys.
     2020, 22, 8499-8512. DOI: 10.1039/D0CP00502A
   
   for sTDA-xTB:
   * S. Grimme and C. Bannwarth, J. Chem. Phys., 2016, 145, 054103.
     DOI: 10.1063/1.4959605
   
   in the mass-spec context:
   * V. Asgeirsson, C. Bauer and S. Grimme, Chem. Sci., 2017, 8, 4879.
     DOI: 10.1039/c7sc00601b
   * J. Koopman and S. Grimme, ACS Omega 2019, 4, 12, 15120-15133.
     DOI: 10.1021/acsomega.9b02011
   
   for metadynamics refer to:
   * S. Grimme, J. Chem. Theory Comput., 2019, 155, 2847-2862
     DOI: 10.1021/acs.jctc.9b00143
   
   for SPH calculations refer to:
   * S. Spicher and S. Grimme, J. Chem. Theory Comput., 2021, 17, 1701-1714
     DOI: 10.1021/acs.jctc.0c01306
   
   for ONIOM refer to:
   * C. Plett, A. Katbashev, S. Ehlert, S. Grimme, M. Bursch,
     Phys. Chem. Chem. Phys., 2023, 25, 17860-17868. DOI: 10.1039/D3CP02178E
   
   for DIPRO refer to:
   * J. Kohn, N. Gildemeister, S. Grimme, D. Fazzi, A. Hansen,
     J. Chem. Phys., 2023, just accepted.
   
   for PTB refer to:
   * S. Grimme, M. Mueller, A. Hansen, J. Chem. Phys., 2023, 158, 124111.
     DOI: 10.1063/5.0137838
   
   with help from (in alphabetical order)
   P. Atkinson, C. Bannwarth, F. Bohle, G. Brandenburg, E. Caldeweyher
   M. Checinski, S. Dohm, S. Ehlert, S. Ehrlich, I. Gerasimov, C. Hölzer
   A. Katbashev, J. Kohn, J. Koopman, C. Lavigne, S. Lehtola, F. März, M. Müller,
   F. Musil, H. Neugebauer, J. Pisarek, C. Plett, P. Pracht, F. Pultar,
   J. Seibert, P. Shushkov, S. Spicher, M. Stahn, M. Steiner, T. Strunk,
   J. Stückrath, T. Rose, and J. Unsleber
   
 * started run on 2026/10/03 at 19:14:35.561     
   ID    Z sym.   atoms
    1    1 H      1, 3, 6, 11, 12, 17, 19, 22, 24, 26-30, 39, 40, 42, 43, 45,
                  46, 48, 49, 52, 56, 57, 61, 62, 64, 65, 67, 68, 70, 71, 74,
                  78, 79, 82, 84, 87, 92, 93, 98, 100, 103, 105, 107-111,
                  120, 121, 123, 124, 126, 127, 130, 133, 135, 137, 140, 142,
                  143, 148, 149, 154, 157-159, 167-169, 173, 175, 176
    2    6 C      2, 4, 5, 7-10, 13-16, 18, 20, 21, 23, 25, 38, 41, 44, 47,
                  50, 51, 53-55, 60, 63, 66, 69, 72, 73, 75-77, 83, 85, 86,
                  88-91, 94-97, 99, 101, 102, 104, 106, 119, 122, 125, 128,
                  129, 131, 132, 134, 136, 139, 141, 144-147, 150-153, 155,
                  156, 166, 171, 172, 174
    3    7 N      31-34, 58, 80, 112-115, 138, 160-163
    4    8 O      35-37, 59, 81, 116-118, 164, 165, 170, 177

           -------------------------------------------------
          |                Calculation Setup                |
           -------------------------------------------------

          program call               : C:\ORCA_6.1.1\xTB_bigstack\xtb.exe t_A_D3a_D8b.xyz -c 0 -u 0 -P 1 --acc 1.0 --namespace t_A_D3a_D8b
          calculation namespace      : t_A_D3a_D8b
          coordinate file            : t_A_D3a_D8b.xyz
          omp threads                :                     1


molecular fragmentation (1/2 indicates fragments):
111111111111111111111111111111111111111111111111111111111112222222222222
222222222222222222222222222222222222222222222222222222222222222222222222
222222222222222222222222222222222
# atoms in fragment 1/2:    59   118
 fragment masses (1/2) :      459.50      919.00
CMA distance (Bohr)    :  19.248
constraining FC (au)   :  0.0500

           -------------------------------------------------
          |                 G F N 2 - x T B                 |
           -------------------------------------------------

        Reference                      10.1021/acs.jctc.8b01176
      * Hamiltonian:
        H0-scaling (s, p, d)           1.850000    2.230000    2.230000
        zeta-weighting                 0.500000
      * Dispersion:
        s8                             2.700000
        a1                             0.520000
        a2                             5.000000
        s9                             5.000000
      * Repulsion:
        kExp                           1.500000    1.000000
        rExp                           1.000000
      * Coulomb:
        alpha                          2.000000
        third order                    shell-resolved
        anisotropic                    true
        a3                             3.000000
        a5                             4.000000
        cn-shift                       1.200000
        cn-exp                         4.000000
        max-rad                        5.000000


          ...................................................
          :                      SETUP                      :
          :.................................................:
          :  # basis functions                 483          :
          :  # atomic orbitals                 483          :
          :  # shells                          279          :
          :  # electrons                       522          :
          :  max. iterations                   250          :
          :  Hamiltonian                  GFN2-xTB          :
          :  restarted?                      false          :
          :  GBSA solvation                  false          :
          :  PC potential                    false          :
          :  electronic temp.          300.0000000     K    :
          :  accuracy                    1.0000000          :
          :  -> integral cutoff          0.2500000E+02      :
          :  -> integral neglect         0.1000000E-07      :
          :  -> SCF convergence          0.1000000E-05 Eh   :
          :  -> wf. convergence          0.1000000E-03 e    :
          :  Broyden damping             0.4000000          :
          :  net charge                          0          :
          :  unpaired electrons                  0          :
          ...................................................

 iter      E             dE          RMSdq      gap      omega  full diag
   1   -296.2306007 -0.296231E+03  0.412E+00    2.83       0.0  T
   2   -297.0092276 -0.778627E+00  0.243E+00    2.28       1.0  T
   3   -297.0854486 -0.762209E-01  0.130E+00    2.82       1.0  T
   4   -297.0974933 -0.120447E-01  0.435E-01    2.58       1.0  T
   5   -297.1197301 -0.222368E-01  0.925E-02    2.64       1.0  T
   6   -297.1200449 -0.314776E-03  0.526E-02    2.64       1.0  T
   7   -297.1202753 -0.230416E-03  0.222E-02    2.65       1.0  T
   8   -297.1202864 -0.111385E-04  0.854E-03    2.64       1.0  T
   9   -297.1202915 -0.507428E-05  0.381E-03    2.65       2.0  T
  10   -297.1202920 -0.449025E-06  0.160E-03    2.65       4.7  T
  11   -297.1202922 -0.231994E-06  0.544E-04    2.65      13.8  T
  12   -297.1202922 -0.136055E-07  0.260E-04    2.65      28.9  T

   *** convergence criteria satisfied after 12 iterations ***

         #    Occupation            Energy/Eh            Energy/eV
      -------------------------------------------------------------
         1        2.0000           -0.7225375             -19.6612
       ...           ...                  ...                  ...
       255        2.0000           -0.3806651             -10.3584
       256        2.0000           -0.3798722             -10.3368
       257        2.0000           -0.3734855             -10.1631
       258        2.0000           -0.3730894             -10.1523
       259        2.0000           -0.3724332             -10.1344
       260        2.0000           -0.3713389             -10.1046
       261        2.0000           -0.3671021              -9.9894 (HOMO)
       262                         -0.2698940              -7.3442 (LUMO)
       263                         -0.2584533              -7.0329
       264                         -0.2543441              -6.9211
       265                         -0.2451423              -6.6707
       266                         -0.2423706              -6.5952
       ...                                ...                  ...
       483                          0.8867189              24.1288
      -------------------------------------------------------------
                  HL-Gap            0.0972082 Eh            2.6452 eV
             Fermi-level           -0.3184981 Eh           -8.6668 eV

 SCC (total)                   0 d,  0 h,  0 min,  0.972 sec
 SCC setup                      ...        0 min,  0.002 sec (  0.206%)
 Dispersion                     ...        0 min,  0.005 sec (  0.514%)
 classical contributions        ...        0 min,  0.002 sec (  0.206%)
 integral evaluation            ...        0 min,  0.069 sec (  7.099%)
 iterations                     ...        0 min,  0.565 sec ( 58.128%)
 molecular gradient             ...        0 min,  0.323 sec ( 33.230%)
 printout                       ...        0 min,  0.006 sec (  0.617%)

         :::::::::::::::::::::::::::::::::::::::::::::::::::::
         ::                     SUMMARY                     ::
         :::::::::::::::::::::::::::::::::::::::::::::::::::::
         :: total energy            -290.539152246478 Eh    ::
         :: gradient norm              1.615263610656 Eh/a0 ::
         :: HOMO-LUMO gap              2.645168645558 eV    ::
         ::.................................................::
         :: SCC energy              -297.113367254185 Eh    ::
         :: -> isotropic ES            0.444435356327 Eh    ::
         :: -> anisotropic ES         -0.000974135646 Eh    ::
         :: -> anisotropic XC          0.055328877611 Eh    ::
         :: -> dispersion             -0.245609159337 Eh    ::
         :: repulsion energy           6.574215007707 Eh    ::
         :: add. restraining           0.000000000000 Eh    ::
         :: total charge              -0.000000000000 e     ::
         :::::::::::::::::::::::::::::::::::::::::::::::::::::

           -------------------------------------------------
          |                Property Printout                |
           -------------------------------------------------

    * Orbital Energies and Occupations

         #    Occupation            Energy/Eh            Energy/eV
      -------------------------------------------------------------
         1        2.0000           -0.7225375             -19.6612
       ...           ...                  ...                  ...
       249        2.0000           -0.3876890             -10.5496
       250        2.0000           -0.3865606             -10.5188
       251        2.0000           -0.3857617             -10.4971
       252        2.0000           -0.3854782             -10.4894
       253        2.0000           -0.3846925             -10.4680
       254        2.0000           -0.3820713             -10.3967
       255        2.0000           -0.3806651             -10.3584
       256        2.0000           -0.3798722             -10.3368
       257        2.0000           -0.3734855             -10.1631
       258        2.0000           -0.3730894             -10.1523
       259        2.0000           -0.3724332             -10.1344
       260        2.0000           -0.3713389             -10.1046
       261        2.0000           -0.3671021              -9.9894 (HOMO)
       262                         -0.2698940              -7.3442 (LUMO)
       263                         -0.2584533              -7.0329
       264                         -0.2543441              -6.9211
       265                         -0.2451423              -6.6707
       266                         -0.2423706              -6.5952
       267                         -0.2342943              -6.3755
       268                         -0.2327095              -6.3323
       269                         -0.2324711              -6.3259
       270                         -0.2289172              -6.2292
       271                         -0.2250617              -6.1242
       272                         -0.2239791              -6.0948
       ...                                ...                  ...
       483                          0.8867189              24.1288
      -------------------------------------------------------------
                  HL-Gap            0.0972082 Eh            2.6452 eV
             Fermi-level           -0.3184981 Eh           -8.6668 eV

     #   Z          covCN         q      C6AA      α(0)
     1   1 H        0.930     0.069     2.091     2.261
     2   6 C        2.936    -0.041    29.008     8.833
     3   1 H        0.930     0.094     1.844     2.123
     4   6 C        2.928     0.073    26.362     8.420
     5   6 C        3.764    -0.010    20.798     6.500
     6   1 H        0.930     0.058     2.216     2.328
     7   6 C        2.767     0.277    22.321     7.737
     8   6 C        3.096    -0.001    27.942     8.663
     9   6 C        3.070    -0.018    28.392     8.737
    10   6 C        3.821    -0.082    22.055     6.683
    11   1 H        0.930     0.075     2.028     2.227
    12   1 H        0.930     0.080     1.973     2.197
    13   6 C        3.172     0.023    27.117     8.506
    14   6 C        2.748     0.277    22.318     7.736
    15   6 C        2.920     0.045    26.995     8.520
    16   6 C        2.934    -0.043    29.067     8.842
    17   1 H        0.930     0.091     1.864     2.135
    18   6 C        2.932    -0.079    29.962     8.977
    19   1 H        0.930     0.069     2.098     2.265
    20   6 C        2.878     0.143    24.892     8.179
    21   6 C        2.936    -0.069    29.723     8.941
    22   1 H        0.930     0.075     2.026     2.226
    23   6 C        2.932    -0.048    29.201     8.862
    24   1 H        0.930     0.077     2.009     2.216
    25   6 C        3.664     0.013    20.617     6.513
    26   1 H        0.930     0.071     2.076     2.253
    27   1 H        0.930     0.059     2.207     2.323
    28   1 H        0.930     0.056     2.251     2.346
    29   1 H        0.862     0.204     1.086     1.632
    30   1 H        0.863     0.211     1.053     1.607
    31   7 N        2.745    -0.114    23.493     7.199
    32   7 N        3.019     0.091    19.657     6.585
    33   7 N        1.991    -0.248    27.265     7.744
    34   7 N        2.645    -0.286    27.379     7.771
    35   8 O        0.858    -0.438    22.454     6.353
    36   8 O        0.860    -0.452    22.747     6.394
    37   8 O        1.705    -0.284    18.716     5.841
    38   6 C        3.762    -0.011    20.823     6.505
    39   1 H        0.930     0.060     2.203     2.321
    40   1 H        0.930     0.062     2.178     2.308
    41   6 C        3.827    -0.083    22.057     6.683
    42   1 H        0.930     0.055     2.263     2.352
    43   1 H        0.930     0.058     2.225     2.332
    44   6 C        3.825    -0.078    21.962     6.669
    45   1 H        0.930     0.048     2.344     2.394
    46   1 H        0.930     0.052     2.296     2.370
    47   6 C        3.826    -0.104    22.458     6.743
    48   1 H        0.930     0.068     2.103     2.268
    49   1 H        0.930     0.074     2.047     2.237
    50   6 C        2.766     0.268    22.479     7.765
    51   6 C        2.935    -0.058    29.440     8.899
    52   1 H        0.930     0.064     2.153     2.294
    53   6 C        2.930     0.065    26.534     8.448
    54   6 C        2.938    -0.044    29.097     8.847
    55   6 C        2.935    -0.058    29.441     8.899
    56   1 H        0.930     0.068     2.107     2.270
    57   1 H        0.930     0.067     2.123     2.279
    58   7 N        2.739    -0.111    23.418     7.187
    59   8 O        0.859    -0.479    23.323     6.475
    60   6 C        3.762    -0.011    20.817     6.504
    61   1 H        0.930     0.058     2.218     2.329
    62   1 H        0.930     0.062     2.173     2.305
    63   6 C        3.827    -0.083    22.064     6.684
    64   1 H        0.930     0.055     2.252     2.347
    65   1 H        0.930     0.058     2.223     2.331
    66   6 C        3.825    -0.079    21.990     6.673
    67   1 H        0.930     0.053     2.286     2.364
    68   1 H        0.930     0.051     2.311     2.377
    69   6 C        3.826    -0.103    22.450     6.742
    70   1 H        0.930     0.069     2.091     2.261
    71   1 H        0.930     0.073     2.051     2.239
    72   6 C        2.766     0.267    22.491     7.767
    73   6 C        2.935    -0.059    29.463     8.902
    74   1 H        0.930     0.062     2.176     2.306
    75   6 C        2.930     0.065    26.546     8.450
    76   6 C        2.938    -0.044    29.091     8.846
    77   6 C        2.935    -0.058    29.451     8.900
    78   1 H        0.930     0.068     2.111     2.272
    79   1 H        0.930     0.065     2.142     2.288
    80   7 N        2.739    -0.111    23.428     7.189
    81   8 O        0.859    -0.482    23.392     6.485
    82   1 H        0.930     0.070     2.089     2.260
    83   6 C        2.936    -0.040    29.003     8.832
    84   1 H        0.930     0.095     1.834     2.118
    85   6 C        2.928     0.074    26.354     8.419
    86   6 C        3.764    -0.010    20.794     6.500
    87   1 H        0.930     0.057     2.228     2.334
    88   6 C        2.767     0.277    22.322     7.738
    89   6 C        3.096    -0.002    27.961     8.666
    90   6 C        3.070    -0.019    28.418     8.741
    91   6 C        3.821    -0.082    22.052     6.683
    92   1 H        0.930     0.075     2.032     2.229
    93   1 H        0.930     0.080     1.979     2.200
    94   6 C        3.172     0.023    27.108     8.505
    95   6 C        2.748     0.275    22.347     7.741
    96   6 C        2.920     0.040    27.093     8.536
    97   6 C        2.934    -0.045    29.113     8.849
    98   1 H        0.930     0.092     1.860     2.132
    99   6 C        2.932    -0.072    29.793     8.952
   100   1 H        0.930     0.077     2.009     2.216
   101   6 C        2.878     0.147    24.814     8.166
   102   6 C        2.936    -0.073    29.808     8.954
   103   1 H        0.930     0.072     2.067     2.248
   104   6 C        2.932    -0.053    29.327     8.881
   105   1 H        0.930     0.074     2.042     2.235
   106   6 C        3.664     0.011    20.658     6.519
   107   1 H        0.930     0.065     2.143     2.289
   108   1 H        0.930     0.057     2.230     2.335
   109   1 H        0.930     0.071     2.077     2.254
   110   1 H        0.862     0.227     0.978     1.549
   111   1 H        0.863     0.203     1.089     1.634
   112   7 N        2.745    -0.115    23.511     7.202
   113   7 N        3.019     0.088    19.707     6.593
   114   7 N        1.991    -0.256    27.455     7.771
   115   7 N        2.645    -0.287    27.412     7.776
   116   8 O        0.858    -0.437    22.442     6.351
   117   8 O        0.860    -0.454    22.791     6.401
   118   8 O        1.705    -0.285    18.736     5.844
   119   6 C        3.762    -0.011    20.815     6.503
   120   1 H        0.930     0.058     2.220     2.330
   121   1 H        0.930     0.061     2.189     2.314
   122   6 C        3.827    -0.083    22.067     6.684
   123   1 H        0.930     0.056     2.250     2.345
   124   1 H        0.930     0.058     2.219     2.329
   125   6 C        3.825    -0.080    22.012     6.676
   126   1 H        0.930     0.054     2.268     2.355
   127   1 H        0.930     0.053     2.285     2.364
   128   6 C        2.766     0.270    22.443     7.759
   129   6 C        2.935    -0.058    29.447     8.900
   130   1 H        0.930     0.067     2.124     2.279
   131   6 C        2.930     0.066    26.513     8.444
   132   6 C        2.938    -0.044    29.097     8.847
   133   1 H        0.930     0.076     2.016     2.220
   134   6 C        2.936    -0.045    29.110     8.849
   135   1 H        0.930     0.075     2.035     2.231
   136   6 C        2.935    -0.059    29.467     8.903
   137   1 H        0.930     0.069     2.098     2.265
   138   7 N        2.739    -0.112    23.454     7.193
   139   6 C        2.928     0.069    26.451     8.434
   140   1 H        0.930     0.067     2.118     2.276
   141   6 C        3.764    -0.017    20.918     6.519
   142   1 H        0.930     0.066     2.131     2.282
   143   1 H        0.930     0.073     2.055     2.242
   144   6 C        2.767     0.268    22.468     7.763
   145   6 C        3.096    -0.009    28.127     8.692
   146   6 C        3.070    -0.015    28.314     8.725
   147   6 C        3.821    -0.083    22.074     6.686
   148   1 H        0.930     0.075     2.033     2.230
   149   1 H        0.930     0.085     1.929     2.172
   150   6 C        3.172     0.027    27.025     8.492
   151   6 C        2.748     0.281    22.242     7.722
   152   6 C        2.920     0.046    26.970     8.516
   153   6 C        2.934    -0.042    29.039     8.838
   154   1 H        0.930     0.071     2.078     2.254
   155   6 C        2.932    -0.079    29.963     8.977
   156   6 C        2.932    -0.046    29.153     8.855
   157   1 H        0.930     0.080     1.982     2.202
   158   1 H        0.862     0.206     1.075     1.624
   159   1 H        0.863     0.213     1.043     1.600
   160   7 N        2.745    -0.120    23.606     7.216
   161   7 N        3.019     0.089    19.693     6.591
   162   7 N        1.991    -0.240    27.070     7.716
   163   7 N        2.645    -0.281    27.261     7.754
   164   8 O        0.858    -0.444    22.583     6.371
   165   8 O        0.860    -0.456    22.826     6.406
   166   6 C        3.664     0.013    20.629     6.514
   167   1 H        0.930     0.073     2.054     2.241
   168   1 H        0.930     0.059     2.208     2.323
   169   1 H        0.930     0.057     2.235     2.338
   170   8 O        1.705    -0.281    18.659     5.832
   171   6 C        2.878     0.145    24.852     8.173
   172   6 C        2.936    -0.067    29.662     8.932
   173   1 H        0.930     0.079     1.994     2.208
   174   6 C        3.826    -0.107    22.523     6.753
   175   1 H        0.930     0.076     2.019     2.222
   176   1 H        0.930     0.081     1.963     2.191
   177   8 O        0.859    -0.473    23.193     6.457

 Mol. C6AA /au·bohr⁶  :     376916.138385
 Mol. C8AA /au·bohr⁸  :    9002751.641302
 Mol. α(0) /au        :        951.555238


Wiberg/Mayer (AO) data.
largest (>0.10) Wiberg bond orders for each atom

 ---------------------------------------------------------------------------
     #   Z sym  total        # sym  WBO       # sym  WBO       # sym  WBO
 ---------------------------------------------------------------------------
     1   1 H    0.995 --    54 C    0.974
     2   6 C    3.988 --    54 C    1.440     4 C    1.403     3 H    0.968
                            51 C    0.110
     3   1 H    0.991 --     2 C    0.968
     4   6 C    3.966 --     2 C    1.403    55 C    1.402    31 N    0.999
     5   6 C    3.969 --    10 C    0.998    57 H    0.975     6 H    0.974
                            31 N    0.962
     6   1 H    0.997 --     5 C    0.974
     7   6 C    3.957 --    35 O    1.663    31 N    1.199     8 C    1.008
     8   6 C    3.955 --     9 C    1.432    32 N    1.225     7 C    1.008
                            33 N    0.134
     9   6 C    3.980 --     8 C    1.432    13 C    1.322    10 C    1.012
    10   6 C    3.990 --     9 C    1.012     5 C    0.998    12 H    0.964
                            11 H    0.961
    11   1 H    0.994 --    10 C    0.961
    12   1 H    0.993 --    10 C    0.964
    13   6 C    3.967 --    33 N    1.422     9 C    1.322    14 C    1.002
    14   6 C    3.951 --    36 O    1.658    34 N    1.249    13 C    1.002
    15   6 C    3.955 --    16 C    1.401    23 C    1.373    32 N    1.004
    16   6 C    3.987 --    18 C    1.435    15 C    1.401    17 H    0.967
                            21 C    0.108
    17   1 H    0.992 --    16 C    0.967
    18   6 C    3.991 --    16 C    1.435    20 C    1.381    19 H    0.971
                            23 C    0.100
    19   1 H    0.995 --    18 C    0.971
    20   6 C    3.931 --    18 C    1.381    21 C    1.345    37 O    1.066
    21   6 C    3.991 --    23 C    1.475    20 C    1.345    22 H    0.973
                            16 C    0.108
    22   1 H    0.994 --    21 C    0.973
    23   6 C    3.990 --    21 C    1.475    15 C    1.373    24 H    0.972
                            18 C    0.100
    24   1 H    0.994 --    23 C    0.972
    25   6 C    3.937 --    28 H    0.981    27 H    0.981    26 H    0.980
                            37 O    0.968
    26   1 H    0.995 --    25 C    0.980
    27   1 H    0.996 --    25 C    0.981
    28   1 H    0.997 --    25 C    0.981
    29   1 H    0.958 --    34 N    0.942
    30   1 H    0.956 --    34 N    0.942
    31   7 N    3.471 --     7 C    1.199     4 C    0.999     5 C    0.962
                            35 O    0.187
    32   7 N    3.694 --     8 C    1.225    33 N    1.219    15 C    1.004
    33   7 N    2.962 --    13 C    1.422    32 N    1.219     8 C    0.134
    34   7 N    3.366 --    14 C    1.249    30 H    0.942    29 H    0.942
                            36 O    0.191
    35   8 O    2.005 --     7 C    1.663    31 N    0.187
    36   8 O    1.970 --    14 C    1.658    34 N    0.191
    37   8 O    2.202 --    20 C    1.066    25 C    0.968
    38   6 C    3.970 --    41 C    1.007    40 H    0.974    39 H    0.972
                            58 N    0.961
    39   1 H    0.996 --    38 C    0.972
    40   1 H    0.996 --    38 C    0.974
    41   6 C    3.992 --    38 C    1.007    44 C    1.006    42 H    0.980
                            43 H    0.971
    42   1 H    0.997 --    41 C    0.980
    43   1 H    0.996 --    41 C    0.971
    44   6 C    3.994 --    41 C    1.006    47 C    1.002    46 H    0.981
                            45 H    0.976
    45   1 H    0.998 --    44 C    0.976
    46   1 H    0.997 --    44 C    0.981
    47   6 C    3.991 --    44 C    1.002    50 C    0.976    49 H    0.963
                            48 H    0.955
    48   1 H    0.995 --    47 C    0.955
    49   1 H    0.995 --    47 C    0.963
    50   6 C    3.951 --    59 O    1.642    58 N    1.252    47 C    0.976
    51   6 C    3.994 --    55 C    1.441    53 C    1.406    52 H    0.975
                             2 C    0.110
    52   1 H    0.996 --    51 C    0.975
    53   6 C    3.965 --    54 C    1.406    51 C    1.406    58 N    0.986
    54   6 C    3.994 --     2 C    1.440    53 C    1.406     1 H    0.974
                            55 C    0.109
    55   6 C    3.993 --    51 C    1.441     4 C    1.402    56 H    0.974
                            54 C    0.109
    56   1 H    0.995 --    55 C    0.974
    57   1 H    0.995 --     5 C    0.975
    58   7 N    3.490 --    50 C    1.252    53 C    0.986    38 C    0.961
                            59 O    0.191
    59   8 O    1.958 --    50 C    1.642    58 N    0.191
    60   6 C    3.970 --    63 C    1.007    62 H    0.973    61 H    0.972
                            80 N    0.961
    61   1 H    0.997 --    60 C    0.972
    62   1 H    0.996 --    60 C    0.973
    63   6 C    3.992 --    60 C    1.007    66 C    1.006    64 H    0.979
                            65 H    0.971
    64   1 H    0.997 --    63 C    0.979
    65   1 H    0.996 --    63 C    0.971
    66   6 C    3.994 --    63 C    1.006    69 C    1.002    68 H    0.981
                            67 H    0.977
    67   1 H    0.997 --    66 C    0.977
    68   1 H    0.997 --    66 C    0.981
    69   6 C    3.991 --    66 C    1.002    72 C    0.977    71 H    0.963
                            70 H    0.955
    70   1 H    0.995 --    69 C    0.955
    71   1 H    0.995 --    69 C    0.963
    72   6 C    3.951 --    81 O    1.639    80 N    1.253    69 C    0.977
    73   6 C    3.994 --    77 C    1.441    75 C    1.405    74 H    0.975
                            83 C    0.110
    74   1 H    0.996 --    73 C    0.975
    75   6 C    3.965 --    76 C    1.406    73 C    1.405    80 N    0.986
    76   6 C    3.994 --    83 C    1.440    75 C    1.406    82 H    0.974
                            77 C    0.109
    77   6 C    3.993 --    73 C    1.441    85 C    1.402    78 H    0.974
                            76 C    0.109
    78   1 H    0.995 --    77 C    0.974
    79   1 H    0.996 --    86 C    0.975
    80   7 N    3.490 --    72 C    1.253    75 C    0.986    60 C    0.961
                            81 O    0.191
    81   8 O    1.955 --    72 C    1.639    80 N    0.191
    82   1 H    0.995 --    76 C    0.974
    83   6 C    3.988 --    76 C    1.440    85 C    1.403    84 H    0.968
                            73 C    0.110
    84   1 H    0.991 --    83 C    0.968
    85   6 C    3.967 --    83 C    1.403    77 C    1.402   112 N    1.000
    86   6 C    3.970 --    91 C    0.998    79 H    0.975    87 H    0.974
                           112 N    0.962
    87   1 H    0.997 --    86 C    0.974
    88   6 C    3.956 --   116 O    1.664   112 N    1.197    89 C    1.008
    89   6 C    3.955 --    90 C    1.431   113 N    1.225    88 C    1.008
                           114 N    0.134
    90   6 C    3.980 --    89 C    1.431    94 C    1.325    91 C    1.011
    91   6 C    3.990 --    90 C    1.011    86 C    0.998    93 H    0.964
                            92 H    0.962
    92   1 H    0.994 --    91 C    0.962
    93   1 H    0.993 --    91 C    0.964
    94   6 C    3.967 --   114 N    1.424    90 C    1.325    95 C    0.997
    95   6 C    3.953 --   117 O    1.651   115 N    1.266    94 C    0.997
    96   6 C    3.954 --    97 C    1.399   104 C    1.372   113 N    1.004
    97   6 C    3.988 --    99 C    1.438    96 C    1.399    98 H    0.967
                           102 C    0.106
    98   1 H    0.992 --    97 C    0.967
    99   6 C    3.991 --    97 C    1.438   101 C    1.379   100 H    0.969
                           104 C    0.101
   100   1 H    0.994 --    99 C    0.969
   101   6 C    3.932 --    99 C    1.379   102 C    1.345   118 O    1.070
   102   6 C    3.991 --   104 C    1.474   101 C    1.345   103 H    0.973
                            97 C    0.106
   103   1 H    0.994 --   102 C    0.973
   104   6 C    3.991 --   102 C    1.474    96 C    1.372   105 H    0.973
                            99 C    0.101
   105   1 H    0.994 --   104 C    0.973
   106   6 C    3.934 --   108 H    0.981   107 H    0.981   109 H    0.977
                           118 O    0.966
   107   1 H    0.995 --   106 C    0.981
   108   1 H    0.997 --   106 C    0.981
   109   1 H    0.995 --   106 C    0.977
   110   1 H    0.948 --   115 N    0.921
   111   1 H    0.959 --   115 N    0.944
   112   7 N    3.469 --    88 C    1.197    85 C    1.000    86 C    0.962
                           116 O    0.186
   113   7 N    3.690 --    89 C    1.225   114 N    1.215    96 C    1.004
   114   7 N    2.959 --    94 C    1.424   113 N    1.215    89 C    0.134
   115   7 N    3.380 --    95 C    1.266   111 H    0.944   110 H    0.921
                           117 O    0.198
   116   8 O    2.006 --    88 C    1.664   112 N    0.186
   117   8 O    1.968 --    95 C    1.651   115 N    0.198
   118   8 O    2.204 --   101 C    1.070   106 C    0.966
   119   6 C    3.970 --   122 C    1.007   121 H    0.974   120 H    0.972
                           138 N    0.959
   120   1 H    0.997 --   119 C    0.972
   121   1 H    0.996 --   119 C    0.974
   122   6 C    3.991 --   119 C    1.007   125 C    1.006   123 H    0.979
                           124 H    0.971
   123   1 H    0.997 --   122 C    0.979
   124   1 H    0.996 --   122 C    0.971
   125   6 C    3.994 --   122 C    1.006   174 C    1.002   127 H    0.981
                           126 H    0.976
   126   1 H    0.997 --   125 C    0.976
   127   1 H    0.997 --   125 C    0.981
   128   6 C    3.949 --   177 O    1.646   138 N    1.242   174 C    0.979
   129   6 C    3.994 --   136 C    1.442   131 C    1.405   130 H    0.974
                           134 C    0.109
   130   1 H    0.995 --   129 C    0.974
   131   6 C    3.969 --   132 C    1.405   129 C    1.405   138 N    0.991
   132   6 C    3.993 --   134 C    1.441   131 C    1.405   133 H    0.973
                           136 C    0.110
   133   1 H    0.994 --   132 C    0.973
   134   6 C    3.992 --   132 C    1.441   139 C    1.402   135 H    0.973
                           129 C    0.109
   135   1 H    0.994 --   134 C    0.973
   136   6 C    3.993 --   129 C    1.442   139 C    1.400   140 H    0.973
                           132 C    0.110
   137   1 H    0.995 --   155 C    0.971
   138   7 N    3.483 --   128 C    1.242   131 C    0.991   119 C    0.959
                           177 O    0.187
   139   6 C    3.967 --   134 C    1.402   136 C    1.400   160 N    1.000
   140   1 H    0.995 --   136 C    0.973
   141   6 C    3.965 --   147 C    0.998   142 H    0.973   143 H    0.972
                           160 N    0.960
   142   1 H    0.996 --   141 C    0.973
   143   1 H    0.994 --   141 C    0.972
   144   6 C    3.957 --   164 O    1.656   160 N    1.199   145 C    1.012
   145   6 C    3.952 --   146 C    1.430   161 N    1.219   144 C    1.012
                           162 N    0.134
   146   6 C    3.981 --   145 C    1.430   150 C    1.322   147 C    1.012
   147   6 C    3.989 --   146 C    1.012   141 C    0.998   148 H    0.961
                           149 H    0.960
   148   1 H    0.994 --   147 C    0.961
   149   1 H    0.992 --   147 C    0.960
   150   6 C    3.968 --   162 N    1.426   146 C    1.322   151 C    1.000
   151   6 C    3.951 --   165 O    1.653   163 N    1.257   150 C    1.000
   152   6 C    3.956 --   153 C    1.402   156 C    1.371   161 N    1.005
   153   6 C    3.991 --   155 C    1.435   152 C    1.402   154 H    0.973
                           172 C    0.108
   154   1 H    0.995 --   153 C    0.973
   155   6 C    3.991 --   153 C    1.435   171 C    1.380   137 H    0.971
   156   6 C    3.990 --   172 C    1.476   152 C    1.371   157 H    0.972
   157   1 H    0.993 --   156 C    0.972
   158   1 H    0.957 --   163 N    0.941
   159   1 H    0.955 --   163 N    0.941
   160   7 N    3.470 --   144 C    1.199   139 C    1.000   141 C    0.960
                           164 O    0.187
   161   7 N    3.692 --   162 N    1.220   145 C    1.219   152 C    1.005
   162   7 N    2.966 --   150 C    1.426   161 N    1.220   145 C    0.134
   163   7 N    3.373 --   151 C    1.257   159 H    0.941   158 H    0.941
                           165 O    0.192
   164   8 O    2.000 --   144 C    1.656   160 N    0.187
   165   8 O    1.966 --   151 C    1.653   163 N    0.192
   166   6 C    3.936 --   168 H    0.981   169 H    0.981   167 H    0.979
                           170 O    0.967
   167   1 H    0.994 --   166 C    0.979
   168   1 H    0.996 --   166 C    0.981
   169   1 H    0.997 --   166 C    0.981
   170   8 O    2.207 --   171 C    1.071   166 C    0.967
   171   6 C    3.933 --   155 C    1.380   172 C    1.344   170 O    1.071
   172   6 C    3.991 --   156 C    1.476   171 C    1.344   173 H    0.972
                           153 C    0.108
   173   1 H    0.993 --   172 C    0.972
   174   6 C    3.990 --   125 C    1.002   128 C    0.979   176 H    0.962
                           175 H    0.953
   175   1 H    0.994 --   174 C    0.953
   176   1 H    0.993 --   174 C    0.962
   177   8 O    1.966 --   128 C    1.646   138 N    0.187
 ---------------------------------------------------------------------------

Topologies differ in total number of bonds
Writing topology from bond orders to xtbtopo.mol

molecular dipole:
                 x           y           z       tot (Debye)
 q only:        0.285       0.567      -1.689
   full:        0.492       0.298      -1.838       4.895
molecular quadrupole (traceless):
                xx          xy          yy          xz          yz          zz
 q only:      -12.670      65.813     242.366     -59.136    -194.584    -229.696
  q+dip:       40.127      64.994     183.266     -50.153    -241.042    -223.393
   full:       44.727      65.155     177.348     -42.649    -240.387    -222.075


           -------------------------------------------------
          | TOTAL ENERGY             -290.539152246478 Eh   |
          | GRADIENT NORM               1.615263610656 Eh/α |
          | HOMO-LUMO GAP               2.645168645558 eV   |
           -------------------------------------------------

------------------------------------------------------------------------
 * finished run on 2026/10/03 at 19:14:36.633     
------------------------------------------------------------------------
 total:
 * wall-time:     0 d,  0 h,  0 min,  1.070 sec
 *  cpu-time:     0 d,  0 h,  0 min,  1.047 sec
 * ratio c/w:     0.978 speedup
 SCF:
 * wall-time:     0 d,  0 h,  0 min,  0.974 sec
 *  cpu-time:     0 d,  0 h,  0 min,  0.984 sec
 * ratio c/w:     1.011 speedup

normal termination of xtb
