169
Apixaban + 10 H2O initial cluster based on Water SMD-Opt geometry | solvent swapped to dmso
C        23.909639      -17.523076       -0.125305
C        24.185610      -18.609454        0.907810
C        25.492177      -19.348737        0.738855
N        26.468457      -18.779887       -0.016031
C        26.288891      -17.549653       -0.826497
C        25.164148      -16.680454       -0.300758
C        27.723591      -19.451640       -0.168973
C        28.541139      -19.672259        0.939838
C        29.766960      -20.301838        0.788339
C        30.197355      -20.700357       -0.479837
C        29.384890      -20.470950       -1.589252
C        28.148354      -19.853535       -1.432001
N        31.446987      -21.369914       -0.630533
C        31.521834      -22.478681       -1.617640
C        32.527679      -23.549832       -1.210835
C        33.803947      -22.879813       -0.841212
C        33.792301      -21.580581       -0.367639
C        32.591600      -20.765992       -0.166016
O        25.663076      -20.441230        1.312701
O        32.604904      -19.659692        0.388351
C        35.159974      -23.243777       -0.838801
N        35.929437      -22.227585       -0.400272
N        35.091890      -21.229910       -0.110563
C        35.615301      -20.000364        0.405022
C        35.750355      -24.536382       -1.234810
N        37.091852      -24.599241       -1.266444
O        35.018137      -25.501438       -1.518090
C        35.376140      -19.650022        1.732302
C        35.906556      -18.474730        2.231353
C        36.683515      -17.649982        1.406914
C        36.930854      -18.011170        0.080373
C        36.389732      -19.194534       -0.415687
O        37.158384      -16.512667        1.993860
C        37.964952      -15.637441        1.188328
H        23.637549      -17.980164       -1.085740
H        23.061038      -16.911195        0.197721
H        24.225193      -18.169734        1.914868
H        23.396129      -19.367228        0.930599
H        27.242453      -17.011715       -0.807805
H        26.085502      -17.833990       -1.867852
H        25.452602      -16.234096        0.659928
H        25.004741      -15.863676       -1.012849
H        28.210751      -19.359682        1.925413
H        30.389777      -20.490631        1.656254
H        29.708760      -20.770736       -2.580780
H        27.518160      -19.688095       -2.300509
H        30.523039      -22.912820       -1.692773
H        31.796485      -22.070868       -2.599846
H        32.150726      -24.133800       -0.360242
H        32.658915      -24.239417       -2.048386
H        37.656746      -23.801181       -1.018387
H        37.538876      -25.471748       -1.506305
H        34.775652      -20.295374        2.365706
H        35.733350      -18.181913        3.262328
H        37.530225      -17.389753       -0.573896
H        36.569000      -19.481864       -1.447364
H        37.398570      -15.265484        0.326884
H        38.232333      -14.803457        1.838506
H        38.874813      -16.145562        0.848684
O        37.107609      -19.864593       11.393805
H        37.410790      -19.084541       10.929229
S        37.982002      -19.927714       12.647740
C        37.167929      -18.919772       13.897274
C        39.387291      -18.842065       12.353580
H        37.332484      -18.323792       12.999594
H        36.538865      -19.776045       13.654016
H        38.126104      -19.270710       14.280474
H        38.547189      -18.525349       11.735502
H        39.103228      -18.792808       13.404762
H        39.659266      -19.866392       12.098860
O        24.806514      -26.029944        8.837672
H        25.550396      -26.630937        8.796700
S        23.789224      -26.740013        9.733117
C        22.435243      -25.583419        9.995849
C        24.455370      -26.700731       11.404854
H        22.708935      -25.589608        8.940787
H        22.122611      -26.583719       10.295448
H        23.295259      -25.278307       10.591986
H        23.494071      -26.187338       11.384079
H        24.320716      -27.735867       11.091069
H        25.147361      -26.202809       10.725647
O        32.504306       -8.838590        6.281538
H        32.839463       -9.427276        6.957814
S        31.241198       -8.230593        6.894562
C        30.051071       -8.051844        5.556039
C        31.577286       -6.479550        7.141332
H        30.291641       -9.106414        5.690602
H        29.624073       -7.656633        6.477766
H        30.959209       -7.500881        5.311450
H        30.635175       -6.597294        6.605923
H        31.509349       -6.976887        8.108876
H        32.383524       -6.926330        6.559553
O        38.954719      -29.540159        3.725404
H        38.647186      -29.014154        2.987180
S        38.925083      -28.581548        4.917498
C        37.563042      -27.440440        4.629892
C        40.267085      -27.407611        4.670717
H        37.838363      -27.922216        3.691707
H        37.256619      -28.198447        5.350746
H        38.420107      -26.892644        5.021631
H        39.402800      -27.101372        4.081372
H        39.995815      -27.433536        5.726103
H        40.588830      -28.399820        4.354327
O        19.014432      -17.649590        1.169270
H        19.656210      -17.920094        1.825913
S        18.078619      -18.852003        1.030141
C        16.692416      -18.559806        2.140574
C        18.832080      -20.203060        1.950436
H        16.972621      -17.625217        1.654645
H        16.404996      -19.290080        1.384142
H        17.540247      -18.941314        2.709552
H        17.871661      -19.948578        2.398693
H        18.679776      -20.508399        0.915221
H        19.487892      -19.332901        1.979314
O        42.266347      -13.039235       -1.386863
H        42.338502      -12.982463       -0.434077
S        41.401239      -11.839345       -1.777698
C        39.993419      -12.491950       -2.689921
C        42.224123      -11.037907       -3.163541
H        40.277994      -13.195686       -1.907699
H        39.723523      -11.537276       -2.238420
H        40.832465      -12.347137       -3.370459
H        41.266391      -11.440989       -3.492741
H        42.057786      -10.310453       -2.369033
H        42.849182      -11.848283       -2.788452
O        28.371553      -31.638573       -3.942997
H        28.407162      -30.916918       -3.315162
S        27.248739      -32.540536       -3.426614
C        25.950554      -31.452860       -2.816961
C        27.787742      -33.175325       -1.830833
H        26.212967      -31.170344       -3.836483
H        25.596576      -32.483721       -2.805832
H        26.829359      -31.364098       -2.178272
H        26.829796      -32.668139       -1.715928
H        27.678788      -34.001726       -2.533180
H        28.527781      -32.471165       -2.211097
O        26.435148      -10.041973       -6.499131
H        25.885577       -9.394205       -6.057998
S        25.618795      -10.468719       -7.720751
C        24.199110      -11.384698       -7.099885
C        26.486510      -11.860594       -8.462205
H        24.486083      -10.623051       -6.374874
H        23.939055      -10.906850       -8.044413
H        25.033111      -12.068728       -7.256871
H        25.531506      -12.199365       -8.060584
H        26.311112      -11.096169       -9.219166
H        27.090718      -11.442193       -7.657237
O        40.110039      -22.995583       -9.055265
H        40.090806      -23.949609       -8.979791
S        41.514737      -22.680536       -9.573405
C        42.620988      -23.897324       -8.841534
C        42.098497      -21.250731       -8.648806
H        42.397372      -23.121774       -8.108991
H        41.695433      -24.384791       -9.147842
H        43.099310      -23.447527       -9.711586
H        41.138768      -21.018454       -9.110399
H        41.980496      -22.097687       -7.972906
H        42.822225      -21.503108       -9.423805
O        26.387148      -21.990230      -11.611398
H        27.107276      -21.760042      -12.198476
S        25.805494      -23.275242      -12.204124
C        24.358110      -23.690802      -11.218027
C        26.859598      -24.624444      -11.648679
H        24.650682      -22.659964      -11.018340
H        24.121691      -23.802356      -12.276215
H        25.179673      -24.358083      -10.957511
H        25.925241      -24.638001      -11.087526
H        26.646523      -24.742865      -12.711071
H        27.367806      -23.674288      -11.484271
