
                                 *****************
                                 * O   R   C   A *
                                 *****************

                                            #,                                       
                                            ###                                      
                                            ####                                     
                                            #####                                    
                                            ######                                   
                                           ########,                                 
                                     ,,################,,,,,                         
                               ,,#################################,,                 
                          ,,##########################################,,             
                       ,#########################################, ''#####,          
                    ,#############################################,,   '####,        
                  ,##################################################,,,,####,       
                ,###########''''           ''''###############################       
              ,#####''   ,,,,##########,,,,          '''####'''          '####       
            ,##' ,,,,###########################,,,                        '##       
           ' ,,###''''                  '''############,,,                           
         ,,##''                                '''############,,,,        ,,,,,,###''
      ,#''                                            '''#######################'''  
     '                                                          ''''####''''         
             ,#######,   #######,   ,#######,      ##                                
            ,#'     '#,  ##    ##  ,#'     '#,    #''#        ,####,    ,#,          
            ##       ##  ##   ,#'  ##            #'  '#       #'       ,# #          
            ##       ##  #######   ##           ,######,      #####,      #          
            '#,     ,#'  ##    ##  '#,     ,#' ,#      #,     #,   #      #          
             '#######'   ##     ##  '#######'  #'      '#     '####' #    #          



                #########################################################
                #                        -***-                          #
                #          Department of theory and spectroscopy        #
                #                                                       #
                #                      Frank Neese                      #
                #                                                       #
                #     Directorship, Architecture, Infrastructure        #
                #                    SHARK, DRIVERS                     #
                #        Core code/Algorithms in most modules           #
                #                                                       #
                #        Max Planck Institute fuer Kohlenforschung      #
                #                Kaiser Wilhelm Platz 1                 #
                #                 D-45470 Muelheim/Ruhr                 #
                #                      Germany                          #
                #                                                       #
                #                  All rights reserved                  #
                #                        -***-                          #
                #########################################################


                         Program Version 6.1.1  -  RELEASE   -


 With contributions from (in alphabetic order):
[Max-Planck-Institut fuer Kohlenforschung]                               
  Daniel Aravena         : Magnetic Suceptibility                        
  Michael Atanasov       : Ab Initio Ligand Field Theory (pilot matlab implementation)
  Alexander A. Auer      : GIAO ZORA, VPT2 properties, NMR spectrum      
  Ute Becker             : All parallelization in ORCA, NUMFREQ, NUMCALC 
  Giovanni Bistoni       : ED, misc. LED, open-shell LED, HFLD           
  Dmytro Bykov           : pre 5.0 version of the SCF Hessian            
  Marcos Casanova-Pﾃ｡ez   : Triplet and SCS-CIS(D). UHF-(DLPNO)-IP/EA/STEOM-CCSD. UHF-CVS-IP/STEOM-CCSD   
  Vijay G. Chilkuri      : MRCI spin determinant printing, contributions to CSF-ICE 
  Pauline Colinet        : FMM embedding                                 
  Dipayan Datta          : RHF DLPNO-CCSD density                        
  Achintya Kumar Dutta   : EOM-CC, STEOM-CC                              
  Nicolas Foglia         : Exact transition moments, OPA infrastructure, MCD improvements    
  Dmitry Ganyushin       : Spin-Orbit,Spin-Spin,Magnetic field MRCI      
  Miquel Garcia-Rates    : C-PCM and meta-GGA Hessian, CCSD/C-PCM, Gaussian charge scheme 
  Tiago L. C. Gouveia    : GS-ROHF, GS-ROCIS                             
  Yang Guo               : DLPNO-NEVPT2, F12-NEVPT2, CIM, IAO-localization        
  Andreas Hansen         : Spin unrestricted coupled pair/coupled cluster methods 
  Ingolf Harden          : AUTO-CI MPn and infrastructure                
  Benjamin Helmich-Paris : MC-RPA, TRAH-(SCF,CASSCF), AVAS, COSX integrals, SCF dyn. polar., MC-PDFT, srDFT 
  Lee Huntington         : MR-EOM, pCC                                   
  Robert Izsak           : Overlap fitted RIJCOSX, COSX-SCS-MP3, EOM     
  Riya Kayal             : Wick's Theorem for AUTO-CI, AUTO-CI UHF-CCSDT 
  Emily Kempfer          : AUTO-CI RHF CISDT and CCSDT, approximate NEVPT4
  Christian Kollmar      : KDIIS, OOCD, Brueckner-CCSD(T), CCSD density, CASPT2, CASPT2-K, improved NEVPT2 
  Axel Koslowski         : Symmetry handling                             
  Simone Kossmann        : meta-GGA functionals, TD-DFT gradient, OOMP2, (MP2 Hessian; deprecated post 5.0) 
  Lucas Lang             : DCDCAS, Hyperfine gauge corrections, ICE-SOC+SSC
  Marvin Lechner         : AUTO-CI (C++ implementation), FIC-MRCC        
  Spencer Leger          : CASSCF response                               
  Dagmar Lenk            : GEPOL surface, SMD, ORCA-2-JSON               
  Dimitrios Liakos       : Extrapolation schemes; Compound Job, Property file
  Dimitrios Manganas     : Further ROCIS development; embedding schemes. LFT, Crystal Embedding 
  Dimitrios Pantazis     : SARC Basis sets                               
  Anastasios Papadopoulos: AUTO-CI, single reference methods and gradients 
  Taras Petrenko         : pre 6.0 DFT Hessian and TD-DFT gradient,  ECA, NRVS 
  Petra Pikulova         : Analytic Raman intensities                    
  Peter Pinski           : DLPNO-MP2, DLPNO-MP2 Gradient                 
  Shashank Vittal Rao    : ES-AILFT, MagRelax                            
  Christoph Reimann      : Effective Core Potentials                     
  Marius Retegan         : Local ZFS, SOC                                
  Christoph Riplinger    : Optimizer, TS searches, QM/MM, DLPNO-CCSD(T), (RO)-DLPNO pert. Triples 
  Michael Roemelt        : Original ROCIS implementation, recursive CI coupling coefficients
  Masaaki Saitow         : Open-shell DLPNO-CCSD energy and density      
  Barbara Sandhoefer     : DKH picture change effects                    
  Yorick L. A. Schmerwitz: GMF and freeze-and-release deltaSCF, NEB S-IDPP initial path                    
  Kantharuban Sivalingam : CASSCF convergence/infrastructure, NEVPT2, NEVPT3, NEVPT4(SD), FIC-MRCI and CEPA variants
  Bernardo de Souza      : ESD, SOC TD-DFT                               
  Georgi L. Stoychev     : AutoAux, RI-MP2 NMR, DLPNO-MP2 response, X2C  
  Van Anh Tran           : RI-MP2 g-tensors                              
  Willem Van den Heuvel  : Paramagnetic NMR                              
  Zikuan Wang            : NOTCH, Electric field optimization            
  Frank Wennmohs         : Technical directorship and infrastructure     
  Hang Xu                : AUTO-CI-Response properties                   
                                                                         
[FACCTs GmbH]                                                            
  Markus Bursch, Nicolas Foglia, Miquel Garcia-Rates, Ingolf Harden, Hagen Neugebauer, Anastasios Papadopoulos, 
  Christoph Riplinger, Bernardo de Souza, Georgi L. Stoychev                                                    
                                                                 
  APM, various basis sets, CI-OPT, improved COSX, DLPNO-Multilevel,           
  DOCKER, DRACO, updates on ESD, Fragmentator, GOAT, IRC, LR-CPCM, L-BFGS, MBIS, meta-GGA TD-DFT gradient, ML-optimized integration grids, 
  MM, NACMEs, nearIR, NEB, NEB-TS, NL-DFT gradient (VV10), 2- and 3-layer-ONIOM, interface openCOSMO-RS, QMMM,   
  Crystal-QMMM, RESP, rigid body optimization, SF, symmetry and pop. for TD-DFT, various functionals, SOLVATOR                                   
                                                                         
[Other institutions]                                                     
  V. Asgeirsson          : NEB                                           
  Christoph Bannwarth    : sTDA-DFT, sTD-DFT, PBEh-3c, B97-3c, D3        
  Giovanni Bistoni       : ETS/NOCV, ADLD/ADEX, COVALED                  
  Martin Brehm           : Molecular dynamics                            
  Ronald Cardenas        : ETS/NOCV                                      
  Martina Colucci        : COVALED                                       
  Sebastian Ehlert       : rSCAN, r2SCAN, r2SCAN-3c, D4, dhf basis sets  
  Marvin Friede          : D4 for Fr, Ra, Ac-Lr                          
  Lars Goerigk           : TD-DFT with DH, B97 family of functionals     
  Stefan Grimme          : VdW corrections, initial TS optimization, DFT functionals, gCP, sTDA/sTD-DF 
  Waldemar Hujo          : DFT-NL                                        
  H. Jonsson             : NEB                                           
  Holger Kruse           : gCP                                           
  Marcel Mueller         : wB97X-3c, vDZP basis set                      
  Hagen Neugebauer       : wr2SCAN, Native XTB                           
  Gianluca Regni         : ADLD/ADEX                                     
  Tobias Risthaus        : pre 6.0 range-separated hybrid DFT and stability analysis
  Lukas Wittmann         : regularized MP2, r2SCAN double-hybrids, wr2SCAN        
                                                                         
We gratefully acknowledge several colleagues who have allowed us to      
interface, adapt or use parts of their codes:                            
  Ed Valeev, F. Pavosevic, A. Kumar             : LibInt (2-el integral package), F12 methods 
  Garnet Chan, S. Sharma, J. Yang, R. Olivares  : DMRG                   
  Ulf Ekstrom                                   : XCFun DFT Library      
  Mihaly Kallay                                 : mrcc  (arbitrary order and MRCC methods)
  Frank Weinhold                                : gennbo (NPA and NBO analysis)           
  Simon Mueller                                 : openCOSMO-RS                            
  Christopher J. Cramer and Donald G. Truhlar   : smd solvation model                     
  S Lehtola, MJT Oliveira, MAL Marques          : LibXC Library                           
  Liviu Ungur et al                             : ANISO software                          


 Your calculation uses the libint2 library for the computation of 2-el integrals
 For citations please refer to: http://libint.valeyev.net

 Your ORCA version has been built with support for libXC version: 7.0.0
 For citations please refer to: https://libxc.gitlab.io

 This ORCA versions uses:
   CBLAS   interface :  Fast vector & matrix operations
   LAPACKE interface :  Fast linear algebra routines
   Shared memory     :  Shared parallel matrices


  ***********************************
  * Starting time: Sat Oct  3 18:00:00 2026
  * Host name:     DESKTOP-2KDTO5M
  * Process ID:    14952
  * Working dir.:  C:\Users\naoki\Downloads\デスクトップ\data\Molecules\Calculations\Apixaban\CrystalFragment\ManyBody\FullShell
  ***********************************

NOTE: MaxCore=2000 MB was set to SCF,MP2,MDCI,CIPSI,MRCI,RASCI and CIS
      => If you want to overwrite this, your respective input block should be placed after the MaxCore statement
Your calculation utilizes the semiempirical GFN2-xTB method
Please cite in your paper:
Bannwarth, C.; Ehlert S.; Grimme, S. J. Chem. Theory Comput. 2019, 15, 1652.
   

================================================================================

================================================================================
                                        WARNINGS
                       Please study these warnings very carefully!
================================================================================


WARNING: Found dipole moment calculation with XTB calculation
  ===> : Switching off dipole moment calculation

Environment variable XTBEXE for xtb has been set!

================================================================================
                                       INPUT FILE
================================================================================
NAME = .\Stage06_D2+D3+D1+D5+D7+D4_cluster_XTB2_SP.inp
|  1> # stage 6: A + shell of D2+D3+D1+D5+D7+D4 (9 neighbours), XTB2 SP
|  2> 
|  3> ! XTB2
|  4> 
|  5> %pal
|  6>   nprocs 1
|  7> end
|  8> 
|  9> %maxcore 2000
| 10> 
| 11> * xyz 0 1
| 12> H     22.83953108    41.40894130    37.29825264
| 13> C     21.66192281    40.99367530    38.86881303
| 14> H     22.07616212    40.19221192    39.09488688
| 15> C     20.59018700    41.44174731    39.60209780
| 16> C     20.37888339    41.35108090    42.07160460
| 17> H     21.27577734    41.14178684    42.37508161
| 18> C     19.91667659    39.37261526    40.64877097
| 19> C     19.70491047    38.72673821    41.95392663
| 20> C     19.37498228    39.39670069    43.09735375
| 21> C     19.37987740    40.88529087    43.11355807
| 22> H     18.49518556    41.22484004    42.90526177
| 23> H     19.63551561    41.20961362    43.99079384
| 24> C     19.09233738    38.39757069    44.02965274
| 25> C     18.62131839    38.57115188    45.42180829
| 26> C     19.92150901    36.27320826    41.38583152
| 27> C     21.02045476    36.32096385    40.55815264
| 28> H     21.57482386    37.06802738    40.56428826
| 29> C     21.29965591    35.26203555    39.72119169
| 30> H     22.04007708    35.29484156    39.16096274
| 31> C     20.48327140    34.15728956    39.71615733
| 32> C     19.40393116    34.09804495    40.58017793
| 33> H     18.86965258    33.33755448    40.59889943
| 34> C     19.11657892    35.15088268    41.40864342
| 35> H     18.38500348    35.11074030    41.98177289
| 36> C     21.65484253    33.18902767    37.89985766
| 37> H     21.63735684    32.40735864    37.34230322
| 38> H     21.49730824    33.96875880    37.36275527
| 39> H     22.51426932    33.26003816    38.32242855
| 40> H     18.39538066    37.52066732    47.01612452
| 41> H     19.03443510    36.81056246    45.91171363
| 42> N     20.15043870    40.71641603    40.76047065
| 43> N     19.61541343    37.39055064    42.22106192
| 44> N     19.25444159    37.17793445    43.50387764
| 45> N     18.66135535    37.48509287    46.18797368
| 46> O     19.80354548    38.80217820    39.58306166
| 47> O     18.19832953    39.65471929    45.78664146
| 48> O     20.64750653    33.08576486    38.89083831
| 49> C     21.16875807    43.95659821    35.25288997
| 50> H     20.47458764    44.57326822    35.53622957
| 51> H     20.73787682    43.12398988    35.00447618
| 52> C     21.83638855    44.51236254    34.06934536
| 53> H     22.27585503    43.79118392    33.59013802
| 54> H     21.16639655    44.89163882    33.48001158
| 55> C     22.83291639    45.54914332    34.38918402
| 56> H     23.29048235    45.81491356    33.57597890
| 57> H     22.37932284    46.32984340    34.74489242
| 58> C     23.83563842    45.06632738    35.38346846
| 59> H     24.48924629    44.52205208    34.91794826
| 60> H     24.30290205    45.83567686    35.74389657
| 61> C     23.28615136    44.26860140    36.52721022
| 62> C     20.44944804    43.36719733    38.19279400
| 63> H     20.03755147    44.17046020    37.96687747
| 64> C     21.53658130    42.92535431    37.47020721
| 65> C     22.12431926    41.72606610    37.80121583
| 66> C     19.97011296    42.62082591    39.24985051
| 67> H     19.22705322    42.91497266    39.72575407
| 68> H     20.31296812    42.31422118    41.97547995
| 69> N     22.06622540    43.70370122    36.38672035
| 70> O     23.94091717    44.12713411    37.55626316
| 71> C     15.69244538    39.09660179    43.40885425
| 72> H     16.38661581    38.47993178    43.12551465
| 73> H     16.12332664    39.92921012    43.65726804
| 74> C     15.02481490    38.54083746    44.59239886
| 75> H     14.58534842    39.26201608    45.07160620
| 76> H     15.69480690    38.16156118    45.18173265
| 77> C     14.02828706    37.50405668    44.27256021
| 78> H     13.57072110    37.23828644    45.08576532
| 79> H     14.48188061    36.72335660    43.91685180
| 80> C     13.02556503    37.98687262    43.27827576
| 81> H     12.37195716    38.53114792    43.74379596
| 82> H     12.55830140    37.21752314    42.91784765
| 83> C     13.57505209    38.78459860    42.13453400
| 84> C     16.41175542    39.68600267    40.46895023
| 85> H     16.82365199    38.88273980    40.69486676
| 86> C     15.32462216    40.12784569    41.19153701
| 87> C     14.73688419    41.32713390    40.86052839
| 88> C     16.89109049    40.43237409    39.41189371
| 89> H     17.63415023    40.13822734    38.93599015
| 90> H     16.54823533    40.73897882    36.68626427
| 91> N     14.79497806    39.34949878    42.27502387
| 92> O     12.92028628    38.92606589    41.10548106
| 93> H     14.02167238    41.64425870    41.36349158
| 94> C     15.19928065    42.05952470    39.79293120
| 95> H     14.78504134    42.86098808    39.56685734
| 96> C     16.27101645    41.61145269    39.05964642
| 97> C     16.48232007    41.70211910    36.59013962
| 98> H     15.58542611    41.91141316    36.28666261
| 99> C     16.94452686    43.68058474    38.01297325
|100> C     17.15629298    44.32646179    36.70781759
|101> C     17.48622117    43.65649931    35.56439047
|102> C     17.48132606    42.16790913    35.54818615
|103> H     18.36601789    41.82835996    35.75648245
|104> H     17.22568784    41.84358638    34.67095038
|105> C     17.76886607    44.65562931    34.63209148
|106> C     18.23988506    44.48204812    33.23993593
|107> C     16.93969444    46.77999174    37.27591270
|108> C     15.84074869    46.73223615    38.10359158
|109> H     15.28637959    45.98517262    38.09745596
|110> C     15.56154755    47.79116445    38.94055254
|111> H     14.82112637    47.75835844    39.50078148
|112> C     16.37793206    48.89591044    38.94558689
|113> C     17.45727229    48.95515505    38.08156629
|114> H     17.99155087    49.71564552    38.06284479
|115> C     17.74462454    47.90231732    37.25310080
|116> H     18.47619997    47.94245970    36.67997133
|117> C     15.20636093    49.86417233    40.76188656
|118> H     15.22384661    50.64584136    41.31944100
|119> H     15.36389521    49.08444120    41.29898895
|120> H     14.34693413    49.79316184    40.33931567
|121> H     18.46582279    45.53253268    31.64561970
|122> H     17.82676836    46.24263754    32.75003059
|123> N     16.71076476    42.33678397    37.90127357
|124> N     17.24579002    45.66264936    36.44068230
|125> N     17.60676186    45.87526555    35.15786658
|126> N     18.19984811    45.56810713    32.47377054
|127> O     17.05765798    44.25102180    39.07868256
|128> O     18.66287393    43.39848071    32.87510276
|129> O     16.21369692    49.96743514    39.77090591
|130> C     25.91324538    39.09660179    43.40885425
|131> H     26.60741581    38.47993178    43.12551465
|132> H     26.34412664    39.92921012    43.65726804
|133> C     25.24561490    38.54083746    44.59239886
|134> H     24.80614842    39.26201608    45.07160620
|135> H     25.91560690    38.16156118    45.18173265
|136> C     24.24908706    37.50405668    44.27256021
|137> H     23.79152110    37.23828644    45.08576532
|138> H     24.70268061    36.72335660    43.91685180
|139> C     23.24636503    37.98687262    43.27827576
|140> H     22.59275716    38.53114792    43.74379596
|141> H     22.77910140    37.21752314    42.91784765
|142> C     23.79585209    38.78459860    42.13453400
|143> C     26.63255542    39.68600267    40.46895023
|144> H     27.04445199    38.88273980    40.69486676
|145> C     25.54542216    40.12784569    41.19153701
|146> C     24.95768419    41.32713390    40.86052839
|147> C     27.11189049    40.43237409    39.41189371
|148> H     27.85495023    40.13822734    38.93599015
|149> H     26.76903533    40.73897882    36.68626427
|150> N     25.01577806    39.34949878    42.27502387
|151> O     23.14108628    38.92606589    41.10548106
|152> H     24.24247238    41.64425870    41.36349158
|153> C     25.42008065    42.05952470    39.79293120
|154> H     25.00584134    42.86098808    39.56685734
|155> C     26.49181645    41.61145269    39.05964642
|156> C     26.70312007    41.70211910    36.59013962
|157> H     25.80622611    41.91141316    36.28666261
|158> C     27.16532686    43.68058474    38.01297325
|159> C     27.37709298    44.32646179    36.70781759
|160> C     27.70702117    43.65649931    35.56439047
|161> C     27.70212606    42.16790913    35.54818615
|162> H     28.58681789    41.82835996    35.75648245
|163> H     27.44648784    41.84358638    34.67095038
|164> C     27.98966607    44.65562931    34.63209148
|165> C     28.46068506    44.48204812    33.23993593
|166> C     27.16049444    46.77999174    37.27591270
|167> C     26.06154869    46.73223615    38.10359158
|168> H     25.50717959    45.98517262    38.09745596
|169> C     25.78234755    47.79116445    38.94055254
|170> H     25.04192637    47.75835844    39.50078148
|171> C     26.59873206    48.89591044    38.94558689
|172> C     27.67807229    48.95515505    38.08156629
|173> H     28.21235087    49.71564552    38.06284479
|174> C     27.96542454    47.90231732    37.25310080
|175> H     28.69699997    47.94245970    36.67997133
|176> C     25.42716093    49.86417233    40.76188656
|177> H     25.44464661    50.64584136    41.31944100
|178> H     25.58469521    49.08444120    41.29898895
|179> H     24.56773413    49.79316184    40.33931567
|180> H     28.68662279    45.53253268    31.64561970
|181> H     28.04756836    46.24263754    32.75003059
|182> N     26.93156476    42.33678397    37.90127357
|183> N     27.46659002    45.66264936    36.44068230
|184> N     27.82756186    45.87526555    35.15786658
|185> N     28.42064811    45.56810713    32.47377054
|186> O     27.27845798    44.25102180    39.07868256
|187> O     28.88367393    43.39848071    32.87510276
|188> O     26.43449692    49.96743514    39.77090591
|189> C     17.73376538    38.14522738    51.14445018
|190> H     17.08015751    37.60095208    51.60997038
|191> H     17.26650175    38.91457686    50.78402207
|192> O     17.62848663    37.20603411    48.97165548
|193> C     21.08613240    27.23618956    46.81176131
|194> C     22.16547264    27.17694495    45.94774071
|195> H     22.69975122    26.41645448    45.92901922
|196> C     19.91456127    26.26792767    48.62806098
|197> H     19.93204696    25.48625864    49.18561543
|198> H     20.07209556    27.04765880    49.16516337
|199> H     19.05513448    26.33893816    48.20549009
|200> O     20.92189726    26.16466486    47.63708033
|201> C     20.97921680    34.52064731    46.92582084
|202> H     22.34235057    35.99387266    46.80216458
|203> C     21.19052041    34.42998090    44.45631404
|204> H     20.29362646    34.22068684    44.15283703
|205> H     21.25643568    35.39312118    44.55243869
|206> C     21.65272721    32.45151526    45.87914767
|207> C     21.86449333    31.80563821    44.57399201
|208> C     22.19442152    32.47560069    43.43056490
|209> C     22.18952640    33.96419087    43.41436058
|210> H     23.07421823    34.30374004    43.62265688
|211> H     21.93388819    34.28851362    42.53712481
|212> C     22.47706641    31.47647069    42.49826590
|213> C     22.94808540    31.65005188    41.10611035
|214> C     21.64789479    29.35210826    45.14208713
|215> C     20.54894904    29.39986385    45.96976600
|216> H     19.99457994    30.14692738    45.96363038
|217> C     20.26974789    28.34093555    46.80672696
|218> C     22.45282488    28.22978268    45.11927522
|219> H     23.18440032    28.18964030    44.54614575
|220> H     23.17402313    30.59956732    39.51179412
|221> H     22.53496870    29.88946246    40.61620501
|222> N     21.41896510    33.79531603    45.76744799
|223> N     21.95399036    30.46945064    44.30685673
|224> N     22.31496220    30.25683445    43.02404100
|225> N     22.90804845    30.56399287    40.33994497
|226> O     21.76585832    31.88107820    46.94485698
|227> O     23.37107427    32.73361929    40.74127718
|228> C     20.40064573    37.03549821    51.27502868
|229> H     21.09481616    37.65216822    50.99168907
|230> H     20.83152698    36.20288988    51.52344247
|231> C     19.73301525    37.59126254    52.45857328
|232> H     19.29354876    36.87008392    52.93778063
|233> H     20.40300725    37.97053882    53.04790707
|234> C     18.73648740    38.62804332    52.13873463
|235> H     18.27892144    38.89381356    52.95193974
|236> H     19.19008095    39.40874340    51.78302622
|237> C     18.28325244    37.34750140    50.00070842
|238> C     21.11995576    36.44609733    48.33512465
|239> H     21.53185233    37.24936020    48.56104118
|240> C     20.03282250    36.00425431    49.05771143
|241> C     19.44508453    34.80496610    48.72670281
|242> H     18.72987272    34.48784130    49.22966600
|243> C     19.90748099    34.07257530    47.65910562
|244> H     19.49324168    33.27111192    47.43303177
|245> C     21.59929084    35.69972591    47.27806813
|246> H     19.52932672    28.37374156    47.36695590
|247> N     19.50317840    36.78260122    50.14119830
|248> C     17.73376538    51.98742738    51.14445018
|249> H     17.08015751    51.44315208    51.60997038
|250> H     17.26650175    52.75677686    50.78402207
|251> O     17.62848663    51.04823411    48.97165548
|252> C     21.08613240    41.07838956    46.81176131
|253> C     22.16547264    41.01914495    45.94774071
|254> H     22.69975122    40.25865448    45.92901922
|255> C     19.91456127    40.11012767    48.62806098
|256> H     19.93204696    39.32845864    49.18561543
|257> H     20.07209556    40.88985880    49.16516337
|258> H     19.05513448    40.18113816    48.20549009
|259> O     20.92189726    40.00686486    47.63708033
|260> C     20.97921680    48.36284731    46.92582084
|261> H     22.34235057    49.83607266    46.80216458
|262> C     21.19052041    48.27218090    44.45631404
|263> H     20.29362646    48.06288684    44.15283703
|264> H     21.25643568    49.23532118    44.55243869
|265> C     21.65272721    46.29371526    45.87914767
|266> C     21.86449333    45.64783821    44.57399201
|267> C     22.19442152    46.31780069    43.43056490
|268> C     22.18952640    47.80639087    43.41436058
|269> H     23.07421823    48.14594004    43.62265688
|270> H     21.93388819    48.13071362    42.53712481
|271> C     22.47706641    45.31867069    42.49826590
|272> C     22.94808540    45.49225188    41.10611035
|273> C     21.64789479    43.19430826    45.14208713
|274> C     20.54894904    43.24206385    45.96976600
|275> H     19.99457994    43.98912738    45.96363038
|276> C     20.26974789    42.18313555    46.80672696
|277> C     22.45282488    42.07198268    45.11927522
|278> H     23.18440032    42.03184030    44.54614575
|279> H     23.17402313    44.44176732    39.51179412
|280> H     22.53496870    43.73166246    40.61620501
|281> N     21.41896510    47.63751603    45.76744799
|282> N     21.95399036    44.31165064    44.30685673
|283> N     22.31496220    44.09903445    43.02404100
|284> N     22.90804845    44.40619287    40.33994497
|285> O     21.76585832    45.72327820    46.94485698
|286> O     23.37107427    46.57581929    40.74127718
|287> C     20.40064573    50.87769821    51.27502868
|288> H     21.09481616    51.49436822    50.99168907
|289> H     20.83152698    50.04508988    51.52344247
|290> C     19.73301525    51.43346254    52.45857328
|291> H     19.29354876    50.71228392    52.93778063
|292> H     20.40300725    51.81273882    53.04790707
|293> C     18.73648740    52.47024332    52.13873463
|294> H     18.27892144    52.73601356    52.95193974
|295> H     19.19008095    53.25094340    51.78302622
|296> C     18.28325244    51.18970140    50.00070842
|297> C     21.11995576    50.28829733    48.33512465
|298> H     21.53185233    51.09156020    48.56104118
|299> C     20.03282250    49.84645431    49.05771143
|300> C     19.44508453    48.64716610    48.72670281
|301> H     18.72987272    48.33004130    49.22966600
|302> C     19.90748099    47.91477530    47.65910562
|303> H     19.49324168    47.11331192    47.43303177
|304> C     21.59929084    49.54192591    47.27806813
|305> H     19.52932672    42.21594156    47.36695590
|306> N     19.50317840    50.62480122    50.14119830
|307> C     15.65615842    32.17550179    43.11906439
|308> H     14.96198798    31.55883178    43.40240399
|309> H     15.22527716    33.00811012    42.87065060
|310> C     16.32378890    31.61973746    41.93551979
|311> H     16.76325538    32.34091608    41.45631244
|312> H     15.65379689    31.24046118    41.34618600
|313> C     17.32031674    30.58295668    42.25535844
|314> H     17.77788270    30.31718644    41.44215333
|315> H     16.86672319    29.80225660    42.61106684
|316> C     17.77355170    31.86349860    44.39338465
|317> C     14.93684838    32.76490267    46.05896842
|318> H     14.52495181    31.96163980    45.83305189
|319> C     16.02398164    33.20674569    45.33638164
|320> C     16.61171961    34.40603390    45.66739025
|321> H     17.32693142    34.72315870    45.16442706
|322> C     16.14932315    35.13842470    46.73498745
|323> H     16.56356246    35.93988808    46.96106130
|324> C     14.45751330    33.51127409    47.11602494
|325> H     16.52747742    40.83725844    47.02713717
|326> N     16.55362574    32.42839878    44.25289477
|327> C     15.07758735    34.69035269    47.46827223
|328> H     13.71445357    33.21712734    47.59192849
|329> C     14.86628373    34.78101910    49.93777903
|330> H     15.76317769    34.99031316    50.24125603
|331> H     14.80036847    33.81787882    49.84165437
|332> C     14.40407693    36.75948474    48.51494540
|333> C     14.19231081    37.40536179    49.82010106
|334> C     13.86238262    36.73539931    50.96352817
|335> C     13.86727774    35.24680913    50.97973249
|336> H     12.98258591    34.90725996    50.77143619
|337> H     14.12291596    34.92248638    51.85696826
|338> C     13.57973773    37.73452931    51.89582716
|339> C     13.10871874    37.56094812    53.28798271
|340> C     14.40890935    39.85889174    49.25200594
|341> C     15.50785511    39.81113615    48.42432707
|342> H     16.06222421    39.06407262    48.43046268
|343> C     15.78705625    40.87006445    47.58736611
|344> C     13.60397926    40.98121732    49.27481784
|345> H     12.87240383    41.02135970    49.84794731
|346> H     12.88278101    38.61143268    54.88229894
|347> H     13.52183544    39.32153754    53.77788805
|348> N     14.63783904    35.41568397    48.62664507
|349> N     14.10281378    38.74154936    50.08723634
|350> N     13.74184194    38.95416555    51.37005206
|351> N     13.14875569    38.64700713    54.05414810
|352> O     14.29094582    37.32992180    47.44923609
|353> O     12.68572987    36.47738071    53.65281588
|354> C     16.14224287    42.94307233    45.76603208
|355> H     16.12475718    43.72474136    45.20847764
|356> H     15.98470859    42.16334120    45.22892969
|357> H     17.00166967    42.87206184    46.18860297
|358> O     15.13490688    43.04633514    46.75701274
|359> C     14.97067174    41.97481044    47.58233176
|360> C     13.89133151    42.03405505    48.44635235
|361> H     13.35705293    42.79454552    48.46507385
|362> C     18.32303877    31.06577262    43.24964288
|363> H     18.97664664    31.61004792    42.78412268
|364> H     18.79030239    30.29642314    43.61007100
|365> O     18.42831751    32.00496589    45.42243758
|366> C     26.68135773    32.17550179    27.38671554
|367> H     25.98718729    31.55883178    27.67005515
|368> H     26.25047647    33.00811012    27.13830176
|369> C     27.34898821    31.61973746    26.20317094
|370> H     27.78845469    32.34091608    25.72396360
|371> H     26.67899620    31.24046118    25.61383715
|372> C     28.34551605    30.58295668    26.52300959
|373> H     28.80308201    30.31718644    25.70980448
|374> H     27.89192250    29.80225660    26.87871800
|375> C     28.79875101    31.86349860    28.66103580
|376> C     25.96204769    32.76490267    30.32661957
|377> H     25.55015112    31.96163980    30.10070304
|378> C     27.04918095    33.20674569    29.60403279
|379> C     27.63691892    34.40603390    29.93504141
|380> H     28.35213073    34.72315870    29.43207822
|381> C     27.17452246    35.13842470    31.00263860
|382> H     27.58876177    35.93988808    31.22871246
|383> C     25.48271261    33.51127409    31.38367609
|384> H     27.55267673    40.83725844    31.29478832
|385> N     27.57882505    32.42839878    28.52054593
|386> C     26.10278666    34.69035269    31.73592338
|387> H     24.73965288    33.21712734    31.85957964
|388> C     25.89148304    34.78101910    34.20543018
|389> H     26.78837699    34.99031316    34.50890719
|390> H     25.82556778    33.81787882    34.10930553
|391> C     25.42927624    36.75948474    32.78259655
|392> C     25.21751012    37.40536179    34.08775221
|393> C     24.88758193    36.73539931    35.23117933
|394> C     24.89247705    35.24680913    35.24738364
|395> H     24.00778522    34.90725996    35.03908735
|396> H     25.14811527    34.92248638    36.12461942
|397> C     24.60493704    37.73452931    36.16347832
|398> C     24.13391805    37.56094812    37.55563387
|399> C     25.43410866    39.85889174    33.51965709
|400> C     26.53305441    39.81113615    32.69197822
|401> H     27.08742352    39.06407262    32.69811384
|402> C     26.81225556    40.87006445    31.85501726
|403> C     24.62917857    40.98121732    33.54246900
|404> H     23.89760314    41.02135970    34.11559847
|405> H     23.90798032    38.61143268    39.14995010
|406> H     24.54703475    39.32153754    38.04553921
|407> N     25.66303835    35.41568397    32.89429623
|408> N     25.12801309    38.74154936    34.35488749
|409> N     24.76704125    38.95416555    35.63770322
|410> N     24.17395500    38.64700713    38.32179926
|411> O     25.31614513    37.32992180    31.71688724
|412> O     23.71092918    36.47738071    37.92046704
|413> C     27.16744218    42.94307233    30.03368324
|414> H     27.14995649    43.72474136    29.47612879
|415> H     27.00990789    42.16334120    29.49658085
|416> H     28.02686898    42.87206184    30.45625413
|417> O     26.16010619    43.04633514    31.02466389
|418> C     25.99587105    41.97481044    31.84998291
|419> C     24.91653082    42.03405505    32.71400351
|420> H     24.38225224    42.79454552    32.73272501
|421> C     29.34823808    31.06577262    27.51729404
|422> H     30.00184595    31.61004792    27.05177384
|423> H     29.81550170    30.29642314    27.87772215
|424> O     29.45351682    32.00496589    29.69008874
|425> C     18.53816469    38.14522738    35.41210134
|426> H     17.88455681    37.60095208    35.87762154
|427> H     18.07090106    38.91457686    35.05167323
|428> O     18.43288594    37.20603411    33.23930664
|429> C     21.89053171    27.23618956    31.07941247
|430> C     22.96987195    27.17694495    30.21539187
|431> H     23.50415053    26.41645448    30.19667037
|432> C     20.71896058    26.26792767    32.89571214
|433> H     20.73644627    25.48625864    33.45326658
|434> H     20.87649487    27.04765880    33.43281453
|435> H     19.85953379    26.33893816    32.47314125
|436> O     21.72629657    26.16466486    31.90473149
|437> C     21.78361611    34.52064731    31.19347199
|438> H     23.14674988    35.99387266    31.06981573
|439> C     21.99491972    34.42998090    28.72396520
|440> H     21.09802577    34.22068684    28.42048819
|441> H     22.06083498    35.39312118    28.82008985
|442> C     22.45712652    32.45151526    30.14679883
|443> C     22.66889264    31.80563821    28.84164317
|444> C     22.99882083    32.47560069    27.69821605
|445> C     22.99392571    33.96419087    27.68201173
|446> H     23.87861754    34.30374004    27.89030803
|447> H     22.73828750    34.28851362    26.80477596
|448> C     23.28146572    31.47647069    26.76591706
|449> C     23.75248471    31.65005188    25.37376151
|450> C     22.45229410    29.35210826    29.40973828
|451> C     21.35334835    29.39986385    30.23741716
|452> H     20.79897925    30.14692738    30.23128154
|453> C     21.07414720    28.34093555    31.07437811
|454> C     23.25722419    28.22978268    29.38692638
|455> H     23.98879962    28.18964030    28.81379691
|456> H     23.97842244    30.59956732    23.77944528
|457> H     23.33936801    29.88946246    24.88385617
|458> N     22.22336441    33.79531603    30.03509915
|459> N     22.75838967    30.46945064    28.57450788
|460> N     23.11936151    30.25683445    27.29169216
|461> N     23.71244776    30.56399287    24.60759612
|462> O     22.57025763    31.88107820    31.21250814
|463> O     24.17547358    32.73361929    25.00892834
|464> C     21.20504504    37.03549821    35.54267983
|465> H     21.89921547    37.65216822    35.25934023
|466> H     21.63592629    36.20288988    35.79109362
|467> C     20.53741456    37.59126254    36.72622444
|468> H     20.09794807    36.87008392    37.20543178
|469> H     21.20740656    37.97053882    37.31555822
|470> C     19.54088671    38.62804332    36.40638578
|471> H     19.08332075    38.89381356    37.21959090
|472> H     19.99448026    39.40874340    36.05067738
|473> C     19.08765175    37.34750140    34.26835958
|474> C     21.92435507    36.44609733    32.60277580
|475> H     22.33625164    37.24936020    32.82869233
|476> C     20.83722181    36.00425431    33.32536259
|477> C     20.24948384    34.80496610    32.99435397
|478> H     19.53427203    34.48784130    33.49731716
|479> C     20.71188030    34.07257530    31.92675677
|480> H     20.29764099    33.27111192    31.70068292
|481> C     22.40369015    35.69972591    31.54571929
|482> H     20.33372603    28.37374156    31.63460706
|483> N     20.30757771    36.78260122    34.40884945
|484> C     18.53816469    51.98742738    35.41210134
|485> H     17.88455681    51.44315208    35.87762154
|486> H     18.07090106    52.75677686    35.05167323
|487> O     18.43288594    51.04823411    33.23930664
|488> C     21.89053171    41.07838956    31.07941247
|489> C     22.96987195    41.01914495    30.21539187
|490> H     23.50415053    40.25865448    30.19667037
|491> C     20.71896058    40.11012767    32.89571214
|492> H     20.73644627    39.32845864    33.45326658
|493> H     20.87649487    40.88985880    33.43281453
|494> H     19.85953379    40.18113816    32.47314125
|495> O     21.72629657    40.00686486    31.90473149
|496> C     21.78361611    48.36284731    31.19347199
|497> H     23.14674988    49.83607266    31.06981573
|498> C     21.99491972    48.27218090    28.72396520
|499> H     21.09802577    48.06288684    28.42048819
|500> H     22.06083498    49.23532118    28.82008985
|501> C     22.45712652    46.29371526    30.14679883
|502> C     22.66889264    45.64783821    28.84164317
|503> C     22.99882083    46.31780069    27.69821605
|504> C     22.99392571    47.80639087    27.68201173
|505> H     23.87861754    48.14594004    27.89030803
|506> H     22.73828750    48.13071362    26.80477596
|507> C     23.28146572    45.31867069    26.76591706
|508> C     23.75248471    45.49225188    25.37376151
|509> C     22.45229410    43.19430826    29.40973828
|510> C     21.35334835    43.24206385    30.23741716
|511> H     20.79897925    43.98912738    30.23128154
|512> C     21.07414720    42.18313555    31.07437811
|513> C     23.25722419    42.07198268    29.38692638
|514> H     23.98879962    42.03184030    28.81379691
|515> H     23.97842244    44.44176732    23.77944528
|516> H     23.33936801    43.73166246    24.88385617
|517> N     22.22336441    47.63751603    30.03509915
|518> N     22.75838967    44.31165064    28.57450788
|519> N     23.11936151    44.09903445    27.29169216
|520> N     23.71244776    44.40619287    24.60759612
|521> O     22.57025763    45.72327820    31.21250814
|522> O     24.17547358    46.57581929    25.00892834
|523> C     21.20504504    50.87769821    35.54267983
|524> H     21.89921547    51.49436822    35.25934023
|525> H     21.63592629    50.04508988    35.79109362
|526> C     20.53741456    51.43346254    36.72622444
|527> H     20.09794807    50.71228392    37.20543178
|528> H     21.20740656    51.81273882    37.31555822
|529> C     19.54088671    52.47024332    36.40638578
|530> H     19.08332075    52.73601356    37.21959090
|531> H     19.99448026    53.25094340    36.05067738
|532> C     19.08765175    51.18970140    34.26835958
|533> C     21.92435507    50.28829733    32.60277580
|534> H     22.33625164    51.09156020    32.82869233
|535> C     20.83722181    49.84645431    33.32536259
|536> C     20.24948384    48.64716610    32.99435397
|537> H     19.53427203    48.33004130    33.49731716
|538> C     20.71188030    47.91477530    31.92675677
|539> H     20.29764099    47.11331192    31.70068292
|540> C     22.40369015    49.54192591    31.54571929
|541> H     20.33372603    42.21594156    31.63460706
|542> N     20.30757771    50.62480122    34.40884945
|543> C     15.69244538    25.25440179    43.40885425
|544> H     16.38661581    24.63773178    43.12551465
|545> H     16.12332664    26.08701012    43.65726804
|546> C     15.02481490    24.69863746    44.59239886
|547> H     14.58534842    25.41981608    45.07160620
|548> H     15.69480690    24.31936118    45.18173265
|549> C     14.02828706    23.66185668    44.27256021
|550> H     13.57072110    23.39608644    45.08576532
|551> H     14.48188061    22.88115660    43.91685180
|552> C     13.02556503    24.14467262    43.27827576
|553> H     12.37195716    24.68894792    43.74379596
|554> H     12.55830140    23.37532314    42.91784765
|555> C     13.57505209    24.94239860    42.13453400
|556> C     16.41175542    25.84380267    40.46895023
|557> H     16.82365199    25.04053980    40.69486676
|558> C     15.32462216    26.28564569    41.19153701
|559> C     14.73688419    27.48493390    40.86052839
|560> C     16.89109049    26.59017409    39.41189371
|561> H     17.63415023    26.29602734    38.93599015
|562> H     16.54823533    26.89677882    36.68626427
|563> N     14.79497806    25.50729878    42.27502387
|564> O     12.92028628    25.08386589    41.10548106
|565> H     14.02167238    27.80205870    41.36349158
|566> C     15.19928065    28.21732470    39.79293120
|567> H     14.78504134    29.01878808    39.56685734
|568> C     16.27101645    27.76925269    39.05964642
|569> C     16.48232007    27.85991910    36.59013962
|570> H     15.58542611    28.06921316    36.28666261
|571> C     16.94452686    29.83838474    38.01297325
|572> C     17.15629298    30.48426179    36.70781759
|573> C     17.48622117    29.81429931    35.56439047
|574> C     17.48132606    28.32570913    35.54818615
|575> H     18.36601789    27.98615996    35.75648245
|576> H     17.22568784    28.00138638    34.67095038
|577> C     17.76886607    30.81342931    34.63209148
|578> C     18.23988506    30.63984812    33.23993593
|579> C     16.93969444    32.93779174    37.27591270
|580> C     15.84074869    32.89003615    38.10359158
|581> H     15.28637959    32.14297262    38.09745596
|582> C     15.56154755    33.94896445    38.94055254
|583> H     14.82112637    33.91615844    39.50078148
|584> C     16.37793206    35.05371044    38.94558689
|585> C     17.45727229    35.11295505    38.08156629
|586> H     17.99155087    35.87344552    38.06284479
|587> C     17.74462454    34.06011732    37.25310080
|588> H     18.47619997    34.10025970    36.67997133
|589> C     15.20636093    36.02197233    40.76188656
|590> H     15.22384661    36.80364136    41.31944100
|591> H     15.36389521    35.24224120    41.29898895
|592> H     14.34693413    35.95096184    40.33931567
|593> H     18.46582279    31.69033268    31.64561970
|594> H     17.82676836    32.40043754    32.75003059
|595> N     16.71076476    28.49458397    37.90127357
|596> N     17.24579002    31.82044936    36.44068230
|597> N     17.60676186    32.03306555    35.15786658
|598> N     18.19984811    31.72590713    32.47377054
|599> O     17.05765798    30.40882180    39.07868256
|600> O     18.66287393    29.55628071    32.87510276
|601> O     16.21369692    36.12523514    39.77090591
|602> *
|603> 
|604>                          ****END OF INPUT****
================================================================================

                       ****************************
                       * Single Point Calculation *
                       ****************************

      -----------------------------------------------------------      
     |                   =====================                   |     
     |                           x T B                           |     
     |                   =====================                   |     
     |                         S. Grimme                         |     
     |          Mulliken Center for Theoretical Chemistry        |     
     |                    University of Bonn                     |     
      -----------------------------------------------------------      

   * xtb version 6.7.1pre (5071a88) compiled by 'Marcel@Raven' on 2024-07-23

   xtb is free software: you can redistribute it and/or modify it under
   the terms of the GNU Lesser General Public License as published by
   the Free Software Foundation, either version 3 of the License, or
   (at your option) any later version.
   
   xtb is distributed in the hope that it will be useful,
   but WITHOUT ANY WARRANTY; without even the implied warranty of
   MERCHANTABILITY or FITNESS FOR A PARTICULAR PURPOSE.  See the
   GNU Lesser General Public License for more details.
   
   Cite this work as:
   * C. Bannwarth, E. Caldeweyher, S. Ehlert, A. Hansen, P. Pracht,
     J. Seibert, S. Spicher, S. Grimme, WIREs Comput. Mol. Sci., 2020, 11,
     e01493. DOI: 10.1002/wcms.1493
   
   for GFN2-xTB:
   * C. Bannwarth, S. Ehlert and S. Grimme., J. Chem. Theory Comput., 2019,
     15, 1652-1671. DOI: 10.1021/acs.jctc.8b01176
   for GFN1-xTB:
   * S. Grimme, C. Bannwarth, P. Shushkov, J. Chem. Theory Comput., 2017,
     13, 1989-2009. DOI: 10.1021/acs.jctc.7b00118
   for GFN0-xTB:
   * P. Pracht, E. Caldeweyher, S. Ehlert, S. Grimme, ChemRxiv, 2019, preprint.
     DOI: 10.26434/chemrxiv.8326202.v1
   for GFN-FF:
   * S. Spicher and S. Grimme, Angew. Chem. Int. Ed., 2020, 59, 15665-15673.
     DOI: 10.1002/anie.202004239
   
   for ALPB and GBSA implicit solvation:
   * S. Ehlert, M. Stahn, S. Spicher, S. Grimme, J. Chem. Theory Comput.,
     2021, 17, 4250-4261. DOI: 10.1021/acs.jctc.1c00471
   
   for ddCOSMO and CPCM-X implicit solvation:
   * M. Stahn, S. Ehlert, S. Grimme, J. Phys. Chem. A,
     2023, XX, XXXX-XXXX. DOI: 10.1021/acs.jpca.3c04382
   
   for DFT-D4:
   * E. Caldeweyher, C. Bannwarth and S. Grimme, J. Chem. Phys., 2017,
     147, 034112. DOI: 10.1063/1.4993215
   * E. Caldeweyher, S. Ehlert, A. Hansen, H. Neugebauer, S. Spicher,
     C. Bannwarth and S. Grimme, J. Chem. Phys., 2019, 150, 154122.
     DOI: 10.1063/1.5090222
   * E. Caldeweyher, J.-M. Mewes, S. Ehlert and S. Grimme, Phys. Chem. Chem. Phys.
     2020, 22, 8499-8512. DOI: 10.1039/D0CP00502A
   
   for sTDA-xTB:
   * S. Grimme and C. Bannwarth, J. Chem. Phys., 2016, 145, 054103.
     DOI: 10.1063/1.4959605
   
   in the mass-spec context:
   * V. Asgeirsson, C. Bauer and S. Grimme, Chem. Sci., 2017, 8, 4879.
     DOI: 10.1039/c7sc00601b
   * J. Koopman and S. Grimme, ACS Omega 2019, 4, 12, 15120-15133.
     DOI: 10.1021/acsomega.9b02011
   
   for metadynamics refer to:
   * S. Grimme, J. Chem. Theory Comput., 2019, 155, 2847-2862
     DOI: 10.1021/acs.jctc.9b00143
   
   for SPH calculations refer to:
   * S. Spicher and S. Grimme, J. Chem. Theory Comput., 2021, 17, 1701-1714
     DOI: 10.1021/acs.jctc.0c01306
   
   for ONIOM refer to:
   * C. Plett, A. Katbashev, S. Ehlert, S. Grimme, M. Bursch,
     Phys. Chem. Chem. Phys., 2023, 25, 17860-17868. DOI: 10.1039/D3CP02178E
   
   for DIPRO refer to:
   * J. Kohn, N. Gildemeister, S. Grimme, D. Fazzi, A. Hansen,
     J. Chem. Phys., 2023, just accepted.
   
   for PTB refer to:
   * S. Grimme, M. Mueller, A. Hansen, J. Chem. Phys., 2023, 158, 124111.
     DOI: 10.1063/5.0137838
   
   with help from (in alphabetical order)
   P. Atkinson, C. Bannwarth, F. Bohle, G. Brandenburg, E. Caldeweyher
   M. Checinski, S. Dohm, S. Ehlert, S. Ehrlich, I. Gerasimov, C. Hﾃｶlzer
   A. Katbashev, J. Kohn, J. Koopman, C. Lavigne, S. Lehtola, F. Mﾃ､rz, M. Mﾃｼller,
   F. Musil, H. Neugebauer, J. Pisarek, C. Plett, P. Pracht, F. Pultar,
   J. Seibert, P. Shushkov, S. Spicher, M. Stahn, M. Steiner, T. Strunk,
   J. Stﾃｼckrath, T. Rose, and J. Unsleber
   
 * started run on 2026/10/03 at 18:00:00.632     
   ID    Z sym.   atoms
    1    1 H      1, 3, 6, 11, 12, 17, 19, 22, 24, 26-30, 39, 40, 42, 43, 45,
                  46, 48, 49, 52, 56, 57, 61, 62, 64, 65, 67, 68, 70, 71, 74,
                  78, 79, 82, 84, 87, 92, 93, 98, 100, 103, 105, 107-111,
                  120, 121, 123, 124, 126, 127, 129, 130, 133, 137, 138, 141,
                  143, 146, 151, 152, 157, 159, 162, 164, 166-170, 179, 180,
                  184, 186-188, 191, 193, 194, 199, 200, 205, 208-210, 218,
                  219, 221, 222, 224, 225, 228, 231, 233, 235, 238, 239, 243,
                  245-247, 250, 252, 253, 258, 259, 264, 267-269, 277, 278,
                  280, 281, 283, 284, 287, 290, 292, 294, 297, 298, 300, 301,
                  303, 304, 307, 310, 312, 314, 317, 319, 320, 325, 326, 331,
                  334-336, 344-346, 350, 352, 353, 356, 357, 359, 360, 362,
                  363, 366, 369, 371, 373, 376, 378, 379, 384, 385, 390,
                  393-395, 403-405, 409, 411, 412, 415, 416, 420, 422-424,
                  427, 429, 430, 435, 436, 441, 444-446, 454, 455, 457, 458,
                  460, 461, 464, 467, 469, 471, 474, 475, 479, 481-483, 486,
                  488, 489, 494, 495, 500, 503-505, 513, 514, 516, 517, 519,
                  520, 523, 526, 528, 530, 533, 534, 536, 537, 539, 540, 542,
                  543, 546, 550, 551, 554, 556, 559, 564, 565, 570, 572, 575,
                  577, 579-583
    2    6 C      2, 4, 5, 7-10, 13-16, 18, 20, 21, 23, 25, 38, 41, 44, 47,
                  50, 51, 53-55, 60, 63, 66, 69, 72, 73, 75-77, 83, 85, 86,
                  88-91, 94-97, 99, 101, 102, 104, 106, 119, 122, 125, 128,
                  131, 132, 134-136, 142, 144, 145, 147-150, 153-156, 158,
                  160, 161, 163, 165, 178, 182, 183, 185, 190, 192, 195-198,
                  201-204, 206, 207, 217, 220, 223, 226, 227, 229, 230, 232,
                  234, 237, 241, 242, 244, 249, 251, 254-257, 260-263, 265,
                  266, 276, 279, 282, 285, 286, 288, 289, 291, 293, 296, 299,
                  302, 305, 306, 308, 309, 311, 313, 316, 318, 321-324,
                  327-330, 332, 333, 343, 348, 349, 351, 355, 358, 361, 364,
                  365, 367, 368, 370, 372, 375, 377, 380-383, 386-389, 391,
                  392, 402, 407, 408, 410, 414, 418, 419, 421, 426, 428,
                  431-434, 437-440, 442, 443, 453, 456, 459, 462, 463, 465,
                  466, 468, 470, 473, 477, 478, 480, 485, 487, 490-493,
                  496-499, 501, 502, 512, 515, 518, 521, 522, 524, 525, 527,
                  529, 532, 535, 538, 541, 544, 545, 547-549, 555, 557, 558,
                  560-563, 566-569, 571, 573, 574, 576, 578
    3    7 N      31-34, 58, 80, 112-115, 139, 171-174, 211-214, 236,
                  270-273, 295, 315, 337-340, 374, 396-399, 447-450, 472,
                  506-509, 531, 552, 584-587
    4    8 O      35-37, 59, 81, 116-118, 140, 175-177, 181, 189, 215, 216,
                  240, 248, 274, 275, 341, 342, 347, 354, 400, 401, 406, 413,
                  417, 425, 451, 452, 476, 484, 510, 511, 553, 588-590

           -------------------------------------------------
          |                Calculation Setup                |
           -------------------------------------------------

          program call               : C:\ORCA_6.1.1\xTB_bigstack\xtb.exe  .\Stage06_D2+D3+D1+D5+D7+D4_cluster_XTB2_SP_XTB.xyz --grad -c 0 -u 0 -P 1 --namespace .\Stage06_D2+D3+D1+D5+D7+D4_cluster_XTB2_SP --input .\Stage06_D2+D3+D1+D5+D7+D4_cluster_XTB2_SP_XTB.input.tmp --acc 1.000000      
          calculation namespace      : .\Stage06_D2+D3+D1+D5+D7+D4_cluster_XTB2_SP
          coordinate file            : .\Stage06_D2+D3+D1+D5+D7+D4_cluster_XTB2_SP_XTB.xyz
          omp threads                :                     1


molecular fragmentation (1/2 indicates fragments):
111111111111111111111111111111111111111111111111111111111112222222222222
222222222222222222222222222222222222222222222222222222222222222222222222
222222222222222222222222222222222222222222222222222222222222222222222222
222222222222222222222222222222222222222222222222222222222222222222222222
222222222222222222222222222222222222222222222222222222222222222222222222
222222222222222222222222222222222222222222222222222222222222222222222222
222222222222222222222222222222222222222222222222222222222222222222222222
222222222222222222222222222222222222222222222222222222222222222222222222
22222222222222
# atoms in fragment 1/2:    59   531
 fragment masses (1/2) :      459.50     4135.48
CMA distance (Bohr)    :   2.725
constraining FC (au)   :  0.0500

           -------------------------------------------------
          |                 G F N 2 - x T B                 |
           -------------------------------------------------

        Reference                      10.1021/acs.jctc.8b01176
      * Hamiltonian:
        H0-scaling (s, p, d)           1.850000    2.230000    2.230000
        zeta-weighting                 0.500000
      * Dispersion:
        s8                             2.700000
        a1                             0.520000
        a2                             5.000000
        s9                             5.000000
      * Repulsion:
        kExp                           1.500000    1.000000
        rExp                           1.000000
      * Coulomb:
        alpha                          2.000000
        third order                    shell-resolved
        anisotropic                    true
        a3                             3.000000
        a5                             4.000000
        cn-shift                       1.200000
        cn-exp                         4.000000
        max-rad                        5.000000

q/qsh data taken from xtbrestart
CAMM data taken from xtbrestart

          ...................................................
          :                      SETUP                      :
          :.................................................:
          :  # basis functions                1610          :
          :  # atomic orbitals                1610          :
          :  # shells                          930          :
          :  # electrons                      1740          :
          :  max. iterations                   250          :
          :  Hamiltonian                  GFN2-xTB          :
          :  restarted?                       true          :
          :  GBSA solvation                  false          :
          :  PC potential                    false          :
          :  electronic temp.          300.0000000     K    :
          :  accuracy                    1.0000000          :
          :  -> integral cutoff          0.2500000E+02      :
          :  -> integral neglect         0.1000000E-07      :
          :  -> SCF convergence          0.1000000E-05 Eh   :
          :  -> wf. convergence          0.1000000E-03 e    :
          :  Broyden damping             0.4000000          :
          :  net charge                          0          :
          :  unpaired electrons                  0          :
          ...................................................

 iter      E             dE          RMSdq      gap      omega  full diag
   1   -990.5781349 -0.990578E+03  0.105E-04    2.35       0.0  T
   2   -990.5781349 -0.169496E-08  0.685E-05    2.35      60.1  T
   3   -990.5781349 -0.142381E-08  0.416E-05    2.35      98.9  T

   *** convergence criteria satisfied after 3 iterations ***

         #    Occupation            Energy/Eh            Energy/eV
      -------------------------------------------------------------
         1        2.0000           -0.7281886             -19.8150
       ...           ...                  ...                  ...
       864        2.0000           -0.3708604             -10.0916
       865        2.0000           -0.3699871             -10.0679
       866        2.0000           -0.3691530             -10.0452
       867        2.0000           -0.3683266             -10.0227
       868        2.0000           -0.3681571             -10.0181
       869        2.0000           -0.3673309              -9.9956
       870        2.0000           -0.3629817              -9.8772 (HOMO)
       871                         -0.2765341              -7.5249 (LUMO)
       872                         -0.2720323              -7.4024
       873                         -0.2719286              -7.3996
       874                         -0.2666232              -7.2552
       875                         -0.2662084              -7.2439
       ...                                ...                  ...
      1610                          0.8980995              24.4385
      -------------------------------------------------------------
                  HL-Gap            0.0864476 Eh            2.3524 eV
             Fermi-level           -0.3197579 Eh           -8.7011 eV

 SCC (total)                   0 d,  0 h,  0 min, 10.630 sec
 SCC setup                      ...        0 min,  0.037 sec (  0.348%)
 Dispersion                     ...        0 min,  0.106 sec (  0.997%)
 classical contributions        ...        0 min,  0.014 sec (  0.132%)
 integral evaluation            ...        0 min,  0.764 sec (  7.187%)
 iterations                     ...        0 min,  4.483 sec ( 42.173%)
 molecular gradient             ...        0 min,  5.042 sec ( 47.432%)
 printout                       ...        0 min,  0.184 sec (  1.731%)

         :::::::::::::::::::::::::::::::::::::::::::::::::::::
         ::                     SUMMARY                     ::
         :::::::::::::::::::::::::::::::::::::::::::::::::::::
         :: total energy            -968.590209441966 Eh    ::
         :: gradient norm              2.948359545555 Eh/a0 ::
         :: HOMO-LUMO gap              2.352358254409 eV    ::
         ::.................................................::
         :: SCC energy              -990.504424202494 Eh    ::
         :: -> isotropic ES            1.458452142212 Eh    ::
         :: -> anisotropic ES         -0.002422420835 Eh    ::
         :: -> anisotropic XC          0.184350610401 Eh    ::
         :: -> dispersion             -0.924526221386 Eh    ::
         :: repulsion energy          21.914214760528 Eh    ::
         :: add. restraining           0.000000000000 Eh    ::
         :: total charge              -0.000000000000 e     ::
         :::::::::::::::::::::::::::::::::::::::::::::::::::::


Property printout bound to 'properties.out'
#
# Number of atoms
#
       590
#
# The current total energy in Eh
#
   -968.590209441966
#
# The current gradient in Eh/bohr
#
      -0.125037429028
       0.054824800806
       0.085868248286
       0.061656406741
      -0.117621221769
       0.033634552206
      -0.071278859977
       0.138391298232
      -0.039581650122
       0.006929037885
       0.005409008749
      -0.016749851848
       0.081546574638
       0.075903057795
       0.031794526347
      -0.108073254204
       0.030328729137
      -0.034591959716
      -0.004751971732
      -0.003428772831
      -0.003463943376
      -0.003903146721
       0.019186578525
       0.016178104546
       0.002803983358
      -0.006137399777
      -0.005154181439
      -0.056433692770
       0.073276650423
       0.061179523335
       0.105047795952
      -0.036884981526
       0.027190544287
      -0.033027583317
      -0.037143040930
      -0.102286976620
       0.002431568975
       0.010364252979
      -0.015981176104
       0.000744995147
      -0.019096856239
       0.016507636552
       0.004993267135
      -0.018058915940
      -0.007962422963
       0.085153903636
       0.113658095443
       0.000003392916
      -0.096571687039
      -0.128094250517
       0.001173910058
       0.111730405939
       0.001679415875
      -0.084888635138
      -0.130399376069
      -0.010679568530
       0.095556392138
       0.001857861251
       0.015627615278
       0.009326091863
      -0.080504764970
      -0.113457173164
       0.000279520929
       0.092452366579
       0.132529635358
      -0.000524784228
      -0.113021093796
      -0.010811241144
       0.083602835562
       0.126095342437
       0.006442474760
      -0.098858924443
       0.071823393553
       0.003608817515
      -0.075667192129
       0.010604120190
       0.107890975519
       0.068963886536
       0.022916985000
      -0.107424602504
       0.073390995498
      -0.117515917876
      -0.009533685014
      -0.060193999543
       0.064752392042
      -0.012497146301
      -0.189937088247
      -0.148397754301
       0.273345178987
       0.115862031763
      -0.001642637402
       0.001908298041
       0.005400171810
       0.000482580469
       0.012356624548
      -0.008972637695
      -0.005749855328
      -0.013750571207
       0.022027975625
       0.081794723708
      -0.240798563422
       0.062509993346
       0.001587959066
       0.000302146154
       0.004929043556
       0.002255718730
      -0.007663896583
      -0.005438353910
       0.012067550056
       0.002751385267
      -0.009502860617
      -0.096539754139
      -0.014561760693
      -0.029153783606
       0.080821858638
      -0.076027807831
      -0.039469070347
       0.048054832897
       0.102716015137
       0.026505340365
      -0.026574881089
      -0.016420675120
      -0.070169716687
      -0.054074785724
       0.084889199439
       0.057003907249
       0.080210372439
      -0.044447469539
       0.068682073286
      -0.000373598682
       0.072833425872
      -0.045092840556
      -0.053794008124
      -0.028646356612
       0.096229773605
       0.055380921475
      -0.092869440332
      -0.044903976050
       0.099531467430
       0.026760754249
      -0.016140625211
      -0.076793201841
       0.070602034495
       0.052089475494
      -0.055056677894
      -0.089523803835
      -0.048023727020
       0.003916529742
       0.005562570243
      -0.010534571757
      -0.062067197409
       0.122287663599
      -0.032630156449
       0.072266601730
      -0.138358850091
       0.037053671536
      -0.003917088336
      -0.008013180842
       0.011040542138
       0.106809661675
      -0.048712076353
      -0.072614473689
      -0.113183927555
       0.044570489660
       0.071602645514
       0.128631757277
      -0.052953150585
      -0.081930719624
       0.011685157388
      -0.111689104696
       0.016037871226
      -0.003818984234
       0.002171362044
      -0.003591708656
       0.002117374248
       0.002167968967
       0.000381142684
       0.096165991295
       0.014655862371
       0.029395109841
      -0.081330582772
       0.075946289253
       0.039226961808
      -0.048199294041
      -0.102509256528
      -0.026567527293
       0.026451216933
       0.016593602678
       0.070120316563
       0.054663017881
      -0.084828193150
      -0.056925266913
      -0.080270618697
       0.044518401921
      -0.068930910832
       0.000303393137
      -0.072650022548
       0.044807493808
       0.053459934057
       0.028570300556
      -0.096405982693
      -0.055720501539
       0.092985452846
       0.044533479338
      -0.099807922023
      -0.025219612074
       0.014349036886
       0.076057559836
      -0.070638995588
      -0.051662646294
       0.055270130162
       0.089114307750
       0.048254709561
       0.003764013548
      -0.007899879437
       0.020286666518
       0.061832633744
      -0.122779589497
       0.032261985450
      -0.072303704013
       0.138376937511
      -0.036186502489
       0.004199473875
       0.008324000430
      -0.010916694344
      -0.107533612237
       0.048806816774
       0.072456149239
       0.113499869919
      -0.045122130901
      -0.072094830246
      -0.128292042701
       0.052890963447
       0.081604507841
      -0.012055386553
       0.111503334296
      -0.016960423528
      -0.000616854669
      -0.004270223825
       0.002775394195
      -0.005120133829
       0.000104115314
      -0.007372608534
       0.125191603605
      -0.054215241018
      -0.085498817639
      -0.062527819449
       0.119081581168
      -0.033041866124
       0.072232063235
      -0.138794545327
       0.038108113023
      -0.007049041196
      -0.003063375501
       0.013993194306
      -0.082049193795
      -0.075763689321
      -0.031172158714
       0.108267275412
      -0.030248521085
       0.034845204214
       0.002258184324
       0.008252806987
       0.005226350776
       0.004341713386
      -0.017557692691
      -0.014986538989
      -0.003043910803
       0.006954670608
       0.004545116843
       0.056117230422
      -0.073243453205
      -0.061310559303
      -0.104982856475
       0.036786188145
      -0.027038460712
       0.032645175001
       0.037020561861
       0.102356205348
      -0.002295069311
      -0.013563463432
       0.014784166331
      -0.002231885132
       0.027481160499
      -0.017976036638
      -0.004479983611
       0.018897330807
       0.008419273125
      -0.085871555391
      -0.113106838895
       0.001224887641
       0.095934279294
       0.127764733243
      -0.000430558186
      -0.111897838188
      -0.002132632479
       0.085821948353
       0.129492961913
       0.009897510211
      -0.095992740131
      -0.003160169816
      -0.014212711406
      -0.008483133132
       0.080883298994
       0.114887029253
      -0.000743411808
      -0.092048738772
      -0.132017632310
       0.000944163717
       0.113249561356
       0.010729411860
      -0.084274684389
      -0.125895796030
      -0.006547821684
       0.099055470076
      -0.072905953075
      -0.003734710241
       0.076674474864
      -0.010017331813
      -0.107555102706
      -0.068594180369
      -0.023913590567
       0.107267546118
      -0.074413773418
       0.118040704373
       0.007909294016
       0.059153960867
      -0.061667653920
       0.014876684890
       0.185880594158
       0.149643727466
      -0.273713926907
      -0.116888189322
       0.001714678408
      -0.004245886881
      -0.003808889163
      -0.000748877202
      -0.014337976807
       0.009587019226
       0.004123567023
       0.014997164355
      -0.022086041351
      -0.084534794153
       0.235693375882
      -0.057226598838
      -0.000231447618
      -0.003511017427
      -0.007231056760
      -0.001808599007
       0.002145808560
       0.003525394542
      -0.010219459994
      -0.003928382590
       0.008126419395
       0.096676790381
       0.014166930910
       0.029928490024
      -0.080778663220
       0.076095497345
       0.039594486779
      -0.047770362298
      -0.103485722024
      -0.025701723487
       0.026564769883
       0.016525249767
       0.068904468135
       0.054814065832
      -0.086758612901
      -0.056017407229
      -0.082470615872
       0.045359055828
      -0.068425510272
       0.000320539108
      -0.072060971738
       0.045085367388
       0.055885534982
       0.029607861859
      -0.095969004451
      -0.055181863338
       0.092454888199
       0.045472371034
      -0.098275631126
      -0.025725880600
       0.014767983269
       0.077303986510
      -0.071031092283
      -0.052079301927
       0.054515079571
       0.089562088756
       0.048595839076
      -0.006009907023
      -0.007020013003
       0.013898868059
       0.062610190599
      -0.121490790186
       0.032540535693
      -0.071991025024
       0.138469057888
      -0.037566874969
       0.003069378462
       0.006584204714
      -0.008987947351
      -0.106590358699
       0.049276472036
       0.072699429403
       0.113801294308
      -0.044156460717
      -0.072024278400
      -0.128258676874
       0.052176323289
       0.082137766108
      -0.011463920831
       0.111945665250
      -0.015829134954
       0.005165153556
      -0.000313398196
       0.001575486843
      -0.001678285728
      -0.001575127225
      -0.002915030120
       0.124989902495
      -0.055067335898
      -0.085842954785
      -0.061232368540
       0.118142952989
      -0.033806662723
       0.070964745253
      -0.138491994523
       0.039462535544
      -0.007148238345
      -0.006817173157
       0.018714394312
      -0.081095198384
      -0.075661075583
      -0.031162274938
       0.107939765813
      -0.030466537171
       0.034731704819
       0.003589596934
      -0.001506136738
       0.000269159379
       0.004193311902
      -0.018087312848
      -0.015432213779
      -0.002715218308
       0.006326417333
       0.005037145937
       0.056877722719
      -0.072969472078
      -0.061374484282
      -0.104992333314
       0.036375916451
      -0.026357613171
       0.032841327995
       0.037076069294
       0.102343022518
      -0.002158007889
      -0.012223388720
       0.015835054343
      -0.001964067756
       0.028265380281
      -0.020836747852
      -0.004631980905
       0.018278976785
       0.007935657284
      -0.085268974775
      -0.113168740159
       0.000950348052
       0.096504741434
       0.128255684069
      -0.001178051793
      -0.111485393528
      -0.003435714660
       0.086058205409
       0.130020924729
       0.011700186166
      -0.096447623351
      -0.003582798101
      -0.010454818409
      -0.006699274074
       0.081084849079
       0.113838130187
      -0.001546258740
      -0.092821460965
      -0.132181570770
       0.001395746023
       0.113428700510
       0.011556186317
      -0.083770872334
      -0.126107627642
      -0.006515905500
       0.098783661546
      -0.072727276375
      -0.003493352899
       0.076277816871
      -0.010436700904
      -0.108029800603
      -0.068676922743
      -0.022915675476
       0.107798838359
      -0.073466478219
       0.117797803485
       0.009408239332
       0.058883484089
      -0.062432766622
       0.014362398988
       0.185615900756
       0.149272161494
      -0.272832068973
      -0.117439602727
       0.002386021728
       0.002169846576
      -0.006693186748
      -0.000458280074
      -0.013126048743
       0.009791676786
       0.005584604731
       0.014802507403
      -0.022441247999
      -0.083699385328
       0.234688545159
      -0.055488473626
      -0.000675744632
       0.000829946667
      -0.002970159558
      -0.001144082090
       0.002603639563
       0.006452054667
      -0.009971053069
      -0.006997886084
       0.006745567495
      -0.098803583761
       0.025707161589
       0.015340751552
       0.076988138968
       0.070581744232
      -0.051966718729
       0.055231626080
      -0.089616386598
       0.047918036924
      -0.002289748498
       0.000554601694
      -0.002575444125
      -0.003634761077
       0.011250359887
      -0.006972709542
       0.081159155784
      -0.114299184015
      -0.001338350525
      -0.092578733843
       0.132140549041
       0.001218311318
      -0.073493045239
       0.003729115489
       0.076841002322
      -0.010191007480
       0.107637245465
      -0.068674158608
      -0.023870825740
      -0.107404471431
      -0.074332563498
       0.118181297342
      -0.008213712957
       0.059282638897
      -0.009168650298
       0.006488802732
       0.006328161367
      -0.007001163911
       0.006699157428
       0.018786533369
      -0.128010455599
      -0.052130985064
       0.081861072708
      -0.081039657967
       0.075612406478
      -0.030984755338
       0.107769575573
       0.030346275475
       0.034682173398
      -0.011130099836
      -0.111840288072
      -0.016000531987
       0.004158623147
       0.000291868855
       0.001167021327
       0.004215456846
       0.017318311152
      -0.015539689406
      -0.002639918183
      -0.006250041894
       0.004628242879
       0.056832520050
       0.072695521970
      -0.061374612907
      -0.105088535976
      -0.036080731685
      -0.026337074011
       0.032803374351
      -0.036898258239
       0.102547274552
      -0.001725142260
       0.013502356827
       0.014831528759
      -0.002995859840
      -0.030403687071
      -0.018181840331
      -0.004520917612
      -0.019053598077
       0.008348958994
      -0.085305734455
       0.112540949259
       0.001381665307
       0.096457439131
      -0.129092604829
      -0.000669540504
      -0.112152801304
       0.003295095801
       0.086089585198
       0.113604941284
      -0.011236080323
      -0.084149705821
      -0.126012047951
       0.006499522338
       0.098788766672
      -0.062357729037
      -0.014684248342
       0.185628644933
       0.149235598827
       0.272858163474
      -0.117211562424
       0.001642434133
      -0.001660511428
      -0.006787393559
      -0.000005303479
       0.013531994053
       0.008645320611
       0.005199728732
      -0.015424278849
      -0.021533239332
      -0.083550207537
      -0.234126842507
      -0.055936681417
      -0.000769478968
       0.000016954685
      -0.003729546227
      -0.000666461951
      -0.000436273707
       0.004334450382
       0.096605070392
      -0.014041095665
       0.029675133882
      -0.081109900304
      -0.076000038668
       0.039675764564
      -0.047731170779
       0.103359467338
      -0.025656441714
       0.026365739785
      -0.016257677253
       0.068860559798
       0.055146423139
       0.086606047293
      -0.056089791028
      -0.082355616431
      -0.045314411613
      -0.068463334220
       0.000205679467
       0.072366648440
       0.044878008428
       0.055912473967
      -0.029784526883
      -0.095655147752
      -0.055041072161
      -0.092765232149
       0.044984130902
      -0.004792752124
       0.008176571642
       0.013222293142
       0.062286251280
       0.121024251777
       0.032181703106
      -0.072052187122
      -0.138580754441
      -0.036964055524
       0.002786633245
      -0.005976452153
      -0.008163869892
      -0.107115669303
      -0.049430116856
       0.072758845774
       0.124973962313
       0.054867943869
      -0.085426879156
      -0.061509365754
      -0.118063353420
      -0.034158986684
       0.072133440893
       0.138891795159
       0.039819601103
       0.114187147445
       0.044220600667
      -0.072097785938
       0.129494668092
      -0.010342593413
      -0.096074768697
       0.004469498006
      -0.000018198200
       0.001677034925
      -0.099361660909
       0.025053351783
       0.013529064945
       0.076663132470
       0.070801639958
      -0.051562974489
       0.054798304007
      -0.089088059819
       0.048355868333
      -0.006434071281
       0.000148506339
      -0.010107833418
      -0.001541312615
       0.015079337516
      -0.008596676501
       0.081856758889
      -0.114224969224
      -0.000946888522
      -0.092139127449
       0.132102642304
       0.001021640602
      -0.071899183910
       0.003516512086
       0.076045584811
      -0.009716901631
       0.107109386074
      -0.067305352621
      -0.023963789863
      -0.107855425661
      -0.074201259082
       0.117633839174
      -0.007261125747
       0.060235871081
      -0.011437650086
       0.003904632891
       0.007785902701
      -0.007333534220
       0.004415079796
       0.015822004556
      -0.128250294239
      -0.052187475809
       0.082402301809
      -0.081712646107
       0.075696455404
      -0.030977830408
       0.108376859537
       0.030491860729
       0.034903875949
      -0.011988251734
      -0.111783722067
      -0.016793905464
       0.000473369970
      -0.003179178992
       0.003851752146
       0.004646305802
       0.016864346043
      -0.015753579718
      -0.003013984114
      -0.005520804877
       0.004681188231
       0.056484544384
       0.073162110527
      -0.061287458799
      -0.104998010745
      -0.036364890777
      -0.026337839956
       0.032449630685
      -0.036788356719
       0.102360026645
      -0.001849144739
       0.014133791077
       0.013204060657
      -0.005175446437
      -0.022326884850
      -0.011516138431
      -0.005000587224
      -0.019768579063
       0.009217105311
      -0.085344245562
       0.113812941582
       0.000938277828
       0.095700762045
      -0.127823856609
      -0.000406818807
      -0.111698897001
       0.002134930905
       0.085266417217
       0.113501359981
      -0.010637361109
      -0.083802602566
      -0.126080426826
       0.006031625574
       0.098997103296
      -0.065664355150
      -0.013026235493
       0.190261180038
       0.148182884804
       0.273482937691
      -0.115743416962
       0.002672340318
       0.000771108410
      -0.005168360285
      -0.000042084782
       0.014614834441
       0.007764621470
       0.005207177715
      -0.016002005841
      -0.020342880239
      -0.080207296264
      -0.240138888497
      -0.063452760236
       0.001151096148
       0.002117844631
      -0.005642224096
       0.000574582925
      -0.004680246305
       0.002582292747
       0.096077663835
      -0.014194828474
       0.030407442875
      -0.081131873333
      -0.076430980014
       0.039389525432
      -0.047865474284
       0.103603068552
      -0.025968364114
       0.026462430453
      -0.016429705348
       0.068905652212
       0.055321822811
       0.086713550695
      -0.055921686600
      -0.082548841996
      -0.045444046974
      -0.068536332813
       0.000051020294
       0.072268690659
       0.044710738796
       0.055855188738
      -0.029910077972
      -0.096049275213
      -0.055281488332
      -0.092572448567
       0.045302617719
       0.004597783725
       0.006938686192
       0.023885868591
       0.062634972738
       0.122765090465
       0.032671818880
      -0.071839260143
      -0.138413883228
      -0.037461943316
       0.004111451027
      -0.007797849178
      -0.010485081737
      -0.107701073100
      -0.049119815929
       0.072621907176
       0.125138514624
       0.054295338179
      -0.085500459418
      -0.062321991269
      -0.119462529759
      -0.033366186757
       0.071934650436
       0.138743452542
       0.038078795034
       0.113932280479
       0.045060899952
      -0.072486028379
       0.129221514020
      -0.009038789541
      -0.095712218966
      -0.001085616952
       0.003980649740
       0.001358578340
      -0.096336986604
       0.014736679813
      -0.029584613398
       0.081011011440
       0.076185048353
      -0.039688996506
       0.047876037272
      -0.103631779510
       0.025531834595
      -0.026398910102
       0.016073826728
      -0.069629095802
      -0.054906687042
      -0.084812461312
       0.056940573358
       0.080119391024
       0.045488991523
       0.069049079260
      -0.000606909237
      -0.072747069278
      -0.044928239725
      -0.053767501525
       0.028681675530
       0.096327023057
       0.055435401722
       0.092904234488
      -0.044803243889
       0.000773440298
      -0.006454157916
      -0.016016783966
      -0.062680897631
      -0.122525116712
      -0.032575855632
       0.071885738422
       0.138443828494
       0.037528971781
      -0.004035843788
       0.007626316294
       0.010153957615
       0.107293032318
       0.048987912761
      -0.072613924279
      -0.125084771833
      -0.054743612952
       0.085800717781
       0.062014315587
       0.118120743045
       0.033854822098
      -0.071215575091
      -0.138269278001
      -0.039649776056
      -0.113678406339
      -0.044890057154
       0.072257289789
      -0.129891002626
       0.011508908256
       0.096851879106
      -0.001926723769
      -0.003087115374
      -0.002606760176
       0.006465830037
      -0.005453658352
      -0.016453257804
       0.128266720721
       0.052286195406
      -0.082352131834
       0.081502321924
      -0.076134628442
       0.031631824013
      -0.108567389193
      -0.031103857920
      -0.034194257091
       0.012080394357
       0.111965915675
       0.016727727294
      -0.003786303449
       0.001934638345
      -0.002607063871
      -0.004096291327
      -0.018161025190
       0.015894103692
       0.002901417707
       0.005984644119
      -0.004700605211
      -0.056849159997
      -0.073148112941
       0.061348614288
       0.104893523372
       0.036392427217
       0.026146639422
      -0.032101813244
       0.037165627008
      -0.102499791748
       0.002006011608
      -0.012711089104
      -0.015215221033
       0.004700462629
       0.031184331320
       0.020210751937
       0.004503181512
       0.018534172995
      -0.007860705793
       0.085302950421
      -0.113017931097
      -0.001197090262
      -0.096375270346
       0.128546449916
       0.001216735542
       0.111119476259
      -0.003192376203
      -0.085932674578
      -0.113283764496
       0.011079980979
       0.083978006589
       0.126012255577
      -0.006520964665
      -0.098757337174
       0.063347978068
       0.014530309708
      -0.185516776952
      -0.148440890860
      -0.273477695028
       0.117618726614
      -0.001967165513
      -0.000395150133
       0.005505555649
       0.000355947932
      -0.013161749076
      -0.009557594460
      -0.006060935997
       0.014746574175
       0.022225017561
       0.081827384081
       0.233356205536
       0.054556012024
       0.000796062521
      -0.000175498108
       0.004116536936
      -0.000341130677
       0.000615753184
      -0.004677736653
       0.072775536153
      -0.003670255288
      -0.076575372117
       0.010235148024
      -0.107707972118
       0.068740264243
       0.022869364232
       0.107418430464
       0.073673958015
      -0.117776343148
       0.009164352052
      -0.058595799778
       0.010036194786
      -0.005004026537
      -0.007595234683
       0.003474860591
      -0.012590100272
       0.007894591314
      -0.080848860887
       0.114257327299
       0.001245334219
       0.092655668990
      -0.132158171367
      -0.001432665018
       0.099444069807
      -0.026142505877
      -0.015198762001
      -0.076674321257
      -0.070643356849
       0.052137700586
      -0.055047675507
       0.089616818803
      -0.047748930222
       0.002185921052
      -0.001388355765
       0.004821626549
      -0.096258555845
       0.014055478306
      -0.030188174943
       0.081096092276
       0.076287629016
      -0.039105612198
       0.048071332936
      -0.102683738440
       0.027103263399
      -0.026690994255
       0.016749818397
      -0.069437985038
      -0.054507693851
      -0.086710948186
       0.055880832727
       0.082689344610
       0.044403530238
       0.068144783133
       0.000164925298
      -0.072283776460
      -0.044735930643
      -0.055939991353
       0.029839029072
       0.096132017549
       0.055402174649
       0.092567940040
      -0.045455010831
      -0.002641620609
      -0.007527633236
      -0.023141284838
      -0.062356378673
      -0.123235040689
      -0.032399701666
       0.072226443316
       0.138425780691
       0.036908226631
      -0.004069717365
       0.008294150387
       0.010995173906
       0.107609377747
       0.048957856800
      -0.072537404956
      -0.125119998690
      -0.054224129844
       0.085513021288
       0.062484503995
       0.119196869471
       0.033154973550
      -0.072124738767
      -0.138880748918
      -0.038062581595
      -0.113343840216
      -0.045208721178
       0.072164297912
      -0.129413324250
       0.009187686393
       0.095214992460
       0.000088897265
      -0.003619510820
      -0.001649285522
       0.007285991746
      -0.003645545967
      -0.014607745218
       0.128593340727
       0.052958723970
      -0.082080842699
       0.082142956989
      -0.075880890471
       0.031310358411
      -0.108461328611
      -0.030417522329
      -0.034825347407
       0.012284047059
       0.111628968792
       0.016875593956
      -0.001486165810
       0.005424123826
      -0.003941352939
      -0.004261094503
      -0.018403577703
       0.015475546765
       0.003130442350
       0.006252729220
      -0.004956261781
      -0.056282282293
      -0.073491657690
       0.061276015042
       0.104910084931
       0.036936438802
       0.026977239020
      -0.032462070568
       0.036989493648
      -0.102423438338
       0.002131115837
      -0.012263591052
      -0.014198505436
       0.002739946093
       0.023912616221
       0.013807530006
       0.004880475878
       0.018784556044
      -0.008257077257
       0.085721716503
      -0.113588802013
      -0.000755319140
      -0.095935182604
       0.127655490412
       0.000481245935
       0.111857601544
      -0.001501693211
      -0.084915941391
      -0.113455189807
       0.010315194757
       0.084145108036
       0.125946660040
      -0.006335779870
      -0.098632299484
       0.064738721499
       0.013200236466
      -0.190118708022
      -0.148659711016
      -0.273471123013
       0.115749732327
      -0.002232823722
      -0.002735945842
       0.004214405521
       0.000414761066
      -0.013687255477
      -0.008411872001
      -0.005011811243
       0.014497840127
       0.021542338534
       0.081911111308
       0.238414787231
       0.062492913718
      -0.000383023197
      -0.002165615358
       0.006071967971
       0.001928753992
       0.003592596452
      -0.002140743427
       0.072413553481
      -0.003620417851
      -0.076334383787
       0.010528881117
      -0.107718461391
       0.068865891037
       0.023887533416
       0.107344662023
       0.074218299679
      -0.117836215154
       0.008241091205
      -0.060663560554
       0.011072470724
      -0.001892230811
      -0.009566785797
       0.002086146511
      -0.016689632752
       0.009917320169
      -0.080803512708
       0.114067478886
      -0.000022934287
       0.092360130698
      -0.132381762450
      -0.000305452899
       0.099170873607
      -0.024948067462
      -0.013533370131
      -0.076566529964
      -0.070886988742
       0.051633387370
      -0.054858601900
       0.089166258340
      -0.048484662136
       0.005349521103
      -0.000180443731
       0.009264056229
      -0.099063762350
       0.024896760575
       0.013747530808
       0.076330081149
       0.070978302503
      -0.051634773272
       0.054922956501
      -0.088986849973
       0.048925212115
      -0.004560948560
       0.000297423606
      -0.007837797018
      -0.003263348538
       0.013112644495
      -0.008139492157
       0.080747885084
      -0.114346035286
      -0.001132634505
      -0.092678332720
       0.132181808197
       0.001492232233
      -0.072564183762
       0.003457821673
       0.076312378802
      -0.010304141767
       0.108018675962
      -0.068548797295
      -0.023004771540
      -0.107768100089
      -0.073550520542
       0.117808837607
      -0.009121887343
       0.058872755455
      -0.010388368088
       0.004417769468
       0.008126843125
      -0.007458721324
       0.003278801471
       0.014367304035
      -0.128385238853
      -0.053097863464
       0.081974748691
      -0.082332141839
       0.075746921364
      -0.031435611180
       0.108523895401
       0.030454951895
       0.034941434184
      -0.012370049743
      -0.111654091290
      -0.016885877086
       0.001282231896
      -0.006085776085
       0.004339438502
       0.004332299658
       0.018071094057
      -0.015066592738
      -0.003171241620
      -0.007145464327
       0.005009898083
       0.056458755422
       0.073616318806
      -0.061466341435
      -0.104843679308
      -0.036921110735
      -0.026844936389
       0.032349177129
      -0.037075055491
       0.102325139553
      -0.002282434081
       0.012517130949
       0.015044130451
      -0.002335188214
      -0.030244428207
      -0.019849867922
      -0.004510653598
      -0.018372574050
       0.007935375459
      -0.085788600122
       0.113752528502
       0.000791898430
       0.095967937968
      -0.127211777799
      -0.000911041191
      -0.111180152962
       0.002391322353
       0.085826435775
       0.113483261290
      -0.011205750081
      -0.084249821875
      -0.126007011021
       0.006632558385
       0.098816780369
      -0.062400701307
      -0.014631843460
       0.185962753852
       0.149333521162
       0.273345916243
      -0.117330262540
       0.002751409709
       0.003197017662
      -0.004054341836
      -0.000957629635
       0.014017552778
       0.010031703822
       0.004854517110
      -0.014522490072
      -0.022719060313
      -0.084091347147
      -0.233480466430
      -0.055664253115
       0.000294879144
       0.002225103583
      -0.006335400691
      -0.001600013248
      -0.000877966980
       0.004278480841
       0.096245431642
      -0.014582208192
       0.029313786414
      -0.081232980014
      -0.075883362875
       0.039173391813
      -0.048163623222
       0.102415359734
      -0.026739940722
       0.026554804516
      -0.016619870581
       0.070133278405
       0.054013412191
       0.084805375823
      -0.056871221844
      -0.080308972904
      -0.044307348750
      -0.068980131482
       0.000617029729
       0.072129045585
       0.044846463667
       0.053283406577
      -0.028208101987
      -0.096550769791
      -0.055880767502
      -0.092872829520
       0.044716910404
       0.002733363372
       0.008110326558
       0.021055230658
       0.061879414914
       0.122831424942
       0.032223027399
      -0.072206525681
      -0.138419245769
      -0.036090637096
       0.004096113781
      -0.008026624947
      -0.010606424590
      -0.107020090957
      -0.048732297731
       0.072254746454
       0.125186712750
       0.054488727562
      -0.086035499849
      -0.062248735227
      -0.119247982392
      -0.032841012492
       0.071001067550
       0.138518236386
       0.037794630349
       0.113443625703
       0.045045033047
      -0.072368201698
       0.130110813830
      -0.011291737082
      -0.096529677732
       0.000328493898
       0.004251556184
       0.002289801601
      -0.099361563106
       0.025309816522
       0.013638956220
       0.076829536755
       0.070814805885
      -0.051500020055
       0.054768145917
      -0.088981504949
       0.048318766108
      -0.006224447675
       0.000661165908
      -0.009662281289
      -0.003187746273
       0.014655190635
      -0.008377997741
       0.080064462404
      -0.114407381516
      -0.000723482705
      -0.092801457548
       0.132544663065
       0.001003770142
      -0.073231851692
       0.003679327847
       0.076385880593
      -0.009379759347
       0.107262146160
      -0.067283635294
      -0.023225650101
      -0.108085649536
      -0.073753402038
       0.117771147758
      -0.007957774891
       0.058314092660
      -0.011265923586
       0.002896245689
       0.007612207504
      -0.007619557064
       0.004776695260
       0.016344792435
      -0.128068637136
      -0.052170697133
       0.082413346572
      -0.081882867885
       0.075634620033
      -0.030931158589
       0.108392950208
       0.030471656579
       0.034933549975
      -0.011983499294
      -0.111846546954
      -0.016679597906
      -0.000278854338
      -0.001373620939
       0.006047025151
       0.004605379700
       0.017938998730
      -0.016439866743
      -0.003177308056
      -0.006475786100
       0.005701133614
       0.056747253201
       0.073139558441
      -0.061371184548
      -0.104896609999
      -0.036500643781
      -0.026110310566
       0.032248398815
      -0.037029366365
       0.102295256277
      -0.002169138171
       0.013022473925
       0.014507164969
      -0.004162495863
      -0.030509485257
      -0.018960846351
      -0.004935634453
      -0.018728658988
       0.007981571924
      -0.086364654773
       0.113515241438
       0.000825214508
       0.096068727902
      -0.127215546960
      -0.000687627496
      -0.111594447886
       0.002381494907
       0.084831602655
       0.113422191559
      -0.010603127397
      -0.084645917519
      -0.125604823180
       0.006409511992
       0.098627932213
      -0.062910244951
      -0.014609533899
       0.185642030058
       0.148867112482
       0.273476306772
      -0.117487311269
       0.003174873350
       0.000342610205
      -0.005992815597
      -0.001119388390
       0.014943692079
       0.010564830212
       0.005740559800
      -0.016077791572
      -0.024036530205
      -0.082689063744
      -0.233881856071
      -0.055530716615
       0.001368423029
       0.000730751746
      -0.006503222675
      -0.000189388031
      -0.000851217329
       0.004323428256
       0.095820162425
      -0.014131979209
       0.030118560204
      -0.081109616590
      -0.076277893367
       0.039271383748
      -0.047950199683
       0.103432926325
      -0.026108797925
       0.026684334825
      -0.016342043302
       0.068955526976
       0.054772999538
       0.086552319387
      -0.055897261396
      -0.082513296539
      -0.045299724620
      -0.068449341044
      -0.000044416491
       0.072374798843
       0.044592367885
       0.055933253103
      -0.029883547128
      -0.096032511997
      -0.055245063455
      -0.092581225961
       0.045233479611
       0.004637483109
       0.006562053764
       0.023211440880
       0.062537440274
       0.122819107135
       0.032698758506
      -0.071778013675
      -0.138368317979
      -0.037403519970
       0.004174624154
      -0.008156489326
      -0.010878728823
      -0.107214333836
      -0.048658623276
       0.072201713395
       0.125223979642
       0.054405012715
      -0.086030782070
      -0.062428052101
      -0.119429411341
      -0.033375500689
       0.070847586911
       0.138410351756
       0.038050032043
       0.113804464675
       0.044909006713
      -0.072715468595
       0.130322537244
      -0.010885755475
      -0.096276722634
      -0.000686603354
       0.004627903475
       0.001607268406
       0.095846505754
       0.014276002564
       0.030363009355
      -0.081115678660
       0.076350982919
       0.039284578727
      -0.047988719318
      -0.103558637379
      -0.025995484007
       0.026480818979
       0.016457605396
       0.068908347556
       0.055366038979
      -0.086716606052
      -0.055969754863
      -0.082568792781
       0.045474628616
      -0.068464342340
      -0.000066899814
      -0.072282669477
       0.044666845600
       0.055853237184
       0.029930956691
      -0.096006852549
      -0.055249159652
       0.092521086486
       0.045260738356
      -0.099422186609
      -0.025060499145
       0.013584330901
       0.076728418124
      -0.070754214011
      -0.051554238582
       0.054771541793
       0.088994962077
       0.048339415191
       0.005286108741
      -0.006434339313
       0.024248084182
       0.062508683665
      -0.122870882214
       0.032650940486
      -0.071740226311
       0.138402341686
      -0.037414889870
       0.004139867013
       0.008235342122
      -0.010741517157
      -0.107867689665
       0.048807566577
       0.072341499905
       0.113837758700
      -0.045031123257
      -0.072691962940
      -0.128109682797
       0.052212258016
       0.082408941378
      -0.011899221064
       0.111825208389
      -0.016738488203
      -0.001268017985
      -0.004625898307
       0.001420403389
      -0.006728720055
      -0.000393893514
      -0.010471776038
       0.125267735166
      -0.054170900202
      -0.085514748568
      -0.062639053038
       0.119223480108
      -0.033695850691
       0.071997138150
      -0.138757965271
       0.038380231322
      -0.007401399056
      -0.004652118690
       0.016209308677
      -0.081737763507
      -0.075717765941
      -0.030915288119
       0.108340526371
      -0.030434686737
       0.034848978386
       0.000200187906
       0.002648380701
       0.006239698886
       0.004559076822
      -0.017754172894
      -0.016308311973
      -0.003096531046
       0.006196332943
       0.005282442482
       0.056520242935
      -0.073040137352
      -0.061212371184
      -0.105024558459
       0.036508811940
      -0.026363697944
       0.032554843567
       0.037013573824
       0.102267578672
      -0.002389869051
      -0.013631463957
       0.014628642722
      -0.003803616663
       0.026351709877
      -0.018433073658
      -0.004899750965
       0.018962203688
       0.008177013997
      -0.086489941586
      -0.112637098471
       0.001443046291
       0.096022907439
       0.127761348417
      -0.000278670363
      -0.112316235377
      -0.002410636466
       0.084750089083
       0.129815344055
       0.009675837114
      -0.095890427192
      -0.003278960607
      -0.015395603157
      -0.008720235325
       0.080292701633
       0.114782292480
      -0.000146608854
      -0.092345350830
      -0.132145611787
       0.000340242698
       0.113293412969
       0.010059255363
      -0.084566838614
      -0.125576343687
      -0.006412009344
       0.098677777203
      -0.073860388182
      -0.003846680570
       0.077079551506
      -0.009172800202
      -0.106953158523
      -0.067333582876
      -0.024149125182
       0.107782436607
      -0.074619895940
       0.118062043290
       0.006824205464
       0.058624346787
      -0.062357987822
       0.014582725595
       0.185463777002
       0.148905676880
      -0.273943699522
      -0.117257605188
       0.002634365744
      -0.000982189601
      -0.005827954767
      -0.001020217806
      -0.014983861593
       0.010652366307
       0.005292017810
       0.016469607425
      -0.023849151244
      -0.082917969317
       0.236693871928
      -0.056794202316
       0.001377855663
      -0.001355616178
      -0.006749336066
      -0.000512979390
       0.003400334306
       0.004725471661
      -0.010494082228
      -0.002547387585
       0.007425451964
#
# The atomic numbers and current coordinates in Bohr
#
   1    43.1604586   78.2515582   70.4834824
   6    40.9351014   77.4668192   73.4514114
   1    41.7179003   75.9522729   73.8786291
   6    38.9098143   78.3135525   74.8371188
   6    38.5105083   78.1422179   79.5038103
   1    40.2053923   77.7467094   80.0772988
   6    37.6370641   74.4034597   76.8150444
   6    37.2368841   73.1829289   79.2814312
   6    36.6134102   74.4489745   81.4421953
   6    36.6226606   77.2620023   81.4728170
   1    34.9508353   77.9036572   81.0791941
   1    37.1057468   77.8748834   83.1305524
   6    36.0792887   72.5608925   83.2039850
   6    35.1891918   72.8889134   85.8347778
   6    37.6461960   68.5464293   78.2078870
   6    39.7229025   68.6366743   76.6438006
   1    40.7705083   70.0484197   76.6553953
   6    40.2505162   66.6355898   75.0621736
   1    41.6497094   66.6975842   74.0034944
   6    38.7077731   64.5479224   75.0526601
   6    36.6681156   64.4359663   76.6854224
   1    35.6584754   62.9988476   76.7208009
   6    36.1250986   66.4255413   78.2509953
   1    34.7426214   66.3496832   79.3340530
   6    40.9217217   62.7181726   71.6203511
   1    40.8886785   61.2410323   70.5667259
   1    40.6240250   64.1916509   70.6053747
   1    42.5458029   62.8523630   72.4188944
   1    34.7622314   70.9037852   88.8475988
   1    35.9698693   69.5618815   86.7605647
   7    38.0788104   76.9428751   77.0261262
   7    37.0677592   70.6579004   79.7862437
   7    36.3856213   70.2561140   82.2104141
   7    35.2648507   70.8365593   87.2826205
   8    37.4232773   73.3254898   74.8011457
   8    34.3898587   74.9365590   86.5242125
   8    39.0181325   62.5230342   73.4930332
   6    40.0031552   83.0659320   66.6183071
   1    38.6913632   84.2312694   67.1537414
   1    39.1889076   81.4925303   66.1488731
   6    41.2647939   84.1161744   64.3817320
   1    42.0952652   82.7533443   63.4761613
   1    39.9986925   84.8329027   63.2680525
   6    43.1479586   86.0754061   64.9861394
   1    44.0126330   86.5776391   63.4494045
   1    42.2907910   87.5507154   65.6583309
   6    45.0428286   85.1630162   66.8650647
   1    46.2779685   84.1344849   65.9853590
   1    45.9258289   86.6168760   67.5461751
   6    44.0044486   83.6555326   69.0264234
   6    38.6438562   81.9521257   72.1739206
   1    37.8654845   83.4700726   71.7470002
   6    40.6982403   81.1171634   70.8084295
   6    41.8089041   78.8508372   71.4339451
   6    37.7380442   80.5416882   74.1714679
   1    36.3338648   81.0975450   75.0707953
   1    38.3859465   79.9622892   79.3221611
   7    41.6991226   82.5880259   68.7609360
   8    45.2417766   83.3881981   70.9710516
   6    29.6544240   73.8818698   82.0308459
   1    30.9662160   72.7165324   81.4954117
   1    30.4686716   75.4552715   82.5002799
   6    28.3927852   72.8316274   84.2674211
   1    27.5623139   74.1944575   85.1729917
   1    29.6588866   72.1148991   85.3811005
   6    26.5096205   70.8723957   83.6630136
   1    25.6449462   70.3701627   85.1997486
   1    27.3667881   69.3970864   82.9908222
   6    24.6147505   71.7847856   81.7840883
   1    23.3796107   72.8133168   82.6637940
   1    23.7317502   70.3309258   81.1029779
   6    25.6531306   73.2922692   79.6227296
   6    31.0137230   74.9956760   76.4752325
   1    31.7920947   73.4777292   76.9021529
   6    28.9593388   75.8306383   77.8407236
   6    27.8486750   78.0969646   77.2152080
   6    31.9195350   76.4061136   74.4776852
   1    33.3237144   75.8502568   73.5783578
   1    31.2716326   76.9855126   69.3269920
   7    27.9584566   74.3597758   79.8882170
   8    24.4158025   73.5596036   77.6781014
   1    26.4971206   78.6962436   78.1656706
   6    28.7224777   79.4809826   75.1977417
   1    27.9396789   80.9955289   74.7705240
   6    30.7477649   78.6342492   73.8120343
   6    31.1470708   78.8055839   69.1453427
   1    29.4521869   79.2010924   68.5718543
   6    32.0205151   82.5443421   71.8341086
   6    32.4206950   83.7648729   69.3677219
   6    33.0441690   82.4988273   67.2069578
   6    33.0349185   79.6857995   67.1763361
   1    34.7067438   79.0441446   67.5699590
   1    32.5518323   79.0729183   65.5186007
   6    33.5782904   84.3869093   65.4451680
   6    34.4683873   84.0588884   62.8143753
   6    32.0113831   88.4013725   70.4412660
   6    29.9346766   88.3111275   72.0053525
   1    28.8870709   86.8993820   71.9937578
   6    29.4070629   90.3122120   73.5869794
   1    28.0078697   90.2502176   74.6456587
   6    30.9498061   92.3998793   73.5964930
   6    32.9894635   92.5118354   71.9637307
   1    33.9991037   93.9489541   71.9283522
   6    33.5324806   90.5222605   70.3981578
   1    34.9149578   90.5981186   69.3151001
   6    28.7358575   94.2296291   77.0288019
   1    28.7689007   95.7067695   78.0824271
   1    29.0335542   92.7561508   78.0437783
   1    27.1117762   94.0954388   76.2302587
   1    34.8953477   86.0440165   59.8015543
   1    33.6877099   87.3859202   61.8885884
   7    31.5787687   80.0049267   71.6230268
   7    32.5898199   86.2899014   68.8629093
   7    33.2719579   86.6916878   66.4387390
   7    34.3927284   86.1112425   61.3665326
   8    32.2343019   83.6223119   73.8480073
   8    35.2677204   82.0112428   62.1249405
   8    30.6394466   94.4247676   75.1561199
   6    48.9689368   73.8818698   82.0308459
   1    50.2807288   72.7165324   81.4954117
   1    49.7831843   75.4552715   82.5002799
   6    47.7072980   72.8316274   84.2674211
   1    46.8768267   74.1944575   85.1729917
   1    48.9733994   72.1148991   85.3811005
   6    45.8241333   70.8723957   83.6630136
   1    44.9594590   70.3701627   85.1997486
   1    46.6813009   69.3970864   82.9908222
   6    43.9292633   71.7847856   81.7840883
   1    42.6941234   72.8133168   82.6637940
   1    43.0462630   70.3309258   81.1029779
   6    44.9676434   73.2922692   79.6227296
   6    50.3282357   74.9956760   76.4752325
   1    51.1066075   73.4777292   76.9021529
   6    48.2738516   75.8306383   77.8407236
   6    47.1631878   78.0969646   77.2152080
   6    51.2340477   76.4061136   74.4776852
   1    52.6382271   75.8502568   73.5783578
   1    50.5861454   76.9855126   69.3269920
   7    47.2729693   74.3597758   79.8882170
   8    43.7303153   73.5596036   77.6781014
   1    45.8116334   78.6962436   78.1656706
   6    48.0369905   79.4809826   75.1977417
   1    47.2541916   80.9955289   74.7705240
   6    50.0622776   78.6342492   73.8120343
   6    50.4615836   78.8055839   69.1453427
   1    48.7666997   79.2010924   68.5718543
   6    51.3350279   82.5443421   71.8341086
   6    51.7352078   83.7648729   69.3677219
   6    52.3586817   82.4988273   67.2069578
   6    52.3494313   79.6857995   67.1763361
   1    54.0212566   79.0441446   67.5699590
   1    51.8663451   79.0729183   65.5186007
   6    52.8928032   84.3869093   65.4451680
   6    53.7829001   84.0588884   62.8143753
   6    51.3258959   88.4013725   70.4412660
   6    49.2491894   88.3111275   72.0053525
   1    48.2015836   86.8993820   71.9937578
   6    48.7215757   90.3122120   73.5869794
   1    47.3223825   90.2502176   74.6456587
   6    50.2643189   92.3998793   73.5964930
   6    52.3039763   92.5118354   71.9637307
   1    53.3136165   93.9489541   71.9283522
   6    52.8469933   90.5222605   70.3981578
   1    54.2294705   90.5981186   69.3151001
   6    48.0503703   94.2296291   77.0288019
   1    48.0834134   95.7067695   78.0824271
   1    48.3480669   92.7561508   78.0437783
   1    46.4262890   94.0954388   76.2302587
   1    54.2098605   86.0440165   59.8015543
   1    53.0022227   87.3859202   61.8885884
   7    50.8932815   80.0049267   71.6230268
   7    51.9043327   86.2899014   68.8629093
   7    52.5864706   86.6916878   66.4387390
   7    53.7072412   86.1112425   61.3665326
   8    51.5488147   83.6223119   73.8480073
   8    54.5822332   82.0112428   62.1249405
   8    49.9539594   94.4247676   75.1561199
   6    33.5119597   72.0840327   96.6490036
   1    32.2768199   71.0555015   97.5287093
   1    32.6289594   73.5378925   95.9678932
   8    33.3130117   70.3092147   92.5430167
   6    39.8470153   51.4689389   88.4614083
   6    41.8866727   51.3569829   86.8286460
   1    42.8963129   49.9198642   86.7932675
   6    37.6330667   49.6391892   91.8937172
   1    37.6661099   48.1620488   92.9473424
   1    37.9307634   51.1126674   92.9086936
   1    36.0089854   49.7733795   91.0951740
   8    39.5366558   49.4440507   90.0210352
   6    39.6449741   65.2345691   88.6769496
   1    42.2209236   68.0185615   88.4432731
   6    40.0442800   65.0632344   84.0102580
   1    38.3493961   64.6677259   83.4367696
   1    40.1688418   66.8833057   84.1919073
   6    40.9177243   61.3244762   86.6990239
   6    41.3179042   60.1039454   84.2326372
   6    41.9413782   61.3699910   82.0718731
   6    41.9321277   64.1830188   82.0412514
   1    43.6039530   64.8246737   82.4348743
   1    41.4490415   64.7959000   80.3835160
   6    42.4754996   59.4819090   80.3100833
   6    43.3655965   59.8099299   77.6792906
   6    40.9085923   55.4674458   85.3061814
   6    38.8318858   55.5576908   86.8702678
   1    37.7842801   56.9694362   86.8586731
   6    38.3042721   53.5566063   88.4518947
   6    42.4296897   53.3465578   85.2630731
   1    43.8121670   53.2706997   84.1800154
   1    43.7925569   57.8248018   74.6664696
   1    42.5849191   56.4828981   76.7535037
   7    40.4759779   63.8638916   86.4879421
   7    41.4870291   57.5789169   83.7278247
   7    42.1691670   57.1771305   81.3036543
   7    43.2899376   57.7575758   76.2314479
   8    41.1315111   60.2465064   88.7129227
   8    44.1649296   61.8575755   76.9898558
   6    38.5516332   69.9869485   96.8957612
   1    39.8634252   71.1522859   96.3603270
   1    39.3658807   68.4135468   97.3651953
   6    37.2899944   71.0371909   99.1323364
   1    36.4595231   69.6743608  100.0379070
   1    38.5560958   71.7539192  100.2460158
   6    35.4068297   72.9964226   98.5279289
   1    34.5421554   73.4986556  100.0646639
   1    36.2639973   74.4717319   97.8557375
   6    34.5503398   70.5765491   94.4876450
   6    39.9109322   68.8731423   91.3401478
   1    40.6893039   70.3910891   91.7670682
   6    37.8565480   68.0381800   92.7056389
   6    36.7458842   65.7718537   92.0801233
   1    35.3943298   65.1725747   93.0305859
   6    37.6196869   64.3878357   90.0626570
   1    36.8368881   62.8732894   89.6354393
   6    40.8167442   67.4627047   89.3426005
   1    36.9050789   53.6186007   89.5105740
   7    36.8556657   69.5090425   94.7531323
   6    33.5119597   98.2419997   96.6490036
   1    32.2768199   97.2134684   97.5287093
   1    32.6289594   99.6958595   95.9678932
   8    33.3130117   96.4671816   92.5430167
   6    39.8470153   77.6269059   88.4614083
   6    41.8866727   77.5149498   86.8286460
   1    42.8963129   76.0778311   86.7932675
   6    37.6330667   75.7971561   91.8937172
   1    37.6661099   74.3200157   92.9473424
   1    37.9307634   77.2706344   92.9086936
   1    36.0089854   75.9313465   91.0951740
   8    39.5366558   75.6020177   90.0210352
   6    39.6449741   91.3925360   88.6769496
   1    42.2209236   94.1765285   88.4432731
   6    40.0442800   91.2212013   84.0102580
   1    38.3493961   90.8256929   83.4367696
   1    40.1688418   93.0412727   84.1919073
   6    40.9177243   87.4824431   86.6990239
   6    41.3179042   86.2619124   84.2326372
   6    41.9413782   87.5279580   82.0718731
   6    41.9321277   90.3409858   82.0412514
   1    43.6039530   90.9826407   82.4348743
   1    41.4490415   90.9538669   80.3835160
   6    42.4754996   85.6398759   80.3100833
   6    43.3655965   85.9678968   77.6792906
   6    40.9085923   81.6254128   85.3061814
   6    38.8318858   81.7156577   86.8702678
   1    37.7842801   83.1274032   86.8586731
   6    38.3042721   79.7145733   88.4518947
   6    42.4296897   79.5045248   85.2630731
   1    43.8121670   79.4286667   84.1800154
   1    43.7925569   83.9827687   74.6664696
   1    42.5849191   82.6408650   76.7535037
   7    40.4759779   90.0218586   86.4879421
   7    41.4870291   83.7368838   83.7278247
   7    42.1691670   83.3350975   81.3036543
   7    43.2899376   83.9155428   76.2314479
   8    41.1315111   86.4044733   88.7129227
   8    44.1649296   88.0155425   76.9898558
   6    38.5516332   96.1449155   96.8957612
   1    39.8634252   97.3102529   96.3603270
   1    39.3658807   94.5715138   97.3651953
   6    37.2899944   97.1951578   99.1323364
   1    36.4595231   95.8323278  100.0379070
   1    38.5560958   97.9118861  100.2460158
   6    35.4068297   99.1543896   98.5279289
   1    34.5421554   99.6566225  100.0646639
   1    36.2639973  100.6296989   97.8557375
   6    34.5503398   96.7345160   94.4876450
   6    39.9109322   95.0311092   91.3401478
   1    40.6893039   96.5490561   91.7670682
   6    37.8565480   94.1961469   92.7056389
   6    36.7458842   91.9298207   92.0801233
   1    35.3943298   91.3305416   93.0305859
   6    37.6196869   90.5458026   90.0626570
   1    36.8368881   89.0312564   89.6354393
   6    40.8167442   93.6206717   89.3426005
   1    36.9050789   79.7765676   89.5105740
   7    36.8556657   95.6670094   94.7531323
   6    29.5858516   60.8028863   81.4832224
   1    28.2740596   59.6375489   82.0186567
   1    28.7716040   62.3762880   81.0137884
   6    30.8474903   59.7526439   79.2466473
   1    31.6779616   61.1154740   78.3410766
   1    29.5813889   59.0359156   78.1329678
   6    32.7306550   57.7934122   79.8510547
   1    33.5953294   57.2911792   78.3143198
   1    31.8734874   56.3181029   80.5232462
   6    33.5871450   60.2132857   83.8913387
   6    28.2265526   61.9166925   87.0388359
   1    27.4481809   60.3987457   86.6119155
   6    30.2809367   62.7516548   85.6733448
   6    31.3916005   65.0179811   86.2988604
   1    32.7431550   65.6172601   85.3483977
   6    30.5177979   66.4019991   88.3163267
   1    31.3005967   67.9165454   88.7435444
   6    27.3207406   63.3271301   89.0363832
   1    31.2324059   77.1712341   88.8684097
   7    31.2818190   61.2807924   83.6258513
   6    28.4925107   65.5552658   89.7020341
   1    25.9165612   62.7712733   89.9357106
   6    28.0932047   65.7266004   94.3687256
   1    29.7880887   66.1221089   94.9422141
   1    27.9686430   63.9065291   94.1870764
   6    27.2197605   69.4653586   91.6799598
   6    26.8195805   70.6858894   94.1463465
   6    26.1961066   69.4198438   96.3071106
   6    26.2053570   66.6068160   96.3377323
   1    24.5335318   65.9651611   95.9441094
   1    26.6884432   65.9939348   97.9954677
   6    25.6619852   71.3079258   98.0689003
   6    24.7718883   70.9799049  100.6996931
   6    27.2288924   75.3223890   93.0728023
   6    29.3055989   75.2321440   91.5087159
   1    30.3532047   73.8203986   91.5203106
   6    29.8332126   77.2332285   89.9270889
   6    25.7077950   77.4432770   93.1159106
   1    24.3253178   77.5191351   94.1989683
   1    24.3449278   72.9650330  103.7125141
   1    25.5525657   74.3069367  101.6254800
   7    27.6615068   66.9259432   91.8910415
   7    26.6504556   73.2109179   94.6511590
   7    25.9683177   73.6127043   97.0753294
   7    24.8475471   73.0322590  102.1475358
   8    27.0059737   70.5433285   89.6660610
   8    23.9725551   68.9322593  101.3891278
   6    30.5044181   81.1506457   86.4852664
   1    30.4713749   82.6277860   85.4316413
   1    30.2067214   79.6771674   85.4702900
   1    32.1284993   81.0164553   87.2838097
   8    28.6008289   81.3457841   88.3579485
   6    28.2904695   79.3208959   89.9175754
   6    26.2508121   79.4328520   91.5503377
   1    25.2411719   80.8699707   91.5857162
   6    34.6255250   58.7058021   81.7299800
   1    35.8606649   59.7343334   80.8502743
   1    35.5085253   57.2519423   82.4110905
   8    34.8244730   60.4806202   85.8359669
   6    50.4204587   60.8028863   51.7533918
   1    49.1086667   59.6375489   52.2888261
   1    49.6062112   62.3762880   51.2839578
   6    51.6820975   59.7526439   49.5168167
   1    52.5125688   61.1154740   48.6112460
   1    50.4159961   59.0359156   48.4031372
   6    53.5652622   57.7934122   50.1212241
   1    54.4299365   57.2911792   48.5844892
   1    52.7080946   56.3181029   50.7934156
   6    54.4217521   60.2132857   54.1615081
   6    49.0611598   61.9166925   57.3090053
   1    48.2827881   60.3987457   56.8820849
   6    51.1155439   62.7516548   55.9435142
   6    52.2262077   65.0179811   56.5690298
   1    53.5777621   65.6172601   55.6185671
   6    51.3524050   66.4019991   58.5864961
   1    52.1352039   67.9165454   59.0137138
   6    48.1553477   63.3271301   59.3065526
   1    52.0670130   77.1712341   59.1385791
   7    52.1164262   61.2807924   53.8960207
   6    49.3271179   65.5552658   59.9722035
   1    46.7511684   62.7712733   60.2058800
   6    48.9278119   65.7266004   64.6388950
   1    50.6226958   66.1221089   65.2123834
   1    48.8032501   63.9065291   64.4572458
   6    48.0543676   69.4653586   61.9501291
   6    47.6541877   70.6858894   64.4165159
   6    47.0307138   69.4198438   66.5772800
   6    47.0399642   66.6068160   66.6079017
   1    45.3681389   65.9651611   66.2142787
   1    47.5230504   65.9939348   68.2656371
   6    46.4965923   71.3079258   68.3390697
   6    45.6064954   70.9799049   70.9698625
   6    48.0634996   75.3223890   63.3429717
   6    50.1402061   75.2321440   61.7788853
   1    51.1878119   73.8203986   61.7904799
   6    50.6678198   77.2332285   60.1972583
   6    46.5424022   77.4432770   63.3860800
   1    45.1599250   77.5191351   64.4691377
   1    45.1795350   72.9650330   73.9826835
   1    46.3871728   74.3069367   71.8956494
   7    48.4961140   66.9259432   62.1612109
   7    47.4850628   73.2109179   64.9213284
   7    46.8029249   73.6127043   67.3454988
   7    45.6821543   73.0322590   72.4177052
   8    47.8405808   70.5433285   59.9362304
   8    44.8071623   68.9322593   71.6592972
   6    51.3390252   81.1506457   56.7554358
   1    51.3059821   82.6277860   55.7018106
   1    51.0413286   79.6771674   55.7404594
   1    52.9631065   81.0164553   57.5539791
   8    49.4354361   81.3457841   58.6281179
   6    49.1250767   79.3208959   60.1877448
   6    47.0854192   79.4328520   61.8205071
   1    46.0757790   80.8699707   61.8558856
   6    55.4601322   58.7058021   52.0001494
   1    56.6952721   59.7343334   51.1204437
   1    56.3431325   57.2519423   52.6812598
   8    55.6590802   60.4806202   56.1061363
   6    35.0320541   72.0840327   66.9191730
   1    33.7969142   71.0555015   67.7988787
   1    34.1490538   73.5378925   66.2380626
   8    34.8331061   70.3092147   62.8131861
   6    41.3671097   51.4689389   58.7315777
   6    43.4067671   51.3569829   57.0988154
   1    44.4164073   49.9198642   57.0634369
   6    39.1531611   49.6391892   62.1638866
   1    39.1862042   48.1620488   63.2175118
   1    39.4508577   51.1126674   63.1788630
   1    37.5290798   49.7733795   61.3653434
   8    41.0567502   49.4440507   60.2912046
   6    41.1650685   65.2345691   58.9471189
   1    43.7410179   68.0185615   58.7134425
   6    41.5643744   65.0632344   54.2804274
   1    39.8694905   64.6677259   53.7069390
   1    41.6889362   66.8833057   54.4620767
   6    42.4378187   61.3244762   56.9691933
   6    42.8379986   60.1039454   54.5028066
   6    43.4614726   61.3699910   52.3420425
   6    43.4522221   64.1830188   52.3114207
   1    45.1240474   64.8246737   52.7050437
   1    42.9691359   64.7959000   50.6536854
   6    43.9955940   59.4819090   50.5802527
   6    44.8856909   59.8099299   47.9494600
   6    42.4286867   55.4674458   55.5763507
   6    40.3519802   55.5576908   57.1404371
   1    39.3043745   56.9694362   57.1288425
   6    39.8243665   53.5566063   58.7220641
   6    43.9497841   53.3465578   55.5332425
   1    45.3322613   53.2706997   54.4501848
   1    45.3126513   57.8248018   44.9366390
   1    44.1050135   56.4828981   47.0236731
   7    41.9960723   63.8638916   56.7581115
   7    43.0071235   57.5789169   53.9979940
   7    43.6892614   57.1771305   51.5738237
   7    44.8100320   57.7575758   46.5016173
   8    42.6516055   60.2465064   58.9830920
   8    45.6850240   61.8575755   47.2600252
   6    40.0717276   69.9869485   67.1659306
   1    41.3835196   71.1522859   66.6304964
   1    40.8859751   68.4135468   67.6353646
   6    38.8100888   71.0371909   69.4025058
   1    37.9796175   69.6743608   70.3080764
   1    40.0761902   71.7539192   70.5161852
   6    36.9269241   72.9964226   68.7980983
   1    36.0622498   73.4986556   70.3348333
   1    37.7840917   74.4717319   68.1259069
   6    36.0704342   70.5765491   64.7578143
   6    41.4310265   68.8731423   61.6103172
   1    42.2093983   70.3910891   62.0372375
   6    39.3766424   68.0381800   62.9758083
   6    38.2659786   65.7718537   62.3502927
   1    36.9144242   65.1725747   63.3007553
   6    39.1397813   64.3878357   60.3328263
   1    38.3569824   62.8732894   59.9056087
   6    42.3368386   67.4627047   59.6127699
   1    38.4251733   53.6186007   59.7807434
   7    38.3757601   69.5090425   65.0233017
   6    35.0320541   98.2419997   66.9191730
   1    33.7969142   97.2134684   67.7988787
   1    34.1490538   99.6958595   66.2380626
   8    34.8331061   96.4671816   62.8131861
   6    41.3671097   77.6269059   58.7315777
   6    43.4067671   77.5149498   57.0988154
   1    44.4164073   76.0778311   57.0634369
   6    39.1531611   75.7971561   62.1638866
   1    39.1862042   74.3200157   63.2175118
   1    39.4508577   77.2706344   63.1788630
   1    37.5290798   75.9313465   61.3653434
   8    41.0567502   75.6020177   60.2912046
   6    41.1650685   91.3925360   58.9471189
   1    43.7410179   94.1765285   58.7134425
   6    41.5643744   91.2212013   54.2804274
   1    39.8694905   90.8256929   53.7069390
   1    41.6889362   93.0412727   54.4620767
   6    42.4378187   87.4824431   56.9691933
   6    42.8379986   86.2619124   54.5028066
   6    43.4614726   87.5279580   52.3420425
   6    43.4522221   90.3409858   52.3114207
   1    45.1240474   90.9826407   52.7050437
   1    42.9691359   90.9538669   50.6536854
   6    43.9955940   85.6398759   50.5802527
   6    44.8856909   85.9678968   47.9494600
   6    42.4286867   81.6254128   55.5763507
   6    40.3519802   81.7156577   57.1404371
   1    39.3043745   83.1274032   57.1288425
   6    39.8243665   79.7145733   58.7220641
   6    43.9497841   79.5045248   55.5332425
   1    45.3322613   79.4286667   54.4501848
   1    45.3126513   83.9827687   44.9366390
   1    44.1050135   82.6408650   47.0236731
   7    41.9960723   90.0218586   56.7581115
   7    43.0071235   83.7368838   53.9979940
   7    43.6892614   83.3350975   51.5738237
   7    44.8100320   83.9155428   46.5016173
   8    42.6516055   86.4044733   58.9830920
   8    45.6850240   88.0155425   47.2600252
   6    40.0717276   96.1449155   67.1659306
   1    41.3835196   97.3102529   66.6304964
   1    40.8859751   94.5715138   67.6353646
   6    38.8100888   97.1951578   69.4025058
   1    37.9796175   95.8323278   70.3080764
   1    40.0761902   97.9118861   70.5161852
   6    36.9269241   99.1543896   68.7980983
   1    36.0622498   99.6566225   70.3348333
   1    37.7840917  100.6296989   68.1259069
   6    36.0704342   96.7345160   64.7578143
   6    41.4310265   95.0311092   61.6103172
   1    42.2093983   96.5490561   62.0372375
   6    39.3766424   94.1961469   62.9758083
   6    38.2659786   91.9298207   62.3502927
   1    36.9144242   91.3305416   63.3007553
   6    39.1397813   90.5458026   60.3328263
   1    38.3569824   89.0312564   59.9056087
   6    42.3368386   93.6206717   59.6127699
   1    38.4251733   79.7765676   59.7807434
   7    38.3757601   95.6670094   65.0233017
   6    29.6544240   47.7239028   82.0308459
   1    30.9662160   46.5585654   81.4954117
   1    30.4686716   49.2973045   82.5002799
   6    28.3927852   46.6736605   84.2674211
   1    27.5623139   48.0364905   85.1729917
   1    29.6588866   45.9569322   85.3811005
   6    26.5096205   44.7144287   83.6630136
   1    25.6449462   44.2121958   85.1997486
   1    27.3667881   43.2391194   82.9908222
   6    24.6147505   45.6268186   81.7840883
   1    23.3796107   46.6553499   82.6637940
   1    23.7317502   44.1729588   81.1029779
   6    25.6531306   47.1343022   79.6227296
   6    31.0137230   48.8377091   76.4752325
   1    31.7920947   47.3197622   76.9021529
   6    28.9593388   49.6726714   77.8407236
   6    27.8486750   51.9389976   77.2152080
   6    31.9195350   50.2481466   74.4776852
   1    33.3237144   49.6922898   73.5783578
   1    31.2716326   50.8275456   69.3269920
   7    27.9584566   48.2018089   79.8882170
   8    24.4158025   47.4016367   77.6781014
   1    26.4971206   52.5382766   78.1656706
   6    28.7224777   53.3230157   75.1977417
   1    27.9396789   54.8375619   74.7705240
   6    30.7477649   52.4762823   73.8120343
   6    31.1470708   52.6476170   69.1453427
   1    29.4521869   53.0431254   68.5718543
   6    32.0205151   56.3863752   71.8341086
   6    32.4206950   57.6069059   69.3677219
   6    33.0441690   56.3408603   67.2069578
   6    33.0349185   53.5278325   67.1763361
   1    34.7067438   52.8861776   67.5699590
   1    32.5518323   52.9149514   65.5186007
   6    33.5782904   58.2289424   65.4451680
   6    34.4683873   57.9009214   62.8143753
   6    32.0113831   62.2434055   70.4412660
   6    29.9346766   62.1531606   72.0053525
   1    28.8870709   60.7414151   71.9937578
   6    29.4070629   64.1542450   73.5869794
   1    28.0078697   64.0922507   74.6456587
   6    30.9498061   66.2419124   73.5964930
   6    32.9894635   66.3538685   71.9637307
   1    33.9991037   67.7909872   71.9283522
   6    33.5324806   64.3642935   70.3981578
   1    34.9149578   64.4401516   69.3151001
   6    28.7358575   68.0716622   77.0288019
   1    28.7689007   69.5488026   78.0824271
   1    29.0335542   66.5981839   78.0437783
   1    27.1117762   67.9374718   76.2302587
   1    34.8953477   59.8860496   59.8015543
   1    33.6877099   61.2279533   61.8885884
   7    31.5787687   53.8469597   71.6230268
   7    32.5898199   60.1319345   68.8629093
   7    33.2719579   60.5337208   66.4387390
   7    34.3927284   59.9532755   61.3665326
   8    32.2343019   57.4643450   73.8480073
   8    35.2677204   55.8532758   62.1249405
   8    30.6394466   68.2668006   75.1561199

           -------------------------------------------------
          | TOTAL ENERGY             -968.590209441966 Eh   |
          | GRADIENT NORM               2.948359545555 Eh/ﾎｱ |
          | HOMO-LUMO GAP               2.352358254409 eV   |
           -------------------------------------------------

------------------------------------------------------------------------
 * finished run on 2026/10/03 at 18:00:12.233     
------------------------------------------------------------------------
 total:
 * wall-time:     0 d,  0 h,  0 min, 11.599 sec
 *  cpu-time:     0 d,  0 h,  0 min, 11.469 sec
 * ratio c/w:     0.989 speedup
 SCF:
 * wall-time:     0 d,  0 h,  0 min, 10.662 sec
 *  cpu-time:     0 d,  0 h,  0 min, 10.609 sec
 * ratio c/w:     0.995 speedup


-------------------------   --------------------
FINAL SINGLE POINT ENERGY      -968.590209441970
-------------------------   --------------------


-------------
DIPOLE MOMENT
-------------
                                X             Y             Z
Total Dipole Moment    :     -1.83500      -0.08900       6.82000
                        -----------------------------------------
Magnitude (a.u.)       :      7.06311
Magnitude (Debye)      :     17.95300


--------------------------------
SUGGESTED CITATIONS FOR THIS RUN
--------------------------------

Below you find a list of papers that are relevant to this ORCA run
We neither can nor want to force you to cite these papers, but we appreciate if you do
You receive ORCA, which is the product of decades of hard work by many enthusiastic individuals, for free
The only thing we kindly ask in return is that you cite our papers,
We deeply appreciate it, if you show your appreciation for ORCA by not just citing the generic ORCA reference.

Please note that relegating all ORCA citations to the supporting information does *not* help us.
SI sections are not indexed - citations you put there will not count into any citation statistics
But we need these citations in order to attract the funding resources that allow us to do what we are doing

Therefore, if you are a happy ORCA user, please consider citing a few of the papers listed below in the main body of your paper

In addition to the list printed below, the program has created the file .\Stage06_D2+D3+D1+D5+D7+D4_cluster_XTB2_SP.bibtex that contains the list in bibtex format
You can import this file easily into all common literature databanks and citation aid programs

It goes without saying that in many instances, there are alternative algorithms to achieve similar
results as the ones you have gotten from ORCA. It is, of course, also the case that in some instances
ORCA just re-implements algorithms worked out by others. We are fully aware of that and we are also
fully appreciative of our colleagues work. Hence this citation list should not be read as indicating
that the listed papers, which are focused on our own work, are the only ones worth citing. It simply
meant to make it easier for users to cite ORCA specific papers. It is not a substitute for doing your
own literature research and citing the relevant literature in a scientifically appropriate manner.

List of essential papers. We consider these as the minimum necessary citations

  1. Bannwarth, C.; Ehlert, S.; Grimme, S.
     GFN2-xTB窶尿n Accurate and Broadly Parametrized Self-Consistent Tight-Binding Quantum Chemical Method with Multipole Electrostatics and Density-Dependent Dispersion Contributions
     J. Chem. Theory Comput. 2019 15(3), 1652-1671
     doi.org/10.1021/acs.jctc.8b01176
  2. Neese, F.
     Software update: the ORCA program system, version 6.0
     WIRES Comput. Molec. Sci. 2025 15(1), e70019
     doi.org/10.1002/wcms.70019

List of papers to cite with high priority. The work reported in these papers was absolutely
necessary for this run to complete.
Our perspective: the developers of density functionals and basis sets usually get cited in chemistry papers
Good! But without the algorithms to do something with them, the functionals or basis sets would not do anything.
Hence, in our opinion, the algorithm design and method developments papers are equally worthy of getting cited

  1. Bannwarth, C.; Caldeweyher, E.; Ehlert, S.; Hansen, A.; Pracht, P.; Seibert, J.; Spicher, S.; Grimme, S.
     Extended tight-binding quantum chemistry methods
     WIRES Comput. Molec. Sci. 2020 11(2), e1493
     doi.org/10.1002/wcms.1493

List of suggested additional citations. These are papers that are important in the 'surrounding' of 
of this run, or papers that preceded the highly important papers. If you like your results we are grateful for a citation.

  1. Neese, F.
     The ORCA program system
     WIRES Comput. Molec. Sci. 2012 2(1), 73-78
     doi.org/10.1002/wcms.81
  2. Neese, F.
     Software update: the ORCA program system, version 4.0
     WIRES Comput. Molec. Sci. 2018 8(1), 1-6
     doi.org/10.1002/wcms.1327
  3. Neese, F.; Wennmohs, F.; Becker, U.; Riplinger, C.
     The ORCA quantum chemistry program package
     J. Chem. Phys. 2020 152(22), 224108
     doi.org/10.1063/5.0004608
  4. Neese, F.
     Software update: The ORCA program system窶之ersion 5.0
     WIRES Comput. Molec. Sci. 2022 12(1), e1606
     doi.org/10.1002/wcms.1606

List of optional additional citations

  1. Neese, F.
     Approximate second-order SCF convergence for spin unrestricted wavefunctions
     Chem. Phys. Lett. 2000 325(1-3), 93-98
     doi.org/10.1016/s0009-2614(00)00662-x

Timings for individual modules:

Sum of individual times          ...       11.670 sec (=   0.195 min)
XTB module                       ...       11.670 sec (=   0.195 min) 100.0 %
                             ****ORCA TERMINATED NORMALLY****
TOTAL RUN TIME: 0 days 0 hours 0 minutes 12 seconds 121 msec
