
                                 *****************
                                 * O   R   C   A *
                                 *****************

                                            #,                                       
                                            ###                                      
                                            ####                                     
                                            #####                                    
                                            ######                                   
                                           ########,                                 
                                     ,,################,,,,,                         
                               ,,#################################,,                 
                          ,,##########################################,,             
                       ,#########################################, ''#####,          
                    ,#############################################,,   '####,        
                  ,##################################################,,,,####,       
                ,###########''''           ''''###############################       
              ,#####''   ,,,,##########,,,,          '''####'''          '####       
            ,##' ,,,,###########################,,,                        '##       
           ' ,,###''''                  '''############,,,                           
         ,,##''                                '''############,,,,        ,,,,,,###''
      ,#''                                            '''#######################'''  
     '                                                          ''''####''''         
             ,#######,   #######,   ,#######,      ##                                
            ,#'     '#,  ##    ##  ,#'     '#,    #''#        ,####,    ,#,          
            ##       ##  ##   ,#'  ##            #'  '#       #'       ,# #          
            ##       ##  #######   ##           ,######,      #####,      #          
            '#,     ,#'  ##    ##  '#,     ,#' ,#      #,     #,   #      #          
             '#######'   ##     ##  '#######'  #'      '#     '####' #    #          



                #########################################################
                #                        -***-                          #
                #          Department of theory and spectroscopy        #
                #                                                       #
                #                      Frank Neese                      #
                #                                                       #
                #     Directorship, Architecture, Infrastructure        #
                #                    SHARK, DRIVERS                     #
                #        Core code/Algorithms in most modules           #
                #                                                       #
                #        Max Planck Institute fuer Kohlenforschung      #
                #                Kaiser Wilhelm Platz 1                 #
                #                 D-45470 Muelheim/Ruhr                 #
                #                      Germany                          #
                #                                                       #
                #                  All rights reserved                  #
                #                        -***-                          #
                #########################################################


                         Program Version 6.1.1  -  RELEASE   -


 With contributions from (in alphabetic order):
[Max-Planck-Institut fuer Kohlenforschung]                               
  Daniel Aravena         : Magnetic Suceptibility                        
  Michael Atanasov       : Ab Initio Ligand Field Theory (pilot matlab implementation)
  Alexander A. Auer      : GIAO ZORA, VPT2 properties, NMR spectrum      
  Ute Becker             : All parallelization in ORCA, NUMFREQ, NUMCALC 
  Giovanni Bistoni       : ED, misc. LED, open-shell LED, HFLD           
  Dmytro Bykov           : pre 5.0 version of the SCF Hessian            
  Marcos Casanova-Pﾃ｡ez   : Triplet and SCS-CIS(D). UHF-(DLPNO)-IP/EA/STEOM-CCSD. UHF-CVS-IP/STEOM-CCSD   
  Vijay G. Chilkuri      : MRCI spin determinant printing, contributions to CSF-ICE 
  Pauline Colinet        : FMM embedding                                 
  Dipayan Datta          : RHF DLPNO-CCSD density                        
  Achintya Kumar Dutta   : EOM-CC, STEOM-CC                              
  Nicolas Foglia         : Exact transition moments, OPA infrastructure, MCD improvements    
  Dmitry Ganyushin       : Spin-Orbit,Spin-Spin,Magnetic field MRCI      
  Miquel Garcia-Rates    : C-PCM and meta-GGA Hessian, CCSD/C-PCM, Gaussian charge scheme 
  Tiago L. C. Gouveia    : GS-ROHF, GS-ROCIS                             
  Yang Guo               : DLPNO-NEVPT2, F12-NEVPT2, CIM, IAO-localization        
  Andreas Hansen         : Spin unrestricted coupled pair/coupled cluster methods 
  Ingolf Harden          : AUTO-CI MPn and infrastructure                
  Benjamin Helmich-Paris : MC-RPA, TRAH-(SCF,CASSCF), AVAS, COSX integrals, SCF dyn. polar., MC-PDFT, srDFT 
  Lee Huntington         : MR-EOM, pCC                                   
  Robert Izsak           : Overlap fitted RIJCOSX, COSX-SCS-MP3, EOM     
  Riya Kayal             : Wick's Theorem for AUTO-CI, AUTO-CI UHF-CCSDT 
  Emily Kempfer          : AUTO-CI RHF CISDT and CCSDT, approximate NEVPT4
  Christian Kollmar      : KDIIS, OOCD, Brueckner-CCSD(T), CCSD density, CASPT2, CASPT2-K, improved NEVPT2 
  Axel Koslowski         : Symmetry handling                             
  Simone Kossmann        : meta-GGA functionals, TD-DFT gradient, OOMP2, (MP2 Hessian; deprecated post 5.0) 
  Lucas Lang             : DCDCAS, Hyperfine gauge corrections, ICE-SOC+SSC
  Marvin Lechner         : AUTO-CI (C++ implementation), FIC-MRCC        
  Spencer Leger          : CASSCF response                               
  Dagmar Lenk            : GEPOL surface, SMD, ORCA-2-JSON               
  Dimitrios Liakos       : Extrapolation schemes; Compound Job, Property file
  Dimitrios Manganas     : Further ROCIS development; embedding schemes. LFT, Crystal Embedding 
  Dimitrios Pantazis     : SARC Basis sets                               
  Anastasios Papadopoulos: AUTO-CI, single reference methods and gradients 
  Taras Petrenko         : pre 6.0 DFT Hessian and TD-DFT gradient,  ECA, NRVS 
  Petra Pikulova         : Analytic Raman intensities                    
  Peter Pinski           : DLPNO-MP2, DLPNO-MP2 Gradient                 
  Shashank Vittal Rao    : ES-AILFT, MagRelax                            
  Christoph Reimann      : Effective Core Potentials                     
  Marius Retegan         : Local ZFS, SOC                                
  Christoph Riplinger    : Optimizer, TS searches, QM/MM, DLPNO-CCSD(T), (RO)-DLPNO pert. Triples 
  Michael Roemelt        : Original ROCIS implementation, recursive CI coupling coefficients
  Masaaki Saitow         : Open-shell DLPNO-CCSD energy and density      
  Barbara Sandhoefer     : DKH picture change effects                    
  Yorick L. A. Schmerwitz: GMF and freeze-and-release deltaSCF, NEB S-IDPP initial path                    
  Kantharuban Sivalingam : CASSCF convergence/infrastructure, NEVPT2, NEVPT3, NEVPT4(SD), FIC-MRCI and CEPA variants
  Bernardo de Souza      : ESD, SOC TD-DFT                               
  Georgi L. Stoychev     : AutoAux, RI-MP2 NMR, DLPNO-MP2 response, X2C  
  Van Anh Tran           : RI-MP2 g-tensors                              
  Willem Van den Heuvel  : Paramagnetic NMR                              
  Zikuan Wang            : NOTCH, Electric field optimization            
  Frank Wennmohs         : Technical directorship and infrastructure     
  Hang Xu                : AUTO-CI-Response properties                   
                                                                         
[FACCTs GmbH]                                                            
  Markus Bursch, Nicolas Foglia, Miquel Garcia-Rates, Ingolf Harden, Hagen Neugebauer, Anastasios Papadopoulos, 
  Christoph Riplinger, Bernardo de Souza, Georgi L. Stoychev                                                    
                                                                 
  APM, various basis sets, CI-OPT, improved COSX, DLPNO-Multilevel,           
  DOCKER, DRACO, updates on ESD, Fragmentator, GOAT, IRC, LR-CPCM, L-BFGS, MBIS, meta-GGA TD-DFT gradient, ML-optimized integration grids, 
  MM, NACMEs, nearIR, NEB, NEB-TS, NL-DFT gradient (VV10), 2- and 3-layer-ONIOM, interface openCOSMO-RS, QMMM,   
  Crystal-QMMM, RESP, rigid body optimization, SF, symmetry and pop. for TD-DFT, various functionals, SOLVATOR                                   
                                                                         
[Other institutions]                                                     
  V. Asgeirsson          : NEB                                           
  Christoph Bannwarth    : sTDA-DFT, sTD-DFT, PBEh-3c, B97-3c, D3        
  Giovanni Bistoni       : ETS/NOCV, ADLD/ADEX, COVALED                  
  Martin Brehm           : Molecular dynamics                            
  Ronald Cardenas        : ETS/NOCV                                      
  Martina Colucci        : COVALED                                       
  Sebastian Ehlert       : rSCAN, r2SCAN, r2SCAN-3c, D4, dhf basis sets  
  Marvin Friede          : D4 for Fr, Ra, Ac-Lr                          
  Lars Goerigk           : TD-DFT with DH, B97 family of functionals     
  Stefan Grimme          : VdW corrections, initial TS optimization, DFT functionals, gCP, sTDA/sTD-DF 
  Waldemar Hujo          : DFT-NL                                        
  H. Jonsson             : NEB                                           
  Holger Kruse           : gCP                                           
  Marcel Mueller         : wB97X-3c, vDZP basis set                      
  Hagen Neugebauer       : wr2SCAN, Native XTB                           
  Gianluca Regni         : ADLD/ADEX                                     
  Tobias Risthaus        : pre 6.0 range-separated hybrid DFT and stability analysis
  Lukas Wittmann         : regularized MP2, r2SCAN double-hybrids, wr2SCAN        
                                                                         
We gratefully acknowledge several colleagues who have allowed us to      
interface, adapt or use parts of their codes:                            
  Ed Valeev, F. Pavosevic, A. Kumar             : LibInt (2-el integral package), F12 methods 
  Garnet Chan, S. Sharma, J. Yang, R. Olivares  : DMRG                   
  Ulf Ekstrom                                   : XCFun DFT Library      
  Mihaly Kallay                                 : mrcc  (arbitrary order and MRCC methods)
  Frank Weinhold                                : gennbo (NPA and NBO analysis)           
  Simon Mueller                                 : openCOSMO-RS                            
  Christopher J. Cramer and Donald G. Truhlar   : smd solvation model                     
  S Lehtola, MJT Oliveira, MAL Marques          : LibXC Library                           
  Liviu Ungur et al                             : ANISO software                          


 Your calculation uses the libint2 library for the computation of 2-el integrals
 For citations please refer to: http://libint.valeyev.net

 Your ORCA version has been built with support for libXC version: 7.0.0
 For citations please refer to: https://libxc.gitlab.io

 This ORCA versions uses:
   CBLAS   interface :  Fast vector & matrix operations
   LAPACKE interface :  Fast linear algebra routines
   Shared memory     :  Shared parallel matrices


  ***********************************
  * Starting time: Sat Oct  3 10:43:47 2026
  * Host name:     DESKTOP-2KDTO5M
  * Process ID:    1556
  * Working dir.:  C:\Users\naoki\Downloads\デスクトップ\data\Molecules\Calculations\Apixaban\CrystalFragment\ManyBody\FullShell
  ***********************************

NOTE: MaxCore=2000 MB was set to SCF,MP2,MDCI,CIPSI,MRCI,RASCI and CIS
      => If you want to overwrite this, your respective input block should be placed after the MaxCore statement
Your calculation utilizes the semiempirical GFN2-xTB method
Please cite in your paper:
Bannwarth, C.; Ehlert S.; Grimme, S. J. Chem. Theory Comput. 2019, 15, 1652.
   

================================================================================

================================================================================
                                        WARNINGS
                       Please study these warnings very carefully!
================================================================================


WARNING: Found dipole moment calculation with XTB calculation
  ===> : Switching off dipole moment calculation

Environment variable XTBEXE for xtb has been set!

================================================================================
                                       INPUT FILE
================================================================================
NAME = Stage03_D2+D3+D1_cluster_XTB2_SP.inp
|  1> # stage 3: A + shell of D2+D3+D1 (4 neighbours), XTB2 SP
|  2> 
|  3> ! XTB2
|  4> 
|  5> %pal
|  6>   nprocs 4
|  7> end
|  8> 
|  9> %maxcore 2000
| 10> 
| 11> * xyz 0 1
| 12> H     22.83953108    41.40894130    37.29825264
| 13> C     21.66192281    40.99367530    38.86881303
| 14> H     22.07616212    40.19221192    39.09488688
| 15> C     20.59018700    41.44174731    39.60209780
| 16> C     20.37888339    41.35108090    42.07160460
| 17> H     21.27577734    41.14178684    42.37508161
| 18> C     19.91667659    39.37261526    40.64877097
| 19> C     19.70491047    38.72673821    41.95392663
| 20> C     19.37498228    39.39670069    43.09735375
| 21> C     19.37987740    40.88529087    43.11355807
| 22> H     18.49518556    41.22484004    42.90526177
| 23> H     19.63551561    41.20961362    43.99079384
| 24> C     19.09233738    38.39757069    44.02965274
| 25> C     18.62131839    38.57115188    45.42180829
| 26> C     19.92150901    36.27320826    41.38583152
| 27> C     21.02045476    36.32096385    40.55815264
| 28> H     21.57482386    37.06802738    40.56428826
| 29> C     21.29965591    35.26203555    39.72119169
| 30> H     22.04007708    35.29484156    39.16096274
| 31> C     20.48327140    34.15728956    39.71615733
| 32> C     19.40393116    34.09804495    40.58017793
| 33> H     18.86965258    33.33755448    40.59889943
| 34> C     19.11657892    35.15088268    41.40864342
| 35> H     18.38500348    35.11074030    41.98177289
| 36> C     21.65484253    33.18902767    37.89985766
| 37> H     21.63735684    32.40735864    37.34230322
| 38> H     21.49730824    33.96875880    37.36275527
| 39> H     22.51426932    33.26003816    38.32242855
| 40> H     18.39538066    37.52066732    47.01612452
| 41> H     19.03443510    36.81056246    45.91171363
| 42> N     20.15043870    40.71641603    40.76047065
| 43> N     19.61541343    37.39055064    42.22106192
| 44> N     19.25444159    37.17793445    43.50387764
| 45> N     18.66135535    37.48509287    46.18797368
| 46> O     19.80354548    38.80217820    39.58306166
| 47> O     18.19832953    39.65471929    45.78664146
| 48> O     20.64750653    33.08576486    38.89083831
| 49> C     21.16875807    43.95659821    35.25288997
| 50> H     20.47458764    44.57326822    35.53622957
| 51> H     20.73787682    43.12398988    35.00447618
| 52> C     21.83638855    44.51236254    34.06934536
| 53> H     22.27585503    43.79118392    33.59013802
| 54> H     21.16639655    44.89163882    33.48001158
| 55> C     22.83291639    45.54914332    34.38918402
| 56> H     23.29048235    45.81491356    33.57597890
| 57> H     22.37932284    46.32984340    34.74489242
| 58> C     23.83563842    45.06632738    35.38346846
| 59> H     24.48924629    44.52205208    34.91794826
| 60> H     24.30290205    45.83567686    35.74389657
| 61> C     23.28615136    44.26860140    36.52721022
| 62> C     20.44944804    43.36719733    38.19279400
| 63> H     20.03755147    44.17046020    37.96687747
| 64> C     21.53658130    42.92535431    37.47020721
| 65> C     22.12431926    41.72606610    37.80121583
| 66> C     19.97011296    42.62082591    39.24985051
| 67> H     19.22705322    42.91497266    39.72575407
| 68> H     20.31296812    42.31422118    41.97547995
| 69> N     22.06622540    43.70370122    36.38672035
| 70> O     23.94091717    44.12713411    37.55626316
| 71> C     15.69244538    39.09660179    43.40885425
| 72> H     16.38661581    38.47993178    43.12551465
| 73> H     16.12332664    39.92921012    43.65726804
| 74> C     15.02481490    38.54083746    44.59239886
| 75> H     14.58534842    39.26201608    45.07160620
| 76> H     15.69480690    38.16156118    45.18173265
| 77> C     14.02828706    37.50405668    44.27256021
| 78> H     13.57072110    37.23828644    45.08576532
| 79> H     14.48188061    36.72335660    43.91685180
| 80> C     13.02556503    37.98687262    43.27827576
| 81> H     12.37195716    38.53114792    43.74379596
| 82> H     12.55830140    37.21752314    42.91784765
| 83> C     13.57505209    38.78459860    42.13453400
| 84> C     16.41175542    39.68600267    40.46895023
| 85> H     16.82365199    38.88273980    40.69486676
| 86> C     15.32462216    40.12784569    41.19153701
| 87> C     14.73688419    41.32713390    40.86052839
| 88> C     16.89109049    40.43237409    39.41189371
| 89> H     17.63415023    40.13822734    38.93599015
| 90> H     16.54823533    40.73897882    36.68626427
| 91> N     14.79497806    39.34949878    42.27502387
| 92> O     12.92028628    38.92606589    41.10548106
| 93> H     14.02167238    41.64425870    41.36349158
| 94> C     15.19928065    42.05952470    39.79293120
| 95> H     14.78504134    42.86098808    39.56685734
| 96> C     16.27101645    41.61145269    39.05964642
| 97> C     16.48232007    41.70211910    36.59013962
| 98> H     15.58542611    41.91141316    36.28666261
| 99> C     16.94452686    43.68058474    38.01297325
|100> C     17.15629298    44.32646179    36.70781759
|101> C     17.48622117    43.65649931    35.56439047
|102> C     17.48132606    42.16790913    35.54818615
|103> H     18.36601789    41.82835996    35.75648245
|104> H     17.22568784    41.84358638    34.67095038
|105> C     17.76886607    44.65562931    34.63209148
|106> C     18.23988506    44.48204812    33.23993593
|107> C     16.93969444    46.77999174    37.27591270
|108> C     15.84074869    46.73223615    38.10359158
|109> H     15.28637959    45.98517262    38.09745596
|110> C     15.56154755    47.79116445    38.94055254
|111> H     14.82112637    47.75835844    39.50078148
|112> C     16.37793206    48.89591044    38.94558689
|113> C     17.45727229    48.95515505    38.08156629
|114> H     17.99155087    49.71564552    38.06284479
|115> C     17.74462454    47.90231732    37.25310080
|116> H     18.47619997    47.94245970    36.67997133
|117> C     15.20636093    49.86417233    40.76188656
|118> H     15.22384661    50.64584136    41.31944100
|119> H     15.36389521    49.08444120    41.29898895
|120> H     14.34693413    49.79316184    40.33931567
|121> H     18.46582279    45.53253268    31.64561970
|122> H     17.82676836    46.24263754    32.75003059
|123> N     16.71076476    42.33678397    37.90127357
|124> N     17.24579002    45.66264936    36.44068230
|125> N     17.60676186    45.87526555    35.15786658
|126> N     18.19984811    45.56810713    32.47377054
|127> O     17.05765798    44.25102180    39.07868256
|128> O     18.66287393    43.39848071    32.87510276
|129> O     16.21369692    49.96743514    39.77090591
|130> C     25.91324538    39.09660179    43.40885425
|131> H     26.60741581    38.47993178    43.12551465
|132> H     26.34412664    39.92921012    43.65726804
|133> C     25.24561490    38.54083746    44.59239886
|134> H     24.80614842    39.26201608    45.07160620
|135> H     25.91560690    38.16156118    45.18173265
|136> C     24.24908706    37.50405668    44.27256021
|137> H     23.79152110    37.23828644    45.08576532
|138> H     24.70268061    36.72335660    43.91685180
|139> C     23.24636503    37.98687262    43.27827576
|140> H     22.59275716    38.53114792    43.74379596
|141> H     22.77910140    37.21752314    42.91784765
|142> C     23.79585209    38.78459860    42.13453400
|143> C     26.63255542    39.68600267    40.46895023
|144> H     27.04445199    38.88273980    40.69486676
|145> C     25.54542216    40.12784569    41.19153701
|146> C     24.95768419    41.32713390    40.86052839
|147> C     27.11189049    40.43237409    39.41189371
|148> H     27.85495023    40.13822734    38.93599015
|149> H     26.76903533    40.73897882    36.68626427
|150> N     25.01577806    39.34949878    42.27502387
|151> O     23.14108628    38.92606589    41.10548106
|152> H     24.24247238    41.64425870    41.36349158
|153> C     25.42008065    42.05952470    39.79293120
|154> H     25.00584134    42.86098808    39.56685734
|155> C     26.49181645    41.61145269    39.05964642
|156> C     26.70312007    41.70211910    36.59013962
|157> H     25.80622611    41.91141316    36.28666261
|158> C     27.16532686    43.68058474    38.01297325
|159> C     27.37709298    44.32646179    36.70781759
|160> C     27.70702117    43.65649931    35.56439047
|161> C     27.70212606    42.16790913    35.54818615
|162> H     28.58681789    41.82835996    35.75648245
|163> H     27.44648784    41.84358638    34.67095038
|164> C     27.98966607    44.65562931    34.63209148
|165> C     28.46068506    44.48204812    33.23993593
|166> C     27.16049444    46.77999174    37.27591270
|167> C     26.06154869    46.73223615    38.10359158
|168> H     25.50717959    45.98517262    38.09745596
|169> C     25.78234755    47.79116445    38.94055254
|170> H     25.04192637    47.75835844    39.50078148
|171> C     26.59873206    48.89591044    38.94558689
|172> C     27.67807229    48.95515505    38.08156629
|173> H     28.21235087    49.71564552    38.06284479
|174> C     27.96542454    47.90231732    37.25310080
|175> H     28.69699997    47.94245970    36.67997133
|176> C     25.42716093    49.86417233    40.76188656
|177> H     25.44464661    50.64584136    41.31944100
|178> H     25.58469521    49.08444120    41.29898895
|179> H     24.56773413    49.79316184    40.33931567
|180> H     28.68662279    45.53253268    31.64561970
|181> H     28.04756836    46.24263754    32.75003059
|182> N     26.93156476    42.33678397    37.90127357
|183> N     27.46659002    45.66264936    36.44068230
|184> N     27.82756186    45.87526555    35.15786658
|185> N     28.42064811    45.56810713    32.47377054
|186> O     27.27845798    44.25102180    39.07868256
|187> O     28.88367393    43.39848071    32.87510276
|188> O     26.43449692    49.96743514    39.77090591
|189> C     17.73376538    38.14522738    51.14445018
|190> H     17.08015751    37.60095208    51.60997038
|191> H     17.26650175    38.91457686    50.78402207
|192> O     17.62848663    37.20603411    48.97165548
|193> C     21.08613240    27.23618956    46.81176131
|194> C     22.16547264    27.17694495    45.94774071
|195> H     22.69975122    26.41645448    45.92901922
|196> C     19.91456127    26.26792767    48.62806098
|197> H     19.93204696    25.48625864    49.18561543
|198> H     20.07209556    27.04765880    49.16516337
|199> H     19.05513448    26.33893816    48.20549009
|200> O     20.92189726    26.16466486    47.63708033
|201> C     20.97921680    34.52064731    46.92582084
|202> H     22.34235057    35.99387266    46.80216458
|203> C     21.19052041    34.42998090    44.45631404
|204> H     20.29362646    34.22068684    44.15283703
|205> H     21.25643568    35.39312118    44.55243869
|206> C     21.65272721    32.45151526    45.87914767
|207> C     21.86449333    31.80563821    44.57399201
|208> C     22.19442152    32.47560069    43.43056490
|209> C     22.18952640    33.96419087    43.41436058
|210> H     23.07421823    34.30374004    43.62265688
|211> H     21.93388819    34.28851362    42.53712481
|212> C     22.47706641    31.47647069    42.49826590
|213> C     22.94808540    31.65005188    41.10611035
|214> C     21.64789479    29.35210826    45.14208713
|215> C     20.54894904    29.39986385    45.96976600
|216> H     19.99457994    30.14692738    45.96363038
|217> C     20.26974789    28.34093555    46.80672696
|218> C     22.45282488    28.22978268    45.11927522
|219> H     23.18440032    28.18964030    44.54614575
|220> H     23.17402313    30.59956732    39.51179412
|221> H     22.53496870    29.88946246    40.61620501
|222> N     21.41896510    33.79531603    45.76744799
|223> N     21.95399036    30.46945064    44.30685673
|224> N     22.31496220    30.25683445    43.02404100
|225> N     22.90804845    30.56399287    40.33994497
|226> O     21.76585832    31.88107820    46.94485698
|227> O     23.37107427    32.73361929    40.74127718
|228> C     20.40064573    37.03549821    51.27502868
|229> H     21.09481616    37.65216822    50.99168907
|230> H     20.83152698    36.20288988    51.52344247
|231> C     19.73301525    37.59126254    52.45857328
|232> H     19.29354876    36.87008392    52.93778063
|233> H     20.40300725    37.97053882    53.04790707
|234> C     18.73648740    38.62804332    52.13873463
|235> H     18.27892144    38.89381356    52.95193974
|236> H     19.19008095    39.40874340    51.78302622
|237> C     18.28325244    37.34750140    50.00070842
|238> C     21.11995576    36.44609733    48.33512465
|239> H     21.53185233    37.24936020    48.56104118
|240> C     20.03282250    36.00425431    49.05771143
|241> C     19.44508453    34.80496610    48.72670281
|242> H     18.72987272    34.48784130    49.22966600
|243> C     19.90748099    34.07257530    47.65910562
|244> H     19.49324168    33.27111192    47.43303177
|245> C     21.59929084    35.69972591    47.27806813
|246> H     19.52932672    28.37374156    47.36695590
|247> N     19.50317840    36.78260122    50.14119830
|248> C     17.73376538    51.98742738    51.14445018
|249> H     17.08015751    51.44315208    51.60997038
|250> H     17.26650175    52.75677686    50.78402207
|251> O     17.62848663    51.04823411    48.97165548
|252> C     21.08613240    41.07838956    46.81176131
|253> C     22.16547264    41.01914495    45.94774071
|254> H     22.69975122    40.25865448    45.92901922
|255> C     19.91456127    40.11012767    48.62806098
|256> H     19.93204696    39.32845864    49.18561543
|257> H     20.07209556    40.88985880    49.16516337
|258> H     19.05513448    40.18113816    48.20549009
|259> O     20.92189726    40.00686486    47.63708033
|260> C     20.97921680    48.36284731    46.92582084
|261> H     22.34235057    49.83607266    46.80216458
|262> C     21.19052041    48.27218090    44.45631404
|263> H     20.29362646    48.06288684    44.15283703
|264> H     21.25643568    49.23532118    44.55243869
|265> C     21.65272721    46.29371526    45.87914767
|266> C     21.86449333    45.64783821    44.57399201
|267> C     22.19442152    46.31780069    43.43056490
|268> C     22.18952640    47.80639087    43.41436058
|269> H     23.07421823    48.14594004    43.62265688
|270> H     21.93388819    48.13071362    42.53712481
|271> C     22.47706641    45.31867069    42.49826590
|272> C     22.94808540    45.49225188    41.10611035
|273> C     21.64789479    43.19430826    45.14208713
|274> C     20.54894904    43.24206385    45.96976600
|275> H     19.99457994    43.98912738    45.96363038
|276> C     20.26974789    42.18313555    46.80672696
|277> C     22.45282488    42.07198268    45.11927522
|278> H     23.18440032    42.03184030    44.54614575
|279> H     23.17402313    44.44176732    39.51179412
|280> H     22.53496870    43.73166246    40.61620501
|281> N     21.41896510    47.63751603    45.76744799
|282> N     21.95399036    44.31165064    44.30685673
|283> N     22.31496220    44.09903445    43.02404100
|284> N     22.90804845    44.40619287    40.33994497
|285> O     21.76585832    45.72327820    46.94485698
|286> O     23.37107427    46.57581929    40.74127718
|287> C     20.40064573    50.87769821    51.27502868
|288> H     21.09481616    51.49436822    50.99168907
|289> H     20.83152698    50.04508988    51.52344247
|290> C     19.73301525    51.43346254    52.45857328
|291> H     19.29354876    50.71228392    52.93778063
|292> H     20.40300725    51.81273882    53.04790707
|293> C     18.73648740    52.47024332    52.13873463
|294> H     18.27892144    52.73601356    52.95193974
|295> H     19.19008095    53.25094340    51.78302622
|296> C     18.28325244    51.18970140    50.00070842
|297> C     21.11995576    50.28829733    48.33512465
|298> H     21.53185233    51.09156020    48.56104118
|299> C     20.03282250    49.84645431    49.05771143
|300> C     19.44508453    48.64716610    48.72670281
|301> H     18.72987272    48.33004130    49.22966600
|302> C     19.90748099    47.91477530    47.65910562
|303> H     19.49324168    47.11331192    47.43303177
|304> C     21.59929084    49.54192591    47.27806813
|305> H     19.52932672    42.21594156    47.36695590
|306> N     19.50317840    50.62480122    50.14119830
|307> *
|308> 
|309>                          ****END OF INPUT****
================================================================================

                       ****************************
                       * Single Point Calculation *
                       ****************************

      -----------------------------------------------------------      
     |                   =====================                   |     
     |                           x T B                           |     
     |                   =====================                   |     
     |                         S. Grimme                         |     
     |          Mulliken Center for Theoretical Chemistry        |     
     |                    University of Bonn                     |     
      -----------------------------------------------------------      

   * xtb version 6.7.1pre (5071a88) compiled by 'Marcel@Raven' on 2024-07-23

   xtb is free software: you can redistribute it and/or modify it under
   the terms of the GNU Lesser General Public License as published by
   the Free Software Foundation, either version 3 of the License, or
   (at your option) any later version.
   
   xtb is distributed in the hope that it will be useful,
   but WITHOUT ANY WARRANTY; without even the implied warranty of
   MERCHANTABILITY or FITNESS FOR A PARTICULAR PURPOSE.  See the
   GNU Lesser General Public License for more details.
   
   Cite this work as:
   * C. Bannwarth, E. Caldeweyher, S. Ehlert, A. Hansen, P. Pracht,
     J. Seibert, S. Spicher, S. Grimme, WIREs Comput. Mol. Sci., 2020, 11,
     e01493. DOI: 10.1002/wcms.1493
   
   for GFN2-xTB:
   * C. Bannwarth, S. Ehlert and S. Grimme., J. Chem. Theory Comput., 2019,
     15, 1652-1671. DOI: 10.1021/acs.jctc.8b01176
   for GFN1-xTB:
   * S. Grimme, C. Bannwarth, P. Shushkov, J. Chem. Theory Comput., 2017,
     13, 1989-2009. DOI: 10.1021/acs.jctc.7b00118
   for GFN0-xTB:
   * P. Pracht, E. Caldeweyher, S. Ehlert, S. Grimme, ChemRxiv, 2019, preprint.
     DOI: 10.26434/chemrxiv.8326202.v1
   for GFN-FF:
   * S. Spicher and S. Grimme, Angew. Chem. Int. Ed., 2020, 59, 15665-15673.
     DOI: 10.1002/anie.202004239
   
   for ALPB and GBSA implicit solvation:
   * S. Ehlert, M. Stahn, S. Spicher, S. Grimme, J. Chem. Theory Comput.,
     2021, 17, 4250-4261. DOI: 10.1021/acs.jctc.1c00471
   
   for ddCOSMO and CPCM-X implicit solvation:
   * M. Stahn, S. Ehlert, S. Grimme, J. Phys. Chem. A,
     2023, XX, XXXX-XXXX. DOI: 10.1021/acs.jpca.3c04382
   
   for DFT-D4:
   * E. Caldeweyher, C. Bannwarth and S. Grimme, J. Chem. Phys., 2017,
     147, 034112. DOI: 10.1063/1.4993215
   * E. Caldeweyher, S. Ehlert, A. Hansen, H. Neugebauer, S. Spicher,
     C. Bannwarth and S. Grimme, J. Chem. Phys., 2019, 150, 154122.
     DOI: 10.1063/1.5090222
   * E. Caldeweyher, J.-M. Mewes, S. Ehlert and S. Grimme, Phys. Chem. Chem. Phys.
     2020, 22, 8499-8512. DOI: 10.1039/D0CP00502A
   
   for sTDA-xTB:
   * S. Grimme and C. Bannwarth, J. Chem. Phys., 2016, 145, 054103.
     DOI: 10.1063/1.4959605
   
   in the mass-spec context:
   * V. Asgeirsson, C. Bauer and S. Grimme, Chem. Sci., 2017, 8, 4879.
     DOI: 10.1039/c7sc00601b
   * J. Koopman and S. Grimme, ACS Omega 2019, 4, 12, 15120-15133.
     DOI: 10.1021/acsomega.9b02011
   
   for metadynamics refer to:
   * S. Grimme, J. Chem. Theory Comput., 2019, 155, 2847-2862
     DOI: 10.1021/acs.jctc.9b00143
   
   for SPH calculations refer to:
   * S. Spicher and S. Grimme, J. Chem. Theory Comput., 2021, 17, 1701-1714
     DOI: 10.1021/acs.jctc.0c01306
   
   for ONIOM refer to:
   * C. Plett, A. Katbashev, S. Ehlert, S. Grimme, M. Bursch,
     Phys. Chem. Chem. Phys., 2023, 25, 17860-17868. DOI: 10.1039/D3CP02178E
   
   for DIPRO refer to:
   * J. Kohn, N. Gildemeister, S. Grimme, D. Fazzi, A. Hansen,
     J. Chem. Phys., 2023, just accepted.
   
   for PTB refer to:
   * S. Grimme, M. Mueller, A. Hansen, J. Chem. Phys., 2023, 158, 124111.
     DOI: 10.1063/5.0137838
   
   with help from (in alphabetical order)
   P. Atkinson, C. Bannwarth, F. Bohle, G. Brandenburg, E. Caldeweyher
   M. Checinski, S. Dohm, S. Ehlert, S. Ehrlich, I. Gerasimov, C. Hﾃｶlzer
   A. Katbashev, J. Kohn, J. Koopman, C. Lavigne, S. Lehtola, F. Mﾃ､rz, M. Mﾃｼller,
   F. Musil, H. Neugebauer, J. Pisarek, C. Plett, P. Pracht, F. Pultar,
   J. Seibert, P. Shushkov, S. Spicher, M. Stahn, M. Steiner, T. Strunk,
   J. Stﾃｼckrath, T. Rose, and J. Unsleber
   
 * started run on 2026/10/03 at 10:43:48.355     
   ID    Z sym.   atoms
    1    1 H      1, 3, 6, 11, 12, 17, 19, 22, 24, 26-30, 39, 40, 42, 43, 45,
                  46, 48, 49, 52, 56, 57, 61, 62, 64, 65, 67, 68, 70, 71, 74,
                  78, 79, 82, 84, 87, 92, 93, 98, 100, 103, 105, 107-111,
                  120, 121, 123, 124, 126, 127, 129, 130, 133, 137, 138, 141,
                  143, 146, 151, 152, 157, 159, 162, 164, 166-170, 179, 180,
                  184, 186-188, 191, 193, 194, 199, 200, 205, 208-210, 218,
                  219, 221, 222, 224, 225, 228, 231, 233, 235, 238, 239, 243,
                  245-247, 250, 252, 253, 258, 259, 264, 267-269, 277, 278,
                  280, 281, 283, 284, 287, 290, 292, 294
    2    6 C      2, 4, 5, 7-10, 13-16, 18, 20, 21, 23, 25, 38, 41, 44, 47,
                  50, 51, 53-55, 60, 63, 66, 69, 72, 73, 75-77, 83, 85, 86,
                  88-91, 94-97, 99, 101, 102, 104, 106, 119, 122, 125, 128,
                  131, 132, 134-136, 142, 144, 145, 147-150, 153-156, 158,
                  160, 161, 163, 165, 178, 182, 183, 185, 190, 192, 195-198,
                  201-204, 206, 207, 217, 220, 223, 226, 227, 229, 230, 232,
                  234, 237, 241, 242, 244, 249, 251, 254-257, 260-263, 265,
                  266, 276, 279, 282, 285, 286, 288, 289, 291, 293
    3    7 N      31-34, 58, 80, 112-115, 139, 171-174, 211-214, 236,
                  270-273, 295
    4    8 O      35-37, 59, 81, 116-118, 140, 175-177, 181, 189, 215, 216,
                  240, 248, 274, 275

           -------------------------------------------------
          |                Calculation Setup                |
           -------------------------------------------------

          program call               : C:\ORCA_6.1.1\xtb-6.7.1pre\xtb.exe  Stage03_D2+D3+D1_cluster_XTB2_SP_XTB.xyz --grad -c 0 -u 0 -P 4 --namespace Stage03_D2+D3+D1_cluster_XTB2_SP --input Stage03_D2+D3+D1_cluster_XTB2_SP_XTB.input.tmp --acc 1.000000      
          calculation namespace      : Stage03_D2+D3+D1_cluster_XTB2_SP
          coordinate file            : Stage03_D2+D3+D1_cluster_XTB2_SP_XTB.xyz
          omp threads                :                     4


molecular fragmentation (1/2 indicates fragments):
111111111111111111111111111111111111111111111111111111111112222222222222
222222222222222222222222222222222222222222222222222222222222222222222222
222222222222222222222222222222222222222222222222222222222222222222222222
222222222222222222222222222222222222222222222222222222222222222222222222
2222222
# atoms in fragment 1/2:    59   236
 fragment masses (1/2) :      459.50     1837.99
CMA distance (Bohr)    :   6.166
constraining FC (au)   :  0.0500

           -------------------------------------------------
          |                 G F N 2 - x T B                 |
           -------------------------------------------------

        Reference                      10.1021/acs.jctc.8b01176
      * Hamiltonian:
        H0-scaling (s, p, d)           1.850000    2.230000    2.230000
        zeta-weighting                 0.500000
      * Dispersion:
        s8                             2.700000
        a1                             0.520000
        a2                             5.000000
        s9                             5.000000
      * Repulsion:
        kExp                           1.500000    1.000000
        rExp                           1.000000
      * Coulomb:
        alpha                          2.000000
        third order                    shell-resolved
        anisotropic                    true
        a3                             3.000000
        a5                             4.000000
        cn-shift                       1.200000
        cn-exp                         4.000000
        max-rad                        5.000000


          ...................................................
          :                      SETUP                      :
          :.................................................:
          :  # basis functions                 805          :
          :  # atomic orbitals                 805          :
          :  # shells                          465          :
          :  # electrons                       870          :
          :  max. iterations                   250          :
          :  Hamiltonian                  GFN2-xTB          :
          :  restarted?                      false          :
          :  GBSA solvation                  false          :
          :  PC potential                    false          :
          :  electronic temp.          300.0000000     K    :
          :  accuracy                    1.0000000          :
          :  -> integral cutoff          0.2500000E+02      :
          :  -> integral neglect         0.1000000E-07      :
          :  -> SCF convergence          0.1000000E-05 Eh   :
          :  -> wf. convergence          0.1000000E-03 e    :
          :  Broyden damping             0.4000000          :
          :  net charge                          0          :
          :  unpaired electrons                  0          :
          ...................................................

 iter      E             dE          RMSdq      gap      omega  full diag
   1   -493.7898661 -0.493790E+03  0.412E+00    2.83       0.0  T
   2   -495.0659011 -0.127604E+01  0.242E+00    2.24       1.0  T
   3   -495.1862694 -0.120368E+00  0.129E+00    2.56       1.0  T
   4   -495.2055048 -0.192354E-01  0.431E-01    2.33       1.0  T
   5   -495.2432264 -0.377215E-01  0.936E-02    2.36       1.0  T
   6   -495.2437725 -0.546156E-03  0.534E-02    2.35       1.0  T
   7   -495.2441741 -0.401548E-03  0.221E-02    2.37       1.0  T
   8   -495.2441934 -0.193461E-04  0.871E-03    2.37       1.0  T
   9   -495.2442027 -0.933296E-05  0.389E-03    2.37       1.5  T
  10   -495.2442035 -0.793274E-06  0.163E-03    2.37       3.6  T
  11   -495.2442039 -0.393587E-06  0.538E-04    2.37      10.8  T
  12   -495.2442040 -0.231631E-07  0.269E-04    2.37      21.7  T

   *** convergence criteria satisfied after 12 iterations ***

         #    Occupation            Energy/Eh            Energy/eV
      -------------------------------------------------------------
         1        2.0000           -0.7241657             -19.7056
       ...           ...                  ...                  ...
       429        2.0000           -0.3745772             -10.1928
       430        2.0000           -0.3734959             -10.1633
       431        2.0000           -0.3728767             -10.1465
       432        2.0000           -0.3707228             -10.0879
       433        2.0000           -0.3683768             -10.0240
       434        2.0000           -0.3678880             -10.0107
       435        2.0000           -0.3590603              -9.7705 (HOMO)
       436                         -0.2721126              -7.4046 (LUMO)
       437                         -0.2717484              -7.3947
       438                         -0.2651510              -7.2151
       439                         -0.2617315              -7.1221
       440                         -0.2501060              -6.8057
       ...                                ...                  ...
       805                          0.9023480              24.5541
      -------------------------------------------------------------
                  HL-Gap            0.0869476 Eh            2.3660 eV
             Fermi-level           -0.3155865 Eh           -8.5875 eV

 SCC (total)                   0 d,  0 h,  0 min,  2.652 sec
 SCC setup                      ...        0 min,  0.005 sec (  0.189%)
 Dispersion                     ...        0 min,  0.019 sec (  0.716%)
 classical contributions        ...        0 min,  0.002 sec (  0.075%)
 integral evaluation            ...        0 min,  0.091 sec (  3.431%)
 iterations                     ...        0 min,  1.681 sec ( 63.386%)
 molecular gradient             ...        0 min,  0.832 sec ( 31.373%)
 printout                       ...        0 min,  0.022 sec (  0.830%)

         :::::::::::::::::::::::::::::::::::::::::::::::::::::
         ::                     SUMMARY                     ::
         :::::::::::::::::::::::::::::::::::::::::::::::::::::
         :: total energy            -484.265320991017 Eh    ::
         :: gradient norm              2.085439504461 Eh/a0 ::
         :: HOMO-LUMO gap              2.365965292832 eV    ::
         ::.................................................::
         :: SCC energy              -495.222374649601 Eh    ::
         :: -> isotropic ES            0.734367946998 Eh    ::
         :: -> anisotropic ES         -0.001814313463 Eh    ::
         :: -> anisotropic XC          0.092148158416 Eh    ::
         :: -> dispersion             -0.434389472777 Eh    ::
         :: repulsion energy          10.957053658584 Eh    ::
         :: add. restraining           0.000000000000 Eh    ::
         :: total charge               0.000000000000 e     ::
         :::::::::::::::::::::::::::::::::::::::::::::::::::::


Property printout bound to 'properties.out'

           -------------------------------------------------
          | TOTAL ENERGY             -484.265320991017 Eh   |
          | GRADIENT NORM               2.085439504461 Eh/ﾎｱ |
          | HOMO-LUMO GAP               2.365965292832 eV   |
           -------------------------------------------------

------------------------------------------------------------------------
 * finished run on 2026/10/03 at 10:43:51.276     
------------------------------------------------------------------------
 total:
 * wall-time:     0 d,  0 h,  0 min,  2.918 sec
 *  cpu-time:     0 d,  0 h,  0 min, 11.219 sec
 * ratio c/w:     3.845 speedup
 SCF:
 * wall-time:     0 d,  0 h,  0 min,  2.665 sec
 *  cpu-time:     0 d,  0 h,  0 min, 10.266 sec
 * ratio c/w:     3.852 speedup


-------------------------   --------------------
FINAL SINGLE POINT ENERGY      -484.265320991020
-------------------------   --------------------


-------------
DIPOLE MOMENT
-------------
                                X             Y             Z
Total Dipole Moment    :     -1.62200      -0.35000       5.31000
                        -----------------------------------------
Magnitude (a.u.)       :      5.56323
Magnitude (Debye)      :     14.14060


--------------------------------
SUGGESTED CITATIONS FOR THIS RUN
--------------------------------

Below you find a list of papers that are relevant to this ORCA run
We neither can nor want to force you to cite these papers, but we appreciate if you do
You receive ORCA, which is the product of decades of hard work by many enthusiastic individuals, for free
The only thing we kindly ask in return is that you cite our papers,
We deeply appreciate it, if you show your appreciation for ORCA by not just citing the generic ORCA reference.

Please note that relegating all ORCA citations to the supporting information does *not* help us.
SI sections are not indexed - citations you put there will not count into any citation statistics
But we need these citations in order to attract the funding resources that allow us to do what we are doing

Therefore, if you are a happy ORCA user, please consider citing a few of the papers listed below in the main body of your paper

In addition to the list printed below, the program has created the file Stage03_D2+D3+D1_cluster_XTB2_SP.bibtex that contains the list in bibtex format
You can import this file easily into all common literature databanks and citation aid programs

It goes without saying that in many instances, there are alternative algorithms to achieve similar
results as the ones you have gotten from ORCA. It is, of course, also the case that in some instances
ORCA just re-implements algorithms worked out by others. We are fully aware of that and we are also
fully appreciative of our colleagues work. Hence this citation list should not be read as indicating
that the listed papers, which are focused on our own work, are the only ones worth citing. It simply
meant to make it easier for users to cite ORCA specific papers. It is not a substitute for doing your
own literature research and citing the relevant literature in a scientifically appropriate manner.

List of essential papers. We consider these as the minimum necessary citations

  1. Bannwarth, C.; Ehlert, S.; Grimme, S.
     GFN2-xTB窶尿n Accurate and Broadly Parametrized Self-Consistent Tight-Binding Quantum Chemical Method with Multipole Electrostatics and Density-Dependent Dispersion Contributions
     J. Chem. Theory Comput. 2019 15(3), 1652-1671
     doi.org/10.1021/acs.jctc.8b01176
  2. Neese, F.
     Software update: the ORCA program system, version 6.0
     WIRES Comput. Molec. Sci. 2025 15(1), e70019
     doi.org/10.1002/wcms.70019

List of papers to cite with high priority. The work reported in these papers was absolutely
necessary for this run to complete.
Our perspective: the developers of density functionals and basis sets usually get cited in chemistry papers
Good! But without the algorithms to do something with them, the functionals or basis sets would not do anything.
Hence, in our opinion, the algorithm design and method developments papers are equally worthy of getting cited

  1. Bannwarth, C.; Caldeweyher, E.; Ehlert, S.; Hansen, A.; Pracht, P.; Seibert, J.; Spicher, S.; Grimme, S.
     Extended tight-binding quantum chemistry methods
     WIRES Comput. Molec. Sci. 2020 11(2), e1493
     doi.org/10.1002/wcms.1493

List of suggested additional citations. These are papers that are important in the 'surrounding' of 
of this run, or papers that preceded the highly important papers. If you like your results we are grateful for a citation.

  1. Neese, F.
     The ORCA program system
     WIRES Comput. Molec. Sci. 2012 2(1), 73-78
     doi.org/10.1002/wcms.81
  2. Neese, F.
     Software update: the ORCA program system, version 4.0
     WIRES Comput. Molec. Sci. 2018 8(1), 1-6
     doi.org/10.1002/wcms.1327
  3. Neese, F.; Wennmohs, F.; Becker, U.; Riplinger, C.
     The ORCA quantum chemistry program package
     J. Chem. Phys. 2020 152(22), 224108
     doi.org/10.1063/5.0004608
  4. Neese, F.
     Software update: The ORCA program system窶之ersion 5.0
     WIRES Comput. Molec. Sci. 2022 12(1), e1606
     doi.org/10.1002/wcms.1606

List of optional additional citations

  1. Neese, F.
     Approximate second-order SCF convergence for spin unrestricted wavefunctions
     Chem. Phys. Lett. 2000 325(1-3), 93-98
     doi.org/10.1016/s0009-2614(00)00662-x

Timings for individual modules:

Sum of individual times          ...        3.004 sec (=   0.050 min)
XTB module                       ...        3.004 sec (=   0.050 min) 100.0 %
                             ****ORCA TERMINATED NORMALLY****
TOTAL RUN TIME: 0 days 0 hours 0 minutes 3 seconds 500 msec
