27
Coordinates from ORCA-job Adamantanol E -465.852422612022
  O           0.69669360707574      2.56509276660129      0.00000000000000
  C           0.28983837514874      1.18472934161389      0.00000000000000
  C          -0.53356405046163      0.85666236351094     -1.25113709150450
  C          -0.90457841677609     -0.63623275407425     -1.25576390105382
  C          -1.72885712037511     -0.95975594872974      0.00000000000000
  C          -0.90457841677609     -0.63623275407425      1.25576390105382
  C           0.38311380538266     -1.47437663651905      1.25376533624469
  C           1.20920412396305     -1.14667436388938      0.00000000000000
  C           0.38311380538266     -1.47437663651905     -1.25376533624469
  C           1.56890575279309      0.34857802287650      0.00000000000000
  C          -0.53356405046163      0.85666236351094      1.25113709150450
  H          -0.10729074801456      3.10293834420648      0.00000000000000
  H           0.05361192282093      1.11084760933422     -2.14415892384082
  H          -1.44339365733024      1.47532726430881     -1.26169359910070
  H          -1.49381498414402     -0.86291886849304     -2.15463578593374
  H          -2.01021256267378     -2.02171387020616      0.00000000000000
  H          -2.65888336196352     -0.37441940384817      0.00000000000000
  H          -1.49381498414402     -0.86291886849304      2.15463578593374
  H           0.13308557325820     -2.54405110879027      1.26728874105029
  H           0.97091633284888     -1.26349297790926      2.15777748911542
  H           2.13334332109892     -1.74002104186190      0.00000000000000
  H           0.13308557325820     -2.54405110879027     -1.26728874105029
  H           0.97091633284888     -1.26349297790926     -2.15777748911542
  H           2.16543886663285      0.60048735792640     -0.88724893392786
  H           2.16543886663285      0.60048735792640      0.88724893392786
  H           0.05361192282093      1.11084760933422      2.14415892384082
  H          -1.44339365733024      1.47532726430881      1.26169359910070
