12
	Energy:   -1847.8996404
O         23.58349      -21.90921        2.32419
H         24.24213      -21.47650        1.73934
H         22.80836      -21.33994        2.25523
O         33.71972      -17.27589       -0.52391
H         33.43630      -18.16494       -0.24919
H         32.88913      -16.79422       -0.61661
O         33.56372      -26.09421        0.05212
H         34.02431      -25.80827       -0.75744
H         34.14783      -26.76806        0.41972
O         38.70361      -21.77519        0.27918
H         37.81407      -21.91489       -0.09249
H         38.70097      -20.83826        0.51166
