      -----------------------------------------------------------      
     |                   =====================                   |     
     |                           x T B                           |     
     |                   =====================                   |     
     |                         S. Grimme                         |     
     |          Mulliken Center for Theoretical Chemistry        |     
     |                    University of Bonn                     |     
      -----------------------------------------------------------      

   * xtb version 6.7.1pre (5071a88) compiled by 'Marcel@Raven' on 2024-07-23

   xtb is free software: you can redistribute it and/or modify it under
   the terms of the GNU Lesser General Public License as published by
   the Free Software Foundation, either version 3 of the License, or
   (at your option) any later version.
   
   xtb is distributed in the hope that it will be useful,
   but WITHOUT ANY WARRANTY; without even the implied warranty of
   MERCHANTABILITY or FITNESS FOR A PARTICULAR PURPOSE.  See the
   GNU Lesser General Public License for more details.
   
   Cite this work as:
   * C. Bannwarth, E. Caldeweyher, S. Ehlert, A. Hansen, P. Pracht,
     J. Seibert, S. Spicher, S. Grimme, WIREs Comput. Mol. Sci., 2020, 11,
     e01493. DOI: 10.1002/wcms.1493
   
   for GFN2-xTB:
   * C. Bannwarth, S. Ehlert and S. Grimme., J. Chem. Theory Comput., 2019,
     15, 1652-1671. DOI: 10.1021/acs.jctc.8b01176
   for GFN1-xTB:
   * S. Grimme, C. Bannwarth, P. Shushkov, J. Chem. Theory Comput., 2017,
     13, 1989-2009. DOI: 10.1021/acs.jctc.7b00118
   for GFN0-xTB:
   * P. Pracht, E. Caldeweyher, S. Ehlert, S. Grimme, ChemRxiv, 2019, preprint.
     DOI: 10.26434/chemrxiv.8326202.v1
   for GFN-FF:
   * S. Spicher and S. Grimme, Angew. Chem. Int. Ed., 2020, 59, 15665-15673.
     DOI: 10.1002/anie.202004239
   
   for ALPB and GBSA implicit solvation:
   * S. Ehlert, M. Stahn, S. Spicher, S. Grimme, J. Chem. Theory Comput.,
     2021, 17, 4250-4261. DOI: 10.1021/acs.jctc.1c00471
   
   for ddCOSMO and CPCM-X implicit solvation:
   * M. Stahn, S. Ehlert, S. Grimme, J. Phys. Chem. A,
     2023, XX, XXXX-XXXX. DOI: 10.1021/acs.jpca.3c04382
   
   for DFT-D4:
   * E. Caldeweyher, C. Bannwarth and S. Grimme, J. Chem. Phys., 2017,
     147, 034112. DOI: 10.1063/1.4993215
   * E. Caldeweyher, S. Ehlert, A. Hansen, H. Neugebauer, S. Spicher,
     C. Bannwarth and S. Grimme, J. Chem. Phys., 2019, 150, 154122.
     DOI: 10.1063/1.5090222
   * E. Caldeweyher, J.-M. Mewes, S. Ehlert and S. Grimme, Phys. Chem. Chem. Phys.
     2020, 22, 8499-8512. DOI: 10.1039/D0CP00502A
   
   for sTDA-xTB:
   * S. Grimme and C. Bannwarth, J. Chem. Phys., 2016, 145, 054103.
     DOI: 10.1063/1.4959605
   
   in the mass-spec context:
   * V. Asgeirsson, C. Bauer and S. Grimme, Chem. Sci., 2017, 8, 4879.
     DOI: 10.1039/c7sc00601b
   * J. Koopman and S. Grimme, ACS Omega 2019, 4, 12, 15120-15133.
     DOI: 10.1021/acsomega.9b02011
   
   for metadynamics refer to:
   * S. Grimme, J. Chem. Theory Comput., 2019, 155, 2847-2862
     DOI: 10.1021/acs.jctc.9b00143
   
   for SPH calculations refer to:
   * S. Spicher and S. Grimme, J. Chem. Theory Comput., 2021, 17, 1701-1714
     DOI: 10.1021/acs.jctc.0c01306
   
   for ONIOM refer to:
   * C. Plett, A. Katbashev, S. Ehlert, S. Grimme, M. Bursch,
     Phys. Chem. Chem. Phys., 2023, 25, 17860-17868. DOI: 10.1039/D3CP02178E
   
   for DIPRO refer to:
   * J. Kohn, N. Gildemeister, S. Grimme, D. Fazzi, A. Hansen,
     J. Chem. Phys., 2023, just accepted.
   
   for PTB refer to:
   * S. Grimme, M. Mueller, A. Hansen, J. Chem. Phys., 2023, 158, 124111.
     DOI: 10.1063/5.0137838
   
   with help from (in alphabetical order)
   P. Atkinson, C. Bannwarth, F. Bohle, G. Brandenburg, E. Caldeweyher
   M. Checinski, S. Dohm, S. Ehlert, S. Ehrlich, I. Gerasimov, C. Hölzer
   A. Katbashev, J. Kohn, J. Koopman, C. Lavigne, S. Lehtola, F. März, M. Müller,
   F. Musil, H. Neugebauer, J. Pisarek, C. Plett, P. Pracht, F. Pultar,
   J. Seibert, P. Shushkov, S. Spicher, M. Stahn, M. Steiner, T. Strunk,
   J. Stückrath, T. Rose, and J. Unsleber
   
 * started run on 2026/10/03 at 19:14:21.725     
   ID    Z sym.   atoms
    1    6 C      1, 4, 7, 10, 13, 14, 16-18, 24, 26, 27, 29-32, 35-38, 40,
                  42, 43, 45, 47, 60, 64, 65, 67, 72, 74, 77-80, 83-86, 88,
                  89, 99, 102, 105, 108, 109, 111, 112, 114, 116
    2    1 H      2, 3, 5, 6, 8, 9, 11, 12, 15, 19, 20, 23, 25, 28, 33, 34,
                  39, 41, 44, 46, 48-52, 61, 62, 66, 68-70, 73, 75, 76, 81,
                  82, 87, 90-92, 100, 101, 103, 104, 106, 107, 110, 113, 115,
                  117
    3    7 N      21, 53-56, 93-96, 118
    4    8 O      22, 57-59, 63, 71, 97, 98

           -------------------------------------------------
          |                Calculation Setup                |
           -------------------------------------------------

          program call               : C:\ORCA_6.1.1\xTB_bigstack\xtb.exe d_D3a_D7a.xyz -c 0 -u 0 -P 1 --acc 1.0 --namespace d_D3a_D7a
          calculation namespace      : d_D3a_D7a
          coordinate file            : d_D3a_D7a.xyz
          omp threads                :                     1


molecular fragmentation (1/2 indicates fragments):
111111111111111111111111111111111111111111111111111111111112222222222222
2222222222222222222222222222222222222222222222
# atoms in fragment 1/2:    59    59
 fragment masses (1/2) :      459.50      459.50
CMA distance (Bohr)    :  26.457
constraining FC (au)   :  0.0500

           -------------------------------------------------
          |                 G F N 2 - x T B                 |
           -------------------------------------------------

        Reference                      10.1021/acs.jctc.8b01176
      * Hamiltonian:
        H0-scaling (s, p, d)           1.850000    2.230000    2.230000
        zeta-weighting                 0.500000
      * Dispersion:
        s8                             2.700000
        a1                             0.520000
        a2                             5.000000
        s9                             5.000000
      * Repulsion:
        kExp                           1.500000    1.000000
        rExp                           1.000000
      * Coulomb:
        alpha                          2.000000
        third order                    shell-resolved
        anisotropic                    true
        a3                             3.000000
        a5                             4.000000
        cn-shift                       1.200000
        cn-exp                         4.000000
        max-rad                        5.000000


          ...................................................
          :                      SETUP                      :
          :.................................................:
          :  # basis functions                 322          :
          :  # atomic orbitals                 322          :
          :  # shells                          186          :
          :  # electrons                       348          :
          :  max. iterations                   250          :
          :  Hamiltonian                  GFN2-xTB          :
          :  restarted?                      false          :
          :  GBSA solvation                  false          :
          :  PC potential                    false          :
          :  electronic temp.          300.0000000     K    :
          :  accuracy                    1.0000000          :
          :  -> integral cutoff          0.2500000E+02      :
          :  -> integral neglect         0.1000000E-07      :
          :  -> SCF convergence          0.1000000E-05 Eh   :
          :  -> wf. convergence          0.1000000E-03 e    :
          :  Broyden damping             0.4000000          :
          :  net charge                          0          :
          :  unpaired electrons                  0          :
          ...................................................

 iter      E             dE          RMSdq      gap      omega  full diag
   1   -197.4394812 -0.197439E+03  0.413E+00    2.88       0.0  T
   2   -197.9693442 -0.529863E+00  0.242E+00    2.62       1.0  T
   3   -198.0202790 -0.509348E-01  0.130E+00    3.06       1.0  T
   4   -198.0271874 -0.690844E-02  0.434E-01    2.78       1.0  T
   5   -198.0420551 -0.148676E-01  0.916E-02    2.82       1.0  T
   6   -198.0422590 -0.203927E-03  0.528E-02    2.85       1.0  T
   7   -198.0424233 -0.164273E-03  0.222E-02    2.87       1.0  T
   8   -198.0424304 -0.708283E-05  0.829E-03    2.86       1.1  T
   9   -198.0424332 -0.286690E-05  0.363E-03    2.87       2.5  T
  10   -198.0424334 -0.203604E-06  0.147E-03    2.87       6.3  T
  11   -198.0424335 -0.123059E-06  0.552E-04    2.87      16.7  T
  12   -198.0424336 -0.109418E-07  0.258E-04    2.87      35.6  T

   *** convergence criteria satisfied after 12 iterations ***

         #    Occupation            Energy/Eh            Energy/eV
      -------------------------------------------------------------
         1        2.0000           -0.7230138             -19.6742
       ...           ...                  ...                  ...
       168        2.0000           -0.3868939             -10.5279
       169        2.0000           -0.3853487             -10.4859
       170        2.0000           -0.3847916             -10.4707
       171        2.0000           -0.3824736             -10.4076
       172        2.0000           -0.3792472             -10.3198
       173        2.0000           -0.3782811             -10.2936
       174        2.0000           -0.3753537             -10.2139 (HOMO)
       175                         -0.2700654              -7.3489 (LUMO)
       176                         -0.2655877              -7.2270
       177                         -0.2431719              -6.6170
       178                         -0.2379787              -6.4757
       179                         -0.2376490              -6.4668
       ...                                ...                  ...
       322                          0.8703168              23.6825
      -------------------------------------------------------------
                  HL-Gap            0.1052882 Eh            2.8650 eV
             Fermi-level           -0.3227096 Eh           -8.7814 eV

 SCC (total)                   0 d,  0 h,  0 min,  0.380 sec
 SCC setup                      ...        0 min,  0.001 sec (  0.263%)
 Dispersion                     ...        0 min,  0.002 sec (  0.526%)
 classical contributions        ...        0 min,  0.001 sec (  0.263%)
 integral evaluation            ...        0 min,  0.033 sec (  8.684%)
 iterations                     ...        0 min,  0.208 sec ( 54.737%)
 molecular gradient             ...        0 min,  0.133 sec ( 35.000%)
 printout                       ...        0 min,  0.002 sec (  0.526%)

         :::::::::::::::::::::::::::::::::::::::::::::::::::::
         ::                     SUMMARY                     ::
         :::::::::::::::::::::::::::::::::::::::::::::::::::::
         :: total energy            -193.660183486072 Eh    ::
         :: gradient norm              1.318528329536 Eh/a0 ::
         :: HOMO-LUMO gap              2.865038857187 eV    ::
         ::.................................................::
         :: SCC energy              -198.042978670051 Eh    ::
         :: -> isotropic ES            0.296817698680 Eh    ::
         :: -> anisotropic ES          0.005344848577 Eh    ::
         :: -> anisotropic XC          0.036968419515 Eh    ::
         :: -> dispersion             -0.138807050014 Eh    ::
         :: repulsion energy           4.382795183979 Eh    ::
         :: add. restraining           0.000000000000 Eh    ::
         :: total charge               0.000000000000 e     ::
         :::::::::::::::::::::::::::::::::::::::::::::::::::::

           -------------------------------------------------
          |                Property Printout                |
           -------------------------------------------------

    * Orbital Energies and Occupations

         #    Occupation            Energy/Eh            Energy/eV
      -------------------------------------------------------------
         1        2.0000           -0.7230138             -19.6742
       ...           ...                  ...                  ...
       162        2.0000           -0.4053942             -11.0313
       163        2.0000           -0.4003050             -10.8929
       164        2.0000           -0.3952043             -10.7541
       165        2.0000           -0.3928525             -10.6901
       166        2.0000           -0.3899407             -10.6108
       167        2.0000           -0.3876356             -10.5481
       168        2.0000           -0.3868939             -10.5279
       169        2.0000           -0.3853487             -10.4859
       170        2.0000           -0.3847916             -10.4707
       171        2.0000           -0.3824736             -10.4076
       172        2.0000           -0.3792472             -10.3198
       173        2.0000           -0.3782811             -10.2936
       174        2.0000           -0.3753537             -10.2139 (HOMO)
       175                         -0.2700654              -7.3489 (LUMO)
       176                         -0.2655877              -7.2270
       177                         -0.2431719              -6.6170
       178                         -0.2379787              -6.4757
       179                         -0.2376490              -6.4668
       180                         -0.2333994              -6.3511
       181                         -0.2323319              -6.3221
       182                         -0.2302133              -6.2644
       183                         -0.2297486              -6.2518
       184                         -0.2261124              -6.1528
       185                         -0.2157808              -5.8717
       ...                                ...                  ...
       322                          0.8703168              23.6825
      -------------------------------------------------------------
                  HL-Gap            0.1052882 Eh            2.8650 eV
             Fermi-level           -0.3227096 Eh           -8.7814 eV

     #   Z          covCN         q      C6AA      α(0)
     1   6 C        3.762    -0.011    20.815     6.503
     2   1 H        0.930     0.058     2.224     2.332
     3   1 H        0.930     0.061     2.189     2.313
     4   6 C        3.827    -0.083    22.061     6.683
     5   1 H        0.930     0.055     2.252     2.347
     6   1 H        0.930     0.058     2.222     2.331
     7   6 C        3.825    -0.080    22.001     6.674
     8   1 H        0.930     0.053     2.281     2.361
     9   1 H        0.930     0.051     2.308     2.375
    10   6 C        3.826    -0.107    22.521     6.753
    11   1 H        0.930     0.074     2.038     2.232
    12   1 H        0.930     0.076     2.020     2.222
    13   6 C        2.766     0.268    22.472     7.764
    14   6 C        2.935    -0.056    29.390     8.891
    15   1 H        0.930     0.066     2.133     2.283
    16   6 C        2.930     0.069    26.456     8.435
    17   6 C        2.938    -0.043    29.060     8.841
    18   6 C        2.935    -0.057    29.406     8.893
    19   1 H        0.930     0.070     2.087     2.259
    20   1 H        0.930     0.069     2.093     2.262
    21   7 N        2.739    -0.112    23.450     7.192
    22   8 O        0.859    -0.471    23.158     6.452
    23   1 H        0.930     0.075     2.034     2.230
    24   6 C        2.936    -0.044    29.094     8.846
    25   1 H        0.930     0.072     2.062     2.245
    26   6 C        2.928     0.070    26.434     8.432
    27   6 C        3.764    -0.012    20.839     6.507
    28   1 H        0.930     0.057     2.229     2.334
    29   6 C        2.767     0.269    22.463     7.762
    30   6 C        3.096    -0.009    28.127     8.692
    31   6 C        3.070    -0.016    28.330     8.727
    32   6 C        3.821    -0.083    22.061     6.684
    33   1 H        0.930     0.078     2.000     2.211
    34   1 H        0.930     0.084     1.935     2.175
    35   6 C        3.172     0.026    27.039     8.494
    36   6 C        2.748     0.278    22.301     7.733
    37   6 C        2.920     0.046    26.970     8.516
    38   6 C        2.934    -0.042    29.042     8.838
    39   1 H        0.930     0.070     2.088     2.260
    40   6 C        2.932    -0.079    29.963     8.977
    41   1 H        0.930     0.068     2.102     2.267
    42   6 C        2.878     0.145    24.851     8.172
    43   6 C        2.936    -0.066    29.655     8.931
    44   1 H        0.930     0.079     1.991     2.206
    45   6 C        2.932    -0.046    29.144     8.854
    46   1 H        0.930     0.080     1.979     2.199
    47   6 C        3.664     0.013    20.626     6.514
    48   1 H        0.930     0.073     2.053     2.241
    49   1 H        0.930     0.059     2.207     2.323
    50   1 H        0.930     0.057     2.238     2.339
    51   1 H        0.862     0.206     1.075     1.624
    52   1 H        0.863     0.212     1.048     1.604
    53   7 N        2.745    -0.120    23.614     7.217
    54   7 N        3.019     0.089    19.701     6.592
    55   7 N        1.991    -0.241    27.092     7.719
    56   7 N        2.645    -0.283    27.318     7.762
    57   8 O        0.858    -0.443    22.563     6.369
    58   8 O        0.860    -0.449    22.675     6.384
    59   8 O        1.705    -0.281    18.656     5.832
    60   6 C        3.826    -0.107    22.518     6.752
    61   1 H        0.930     0.074     2.044     2.236
    62   1 H        0.930     0.075     2.029     2.227
    63   8 O        0.859    -0.470    23.122     6.447
    64   6 C        2.878     0.144    24.857     8.173
    65   6 C        2.936    -0.067    29.664     8.932
    66   1 H        0.930     0.078     1.997     2.210
    67   6 C        3.664     0.013    20.624     6.514
    68   1 H        0.930     0.072     2.058     2.243
    69   1 H        0.930     0.059     2.206     2.323
    70   1 H        0.930     0.056     2.240     2.340
    71   8 O        1.705    -0.281    18.668     5.833
    72   6 C        2.928     0.070    26.444     8.433
    73   1 H        0.930     0.069     2.094     2.263
    74   6 C        3.764    -0.012    20.839     6.507
    75   1 H        0.930     0.058     2.221     2.330
    76   1 H        0.930     0.070     2.084     2.257
    77   6 C        2.767     0.269    22.466     7.762
    78   6 C        3.096    -0.009    28.117     8.690
    79   6 C        3.070    -0.016    28.325     8.727
    80   6 C        3.821    -0.083    22.059     6.684
    81   1 H        0.930     0.078     2.001     2.212
    82   1 H        0.930     0.084     1.936     2.176
    83   6 C        3.172     0.026    27.043     8.495
    84   6 C        2.748     0.278    22.300     7.732
    85   6 C        2.920     0.046    26.964     8.515
    86   6 C        2.934    -0.042    29.035     8.837
    87   1 H        0.930     0.070     2.082     2.256
    88   6 C        2.932    -0.079    29.962     8.977
    89   6 C        2.932    -0.046    29.149     8.854
    90   1 H        0.930     0.080     1.982     2.201
    91   1 H        0.862     0.205     1.078     1.626
    92   1 H        0.863     0.211     1.050     1.605
    93   7 N        2.745    -0.120    23.601     7.215
    94   7 N        3.019     0.089    19.705     6.593
    95   7 N        1.991    -0.242    27.121     7.724
    96   7 N        2.645    -0.284    27.329     7.764
    97   8 O        0.858    -0.444    22.580     6.371
    98   8 O        0.860    -0.449    22.681     6.385
    99   6 C        3.762    -0.011    20.815     6.503
   100   1 H        0.930     0.057     2.236     2.338
   101   1 H        0.930     0.060     2.195     2.316
   102   6 C        3.827    -0.084    22.089     6.688
   103   1 H        0.930     0.056     2.246     2.343
   104   1 H        0.930     0.064     2.148     2.292
   105   6 C        3.825    -0.080    22.000     6.674
   106   1 H        0.930     0.054     2.266     2.354
   107   1 H        0.930     0.050     2.318     2.381
   108   6 C        2.766     0.268    22.475     7.764
   109   6 C        2.935    -0.056    29.385     8.890
   110   1 H        0.930     0.065     2.135     2.285
   111   6 C        2.930     0.070    26.436     8.432
   112   6 C        2.938    -0.042    29.049     8.839
   113   1 H        0.930     0.075     2.034     2.230
   114   6 C        2.936    -0.044    29.090     8.846
   115   1 H        0.930     0.071     2.070     2.250
   116   6 C        2.935    -0.057    29.409     8.894
   117   1 H        0.930     0.068     2.102     2.267
   118   7 N        2.739    -0.113    23.464     7.194

 Mol. C6AA /au·bohr⁶  :     167540.207323
 Mol. C8AA /au·bohr⁸  :    4001164.524997
 Mol. α(0) /au        :        634.419394


Wiberg/Mayer (AO) data.
largest (>0.10) Wiberg bond orders for each atom

 ---------------------------------------------------------------------------
     #   Z sym  total        # sym  WBO       # sym  WBO       # sym  WBO
 ---------------------------------------------------------------------------
     1   6 C    3.970 --     4 C    1.007     3 H    0.974     2 H    0.972
                            21 N    0.960
     2   1 H    0.997 --     1 C    0.972
     3   1 H    0.996 --     1 C    0.974
     4   6 C    3.992 --     1 C    1.007     7 C    1.006     5 H    0.979
                             6 H    0.971
     5   1 H    0.997 --     4 C    0.979
     6   1 H    0.996 --     4 C    0.971
     7   6 C    3.994 --     4 C    1.006    10 C    1.002     9 H    0.981
                             8 H    0.977
     8   1 H    0.997 --     7 C    0.977
     9   1 H    0.997 --     7 C    0.981
    10   6 C    3.990 --     7 C    1.002    13 C    0.976    12 H    0.964
                            11 H    0.954
    11   1 H    0.994 --    10 C    0.954
    12   1 H    0.994 --    10 C    0.964
    13   6 C    3.951 --    22 O    1.654    21 N    1.241    10 C    0.976
    14   6 C    3.994 --    18 C    1.442    16 C    1.406    15 H    0.974
                            24 C    0.109
    15   1 H    0.995 --    14 C    0.974
    16   6 C    3.968 --    14 C    1.406    17 C    1.405    21 N    0.991
    17   6 C    3.993 --    24 C    1.441    16 C    1.405    23 H    0.973
                            18 C    0.110
    18   6 C    3.993 --    14 C    1.442    26 C    1.401    19 H    0.974
                            17 C    0.110
    19   1 H    0.995 --    18 C    0.974
    20   1 H    0.995 --    27 C    0.974
    21   7 N    3.483 --    13 C    1.241    16 C    0.991     1 C    0.960
                            22 O    0.189
    22   8 O    1.964 --    13 C    1.654    21 N    0.189
    23   1 H    0.994 --    17 C    0.973
    24   6 C    3.992 --    17 C    1.441    26 C    1.403    25 H    0.973
                            14 C    0.109
    25   1 H    0.995 --    24 C    0.973
    26   6 C    3.965 --    24 C    1.403    18 C    1.401    53 N    0.997
    27   6 C    3.968 --    32 C    0.998    28 H    0.975    20 H    0.974
                            53 N    0.961
    28   1 H    0.997 --    27 C    0.975
    29   6 C    3.957 --    57 O    1.656    53 N    1.200    30 C    1.011
    30   6 C    3.952 --    31 C    1.430    54 N    1.219    29 C    1.011
                            55 N    0.134
    31   6 C    3.981 --    30 C    1.430    35 C    1.323    32 C    1.012
    32   6 C    3.989 --    31 C    1.012    27 C    0.998    34 H    0.962
                            33 H    0.960
    33   1 H    0.994 --    32 C    0.960
    34   1 H    0.992 --    32 C    0.962
    35   6 C    3.968 --    55 N    1.426    31 C    1.323    36 C    1.000
    36   6 C    3.952 --    58 O    1.660    56 N    1.253    35 C    1.000
    37   6 C    3.956 --    38 C    1.402    45 C    1.371    54 N    1.005
    38   6 C    3.992 --    40 C    1.435    37 C    1.402    39 H    0.974
                            43 C    0.108
    39   1 H    0.995 --    38 C    0.974
    40   6 C    3.991 --    38 C    1.435    42 C    1.380    41 H    0.971
    41   1 H    0.995 --    40 C    0.971
    42   6 C    3.933 --    40 C    1.380    43 C    1.344    59 O    1.071
    43   6 C    3.991 --    45 C    1.476    42 C    1.344    44 H    0.972
                            38 C    0.108
    44   1 H    0.993 --    43 C    0.972
    45   6 C    3.990 --    43 C    1.476    37 C    1.371    46 H    0.972
    46   1 H    0.993 --    45 C    0.972
    47   6 C    3.936 --    49 H    0.981    50 H    0.981    48 H    0.979
                            59 O    0.967
    48   1 H    0.994 --    47 C    0.979
    49   1 H    0.996 --    47 C    0.981
    50   1 H    0.997 --    47 C    0.981
    51   1 H    0.957 --    56 N    0.941
    52   1 H    0.955 --    56 N    0.942
    53   7 N    3.470 --    29 C    1.200    26 C    0.997    27 C    0.961
                            57 O    0.188
    54   7 N    3.691 --    55 N    1.220    30 C    1.219    37 C    1.005
    55   7 N    2.966 --    35 C    1.426    54 N    1.220    30 C    0.134
    56   7 N    3.370 --    36 C    1.253    52 H    0.942    51 H    0.941
                            58 O    0.193
    57   8 O    2.001 --    29 C    1.656    53 N    0.188
    58   8 O    1.973 --    36 C    1.660    56 N    0.193
    59   8 O    2.207 --    42 C    1.071    47 C    0.967
    60   6 C    3.990 --   105 C    1.002   108 C    0.976    62 H    0.964
                            61 H    0.954
    61   1 H    0.994 --    60 C    0.954
    62   1 H    0.994 --    60 C    0.964
    63   8 O    1.966 --   108 C    1.656   118 N    0.189
    64   6 C    3.932 --    88 C    1.380    65 C    1.344    71 O    1.070
    65   6 C    3.991 --    89 C    1.476    64 C    1.344    66 H    0.972
                            86 C    0.108
    66   1 H    0.993 --    65 C    0.972
    67   6 C    3.936 --    70 H    0.981    69 H    0.981    68 H    0.980
                            71 O    0.967
    68   1 H    0.994 --    67 C    0.980
    69   1 H    0.996 --    67 C    0.981
    70   1 H    0.997 --    67 C    0.981
    71   8 O    2.206 --    64 C    1.070    67 C    0.967
    72   6 C    3.965 --   114 C    1.403   116 C    1.402    93 N    0.996
    73   1 H    0.995 --   116 C    0.974
    74   6 C    3.968 --    80 C    0.998    75 H    0.974    76 H    0.974
                            93 N    0.961
    75   1 H    0.997 --    74 C    0.974
    76   1 H    0.995 --    74 C    0.974
    77   6 C    3.957 --    97 O    1.655    93 N    1.202    78 C    1.011
    78   6 C    3.952 --    79 C    1.430    94 N    1.220    77 C    1.011
                            95 N    0.134
    79   6 C    3.981 --    78 C    1.430    83 C    1.322    80 C    1.012
    80   6 C    3.989 --    79 C    1.012    74 C    0.998    82 H    0.963
                            81 H    0.960
    81   1 H    0.994 --    80 C    0.960
    82   1 H    0.992 --    80 C    0.963
    83   6 C    3.968 --    95 N    1.426    79 C    1.322    84 C    1.000
    84   6 C    3.952 --    98 O    1.660    96 N    1.252    83 C    1.000
    85   6 C    3.956 --    86 C    1.402    89 C    1.372    94 N    1.005
    86   6 C    3.991 --    88 C    1.435    85 C    1.402    87 H    0.973
                            65 C    0.108
    87   1 H    0.995 --    86 C    0.973
    88   6 C    3.991 --    86 C    1.435    64 C    1.380   117 H    0.971
    89   6 C    3.990 --    65 C    1.476    85 C    1.372    90 H    0.972
    90   1 H    0.993 --    89 C    0.972
    91   1 H    0.957 --    96 N    0.942
    92   1 H    0.955 --    96 N    0.942
    93   7 N    3.472 --    77 C    1.202    72 C    0.996    74 C    0.961
                            97 O    0.189
    94   7 N    3.691 --    78 C    1.220    95 N    1.219    85 C    1.005
    95   7 N    2.965 --    83 C    1.426    94 N    1.219    78 C    0.134
    96   7 N    3.369 --    84 C    1.252    92 H    0.942    91 H    0.942
                            98 O    0.193
    97   8 O    2.000 --    77 C    1.655    93 N    0.189
    98   8 O    1.973 --    84 C    1.660    96 N    0.193
    99   6 C    3.970 --   102 C    1.007   101 H    0.974   100 H    0.972
                           118 N    0.959
   100   1 H    0.997 --    99 C    0.972
   101   1 H    0.996 --    99 C    0.974
   102   6 C    3.991 --    99 C    1.007   105 C    1.006   103 H    0.979
                           104 H    0.970
   103   1 H    0.997 --   102 C    0.979
   104   1 H    0.995 --   102 C    0.970
   105   6 C    3.994 --   102 C    1.006    60 C    1.002   107 H    0.981
                           106 H    0.976
   106   1 H    0.997 --   105 C    0.976
   107   1 H    0.997 --   105 C    0.981
   108   6 C    3.950 --    63 O    1.656   118 N    1.239    60 C    0.976
   109   6 C    3.994 --   116 C    1.442   111 C    1.405   110 H    0.974
                           114 C    0.109
   110   1 H    0.995 --   109 C    0.974
   111   6 C    3.969 --   109 C    1.405   112 C    1.405   118 N    0.992
   112   6 C    3.993 --   114 C    1.441   111 C    1.405   113 H    0.973
                           116 C    0.110
   113   1 H    0.994 --   112 C    0.973
   114   6 C    3.992 --   112 C    1.441    72 C    1.403   115 H    0.973
                           109 C    0.109
   115   1 H    0.995 --   114 C    0.973
   116   6 C    3.993 --   109 C    1.442    72 C    1.402    73 H    0.974
                           112 C    0.110
   117   1 H    0.995 --    88 C    0.971
   118   7 N    3.481 --   108 C    1.239   111 C    0.992    99 C    0.959
                            63 O    0.189
 ---------------------------------------------------------------------------

Topologies differ in total number of bonds
Writing topology from bond orders to xtbtopo.mol

molecular dipole:
                 x           y           z       tot (Debye)
 q only:       -0.594       0.084       3.166
   full:       -0.957       0.083       3.553       9.356
molecular quadrupole (traceless):
                xx          xy          yy          xz          yz          zz
 q only:     -334.727     -52.279    -126.050     164.767     358.943     460.777
  q+dip:     -387.470     -95.193    -150.242     153.741     394.403     537.712
   full:     -384.409     -95.193    -154.170     158.743     394.398     538.579


           -------------------------------------------------
          | TOTAL ENERGY             -193.660183486072 Eh   |
          | GRADIENT NORM               1.318528329536 Eh/α |
          | HOMO-LUMO GAP               2.865038857187 eV   |
           -------------------------------------------------

------------------------------------------------------------------------
 * finished run on 2026/10/03 at 19:14:22.209     
------------------------------------------------------------------------
 total:
 * wall-time:     0 d,  0 h,  0 min,  0.482 sec
 *  cpu-time:     0 d,  0 h,  0 min,  0.438 sec
 * ratio c/w:     0.908 speedup
 SCF:
 * wall-time:     0 d,  0 h,  0 min,  0.381 sec
 *  cpu-time:     0 d,  0 h,  0 min,  0.391 sec
 * ratio c/w:     1.025 speedup

normal termination of xtb
