118
d_D3a_D7a
C     25.91324538    39.09660179    43.40885425
H     26.60741581    38.47993178    43.12551465
H     26.34412664    39.92921012    43.65726804
C     25.24561490    38.54083746    44.59239886
H     24.80614842    39.26201608    45.07160620
H     25.91560690    38.16156118    45.18173265
C     24.24908706    37.50405668    44.27256021
H     23.79152110    37.23828644    45.08576532
H     24.70268061    36.72335660    43.91685180
C     23.24636503    37.98687262    43.27827576
H     22.59275716    38.53114792    43.74379596
H     22.77910140    37.21752314    42.91784765
C     23.79585209    38.78459860    42.13453400
C     26.63255542    39.68600267    40.46895023
H     27.04445199    38.88273980    40.69486676
C     25.54542216    40.12784569    41.19153701
C     24.95768419    41.32713390    40.86052839
C     27.11189049    40.43237409    39.41189371
H     27.85495023    40.13822734    38.93599015
H     26.76903533    40.73897882    36.68626427
N     25.01577806    39.34949878    42.27502387
O     23.14108628    38.92606589    41.10548106
H     24.24247238    41.64425870    41.36349158
C     25.42008065    42.05952470    39.79293120
H     25.00584134    42.86098808    39.56685734
C     26.49181645    41.61145269    39.05964642
C     26.70312007    41.70211910    36.59013962
H     25.80622611    41.91141316    36.28666261
C     27.16532686    43.68058474    38.01297325
C     27.37709298    44.32646179    36.70781759
C     27.70702117    43.65649931    35.56439047
C     27.70212606    42.16790913    35.54818615
H     28.58681789    41.82835996    35.75648245
H     27.44648784    41.84358638    34.67095038
C     27.98966607    44.65562931    34.63209148
C     28.46068506    44.48204812    33.23993593
C     27.16049444    46.77999174    37.27591270
C     26.06154869    46.73223615    38.10359158
H     25.50717959    45.98517262    38.09745596
C     25.78234755    47.79116445    38.94055254
H     25.04192637    47.75835844    39.50078148
C     26.59873206    48.89591044    38.94558689
C     27.67807229    48.95515505    38.08156629
H     28.21235087    49.71564552    38.06284479
C     27.96542454    47.90231732    37.25310080
H     28.69699997    47.94245970    36.67997133
C     25.42716093    49.86417233    40.76188656
H     25.44464661    50.64584136    41.31944100
H     25.58469521    49.08444120    41.29898895
H     24.56773413    49.79316184    40.33931567
H     28.68662279    45.53253268    31.64561970
H     28.04756836    46.24263754    32.75003059
N     26.93156476    42.33678397    37.90127357
N     27.46659002    45.66264936    36.44068230
N     27.82756186    45.87526555    35.15786658
N     28.42064811    45.56810713    32.47377054
O     27.27845798    44.25102180    39.07868256
O     28.88367393    43.39848071    32.87510276
O     26.43449692    49.96743514    39.77090591
C     18.53816469    38.14522738    35.41210134
H     17.88455681    37.60095208    35.87762154
H     18.07090106    38.91457686    35.05167323
O     18.43288594    37.20603411    33.23930664
C     21.89053171    27.23618956    31.07941247
C     22.96987195    27.17694495    30.21539187
H     23.50415053    26.41645448    30.19667037
C     20.71896058    26.26792767    32.89571214
H     20.73644627    25.48625864    33.45326658
H     20.87649487    27.04765880    33.43281453
H     19.85953379    26.33893816    32.47314125
O     21.72629657    26.16466486    31.90473149
C     21.78361611    34.52064731    31.19347199
H     23.14674988    35.99387266    31.06981573
C     21.99491972    34.42998090    28.72396520
H     21.09802577    34.22068684    28.42048819
H     22.06083498    35.39312118    28.82008985
C     22.45712652    32.45151526    30.14679883
C     22.66889264    31.80563821    28.84164317
C     22.99882083    32.47560069    27.69821605
C     22.99392571    33.96419087    27.68201173
H     23.87861754    34.30374004    27.89030803
H     22.73828750    34.28851362    26.80477596
C     23.28146572    31.47647069    26.76591706
C     23.75248471    31.65005188    25.37376151
C     22.45229410    29.35210826    29.40973828
C     21.35334835    29.39986385    30.23741716
H     20.79897925    30.14692738    30.23128154
C     21.07414720    28.34093555    31.07437811
C     23.25722419    28.22978268    29.38692638
H     23.98879962    28.18964030    28.81379691
H     23.97842244    30.59956732    23.77944528
H     23.33936801    29.88946246    24.88385617
N     22.22336441    33.79531603    30.03509915
N     22.75838967    30.46945064    28.57450788
N     23.11936151    30.25683445    27.29169216
N     23.71244776    30.56399287    24.60759612
O     22.57025763    31.88107820    31.21250814
O     24.17547358    32.73361929    25.00892834
C     21.20504504    37.03549821    35.54267983
H     21.89921547    37.65216822    35.25934023
H     21.63592629    36.20288988    35.79109362
C     20.53741456    37.59126254    36.72622444
H     20.09794807    36.87008392    37.20543178
H     21.20740656    37.97053882    37.31555822
C     19.54088671    38.62804332    36.40638578
H     19.08332075    38.89381356    37.21959090
H     19.99448026    39.40874340    36.05067738
C     19.08765175    37.34750140    34.26835958
C     21.92435507    36.44609733    32.60277580
H     22.33625164    37.24936020    32.82869233
C     20.83722181    36.00425431    33.32536259
C     20.24948384    34.80496610    32.99435397
H     19.53427203    34.48784130    33.49731716
C     20.71188030    34.07257530    31.92675677
H     20.29764099    33.27111192    31.70068292
C     22.40369015    35.69972591    31.54571929
H     20.33372603    28.37374156    31.63460706
N     20.30757771    36.78260122    34.40884945
