12
Coordinates from ORCA-job Monomer_XTB2_SMD E -16.989056812540
  C       0.000000      0.000000      0.000000
  O       0.000000      1.220000      0.000000
  H      -0.953000     -0.550000      0.000000
  N       1.169000     -0.675000      0.000000
  C       1.169000     -2.125000      0.000000
  C       2.425000      0.050000      0.000000
  H       2.197000     -2.488000      0.000000
  H       0.655000     -2.488000      0.890000
  H       0.655000     -2.488000     -0.890000
  H       3.253000     -0.659000      0.000000
  H       2.482000      0.677000      0.891000
  H       2.482000      0.677000     -0.891000
12
Coordinates from ORCA-job Monomer_XTB2_SMD E -16.991143275550
  C       0.026561      0.003438     -0.000130
  O      -0.058322      1.223913     -0.000221
  H      -0.886418     -0.605488      0.000008
  N       1.185798     -0.667713     -0.000189
  C       1.148539     -2.121645      0.000168
  C       2.439039      0.058383     -0.000138
  H       2.162145     -2.510880      0.000699
  H       0.628295     -2.482384      0.888920
  H       0.629159     -2.482804     -0.888919
  H       3.265085     -0.645669     -0.001006
  H       2.497437      0.690130      0.887295
  H       2.496683      0.691719     -0.886487
12
Coordinates from ORCA-job Monomer_XTB2_SMD E -16.991646691240
  C       0.034831      0.015145     -0.000220
  O      -0.058091      1.233777     -0.000461
  H      -0.868535     -0.615237     -0.000063
  N       1.179664     -0.667905     -0.000287
  C       1.145917     -2.120520      0.000309
  C       2.433540      0.055245     -0.000206
  H       2.160489     -2.506591      0.001273
  H       0.628886     -2.488573      0.887990
  H       0.630413     -2.489294     -0.887976
  H       3.259244     -0.648701     -0.001920
  H       2.494586      0.690404      0.884998
  H       2.493057      0.693249     -0.883435
12
Coordinates from ORCA-job Monomer_XTB2_SMD E -16.991797645470
  C       0.035901      0.025157     -0.000410
  O      -0.056925      1.240993     -0.000736
  H      -0.862697     -0.619778     -0.000193
  N       1.172637     -0.669422     -0.000363
  C       1.145317     -2.119031      0.000458
  C       2.430335      0.050887     -0.000232
  H       2.162393     -2.499858      0.001821
  H       0.631219     -2.493217      0.887497
  H       0.633275     -2.494234     -0.887367
  H       3.257324     -0.652081     -0.002932
  H       2.493822      0.688698      0.883433
  H       2.491398      0.692886     -0.880976
12
Coordinates from ORCA-job Monomer_XTB2_SMD E -16.991818350450
  C       0.034049      0.027915     -0.000476
  O      -0.053777      1.242735     -0.000968
  H      -0.864994     -0.617811     -0.000361
  N       1.170158     -0.670386     -0.000316
  C       1.146313     -2.118971      0.000544
  C       2.429303      0.049323     -0.000204
  H       2.164419     -2.497292      0.002007
  H       0.633023     -2.495079      0.887501
  H       0.635176     -2.496152     -0.887223
  H       3.257071     -0.652568     -0.003464
  H       2.493112      0.687216      0.883426
  H       2.490147      0.692070     -0.880467
12
Coordinates from ORCA-job Monomer_XTB2_SMD E -16.991824368180
  C       0.032649      0.028967     -0.000675
  O      -0.049697      1.243535     -0.001176
  H      -0.867259     -0.615162     -0.000466
  N       1.168880     -0.671139     -0.000311
  C       1.147328     -2.119383      0.000639
  C       2.428350      0.048770     -0.000179
  H       2.165895     -2.496290      0.002222
  H       0.634221     -2.496427      0.887493
  H       0.636490     -2.497610     -0.887035
  H       3.256805     -0.652128     -0.004050
  H       2.491929      0.686109      0.883859
  H       2.488409      0.691757     -0.880320
12
Coordinates from ORCA-job Monomer_XTB2_SMD E -16.991825060020
  C       0.032517      0.028947     -0.000711
  O      -0.047964      1.243739     -0.001476
  H      -0.867594     -0.614347     -0.000674
  N       1.168730     -0.671375     -0.000259
  C       1.147601     -2.119657      0.000742
  C       2.427944      0.048887     -0.000160
  H       2.166172     -2.496418      0.002364
  H       0.634397     -2.496804      0.887520
  H       0.636695     -2.498048     -0.886845
  H       3.256630     -0.651732     -0.004609
  H       2.491473      0.685688      0.884258
  H       2.487399      0.692120     -0.880151
12
Coordinates from ORCA-job Monomer_XTB2_SMD E -16.991825210550
  C       0.032613      0.028849     -0.000993
  O      -0.047152      1.243843     -0.001669
  H      -0.867524     -0.614116     -0.000721
  N       1.168739     -0.671492     -0.000338
  C       1.147670     -2.119803      0.000856
  C       2.427746      0.049026     -0.000171
  H       2.166207     -2.496599      0.002667
  H       0.634264     -2.496844      0.887561
  H       0.636796     -2.498319     -0.886694
  H       3.256525     -0.651511     -0.005304
  H       2.491386      0.685247      0.884648
  H       2.486729      0.692719     -0.879844
