99
Coordinates from ORCA-job Apixaban_Explicit4DMSO_XTB2_Opt E -155.788357999700
  C          24.71310049174481    -17.01557974779785      1.16024573634466
  C          25.28746039018219    -17.78061738847040      2.34181364966759
  C          26.48696723953416    -18.66325925975836      2.03868725623454
  N          27.18124079591595    -18.41717839511484      0.89368809772059
  C          26.70634221863171    -17.53971230609039     -0.16937654069344
  C          25.86598283226045    -16.39843064910755      0.38461029878284
  C          28.37817119988551    -19.12798054879192      0.63864416876057
  C          29.35438854322885    -19.22688359898802      1.62429164815305
  C          30.53579923995825    -19.89313577365137      1.37579373072225
  C          30.77684021173825    -20.46137315178740      0.12881572671470
  C          29.80175015395776    -20.36085244038265     -0.85797725919860
  C          28.61146529399830    -19.70570862510158     -0.60447923179796
  N          31.98644656079225    -21.14825983774145     -0.11846901710236
  C          31.91889863963776    -22.37076510328569     -0.91081142668271
  C          32.87444124656659    -23.43611045060611     -0.38461395358831
  C          34.20773216092794    -22.79477867931951     -0.28664314205287
  C          34.33091227890743    -21.44311074182447      0.00752908938907
  C          33.17470266531453    -20.56497427393561      0.23794512348063
  O          26.82062938912525    -19.53327179665149      2.82453848528472
  O          33.23649126724455    -19.44560911752526      0.71511749161511
  C          35.52372893759485    -23.25253085758546     -0.44992687345501
  N          36.37859574694367    -22.24376901215105     -0.27470267533538
  N          35.66763672882437    -21.16587035568368      0.01508941543292
  C          36.36873418793913    -19.96962636106907      0.26080144100047
  C          35.96446513980489    -24.60415689075154     -0.82143715542296
  N          37.27393234639207    -24.77057490851880     -1.00099424167183
  O          35.15475463568652    -25.52113213103993     -0.96846920474416
  C          36.01099468919103    -19.09622824800138      1.28213774492058
  C          36.76702776613491    -17.96787599668426      1.50695271736906
  C          37.90184576066230    -17.69469573540633      0.73944969646973
  C          38.26654181017263    -18.58561483319148     -0.26601648974592
  C          37.50276265894222    -19.71277461444226     -0.49847692391363
  O          38.57141110573593    -16.55697699381912      1.04941031595888
  C          39.74555697004495    -16.23185012696481      0.33229624028756
  H          24.16512013076856    -17.68662644013973      0.49662747806007
  H          24.02210982057816    -16.25072420971070      1.51820989731592
  H          25.63696946748709    -17.07776197764700      3.10341639213630
  H          24.53299629507831    -18.40834779579532      2.82024906541778
  H          27.58471105457839    -17.15680781980307     -0.69726086584343
  H          26.08955050811630    -18.10640945346236     -0.87859733832141
  H          26.47057669064593    -15.76626200979357      1.03880325409911
  H          25.49908867582722    -15.79229460684909     -0.44371967278699
  H          29.18003888917155    -18.78862194485930      2.59309277464901
  H          31.28306619577019    -19.96200313137883      2.14874734499169
  H          29.97068794835913    -20.78746972071584     -1.83478138341133
  H          27.86290374904782    -19.64634080454134     -1.37945853067081
  H          30.89383849821299    -22.73999335932118     -0.87509324418889
  H          32.17391926480789    -22.15149802397507     -1.95583585902020
  H          32.56060036750701    -23.77564627004481      0.60754721496906
  H          32.87781790538667    -24.29739384647392     -1.05289992196398
  H          37.90107897667272    -23.99111394152082     -0.90263989343889
  H          37.56999328422278    -25.68398025907349     -1.35954520453663
  H          35.14072415560888    -19.28889037606827      1.88486636605838
  H          36.49815682953172    -17.27848492927701      2.29102951855853
  H          39.13988058054503    -18.41039948048254     -0.87257977095915
  H          37.78370330631770    -20.40818419068630     -1.27366278357068
  H          39.53759871349568    -16.10653299644634     -0.73384605139242
  H          40.09570737266301    -15.28591786428621      0.74693093893516
  H          40.51624591813642    -16.99536516572826      0.46834124182286
  C          23.14851583853852    -21.67344255965479     -1.91763702038014
  S          24.49648143760911    -20.53724112216873     -1.37310795270227
  C          24.54406736185365    -21.09908347614704      0.38083608010785
  O          23.89188897491909    -19.19747413343991     -1.32801547013637
  H          22.90219923608941    -21.41443894311561     -2.94215407806576
  H          23.51200482628932    -22.69275805325851     -1.86777364261488
  H          22.27561590210734    -21.53765677743307     -1.28696246362419
  H          23.53901819724517    -21.16525527402161      0.78206086728896
  H          25.05809059122386    -22.04907834785928      0.44196438660789
  H          25.09646742980771    -20.33416275972943      0.91419451005251
  C          35.88547491153368    -29.33964306656672     -2.91506499125876
  S          35.84419084410460    -27.66116148359721     -2.12087755921331
  C          35.10015282585595    -26.85164800945934     -3.59530745262023
  O          37.26749032863419    -27.25987618916576     -2.13474831699512
  H          36.42853602803572    -30.00100597397940     -2.24931458059622
  H          34.86908082838853    -29.69187958471350     -3.03782459426097
  H          36.39543694646110    -29.28877265165053     -3.86912535098688
  H          35.85534441620050    -26.78278876449043     -4.37228341943836
  H          34.24562411662480    -27.42852333733189     -3.92416958620806
  H          34.77521791136017    -25.86279339397569     -3.29523585148417
  C          37.79613954036534    -13.82043826618849      2.69065594411880
  S          39.54758640913288    -13.43834195224430      3.12009107593267
  C          39.23460899078059    -11.66613695716045      3.54844609235126
  O          40.27528060878156    -13.41730548468932      1.84441095422190
  H          37.78607362074788    -14.81636852937065      2.25713475870717
  H          37.20809697098832    -13.79844685679414      3.60118537569276
  H          37.42452032639790    -13.10407893900760      1.96667462416769
  H          38.80985698593857    -11.15308202821496      2.69310062082931
  H          38.56430702862737    -11.62956937807915      4.40002875741829
  H          40.18683192312103    -11.21627832580608      3.80714512382895
  C          30.64683813323077    -28.23690884535756     -1.44596218497389
  S          32.22293443002019    -27.34244125151074     -1.84011043370321
  C          32.82351449192316    -27.29908892177533     -0.10707709530852
  O          31.81502860732283    -25.97059113820428     -2.16776307939757
  H          30.09322649041043    -28.36710269701366     -2.36907844338086
  H          30.89443097471824    -29.20234869457770     -1.02039091257730
  H          30.06156780350303    -27.64425410601730     -0.75304741078341
  H          32.08295729847966    -26.81327061392700      0.51856258370688
  H          33.01059838592499    -28.31421019920036      0.22142530431748
  H          33.74464317454307    -26.72662533378044     -0.12589002445338
