99
Coordinates from ORCA-job Apixaban_Explicit4DMSO_r2SCAN3c_SinglePoint_KeepDens
  C          24.71310048999999    -17.01557975000000      1.16024574000000
  C          25.28746039000000    -17.78061739000000      2.34181365000000
  C          26.48696724000000    -18.66325926000000      2.03868726000000
  N          27.18124079999999    -18.41717840000000      0.89368810000000
  C          26.70634222000000    -17.53971231000000     -0.16937654000000
  C          25.86598282999999    -16.39843065000000      0.38461030000000
  C          28.37817119999999    -19.12798055000000      0.63864417000000
  C          29.35438854000000    -19.22688360000000      1.62429165000000
  C          30.53579923999999    -19.89313577000000      1.37579373000000
  C          30.77684020999999    -20.46137315000000      0.12881573000000
  C          29.80175014999999    -20.36085243999999     -0.85797726000000
  C          28.61146529000000    -19.70570863000000     -0.60447923000000
  N          31.98644656000000    -21.14825984000000     -0.11846902000000
  C          31.91889864000000    -22.37076510000000     -0.91081143000000
  C          32.87444125000000    -23.43611044999999     -0.38461395000000
  C          34.20773216000000    -22.79477867999999     -0.28664314000000
  C          34.33091228000000    -21.44311073999999      0.00752909000000
  C          33.17470267000000    -20.56497427000000      0.23794512000000
  O          26.82062939000000    -19.53327179999999      2.82453849000000
  O          33.23649127000000    -19.44560912000000      0.71511749000000
  C          35.52372893999999    -23.25253086000000     -0.44992687000000
  N          36.37859575000000    -22.24376901000000     -0.27470268000000
  N          35.66763673000000    -21.16587036000000      0.01508942000000
  C          36.36873419000000    -19.96962635999999      0.26080144000000
  C          35.96446514000000    -24.60415689000000     -0.82143716000000
  N          37.27393235000000    -24.77057490999999     -1.00099424000000
  O          35.15475463999999    -25.52113213000000     -0.96846920000000
  C          36.01099469000000    -19.09622824999999      1.28213774000000
  C          36.76702776999998    -17.96787600000000      1.50695272000000
  C          37.90184576000000    -17.69469574000000      0.73944970000000
  C          38.26654181000000    -18.58561483000000     -0.26601649000000
  C          37.50276266000000    -19.71277461000000     -0.49847692000000
  O          38.57141111000000    -16.55697699000000      1.04941032000000
  C          39.74555697000000    -16.23185013000000      0.33229624000000
  H          24.16512012999999    -17.68662644000000      0.49662748000000
  H          24.02210982000000    -16.25072421000000      1.51820990000000
  H          25.63696947000000    -17.07776197999999      3.10341639000000
  H          24.53299630000000    -18.40834780000000      2.82024907000000
  H          27.58471105000000    -17.15680782000000     -0.69726087000000
  H          26.08955050999999    -18.10640945000000     -0.87859734000000
  H          26.47057669000000    -15.76626201000000      1.03880325000000
  H          25.49908868000000    -15.79229461000000     -0.44371967000000
  H          29.18003888999999    -18.78862194000000      2.59309277000000
  H          31.28306619999999    -19.96200313000000      2.14874734000000
  H          29.97068795000000    -20.78746972000000     -1.83478138000000
  H          27.86290375000000    -19.64634080000000     -1.37945853000000
  H          30.89383850000000    -22.73999335999999     -0.87509324000000
  H          32.17391926000000    -22.15149802000000     -1.95583586000000
  H          32.56060037000000    -23.77564626999999      0.60754721000000
  H          32.87781791000000    -24.29739384999999     -1.05289992000000
  H          37.90107898000000    -23.99111394000000     -0.90263989000000
  H          37.56999328000000    -25.68398025999999     -1.35954520000000
  H          35.14072416000000    -19.28889038000000      1.88486637000000
  H          36.49815683000000    -17.27848493000000      2.29102952000000
  H          39.13988058000000    -18.41039948000000     -0.87257977000000
  H          37.78370330999999    -20.40818419000000     -1.27366278000000
  H          39.53759871000000    -16.10653300000000     -0.73384605000000
  H          40.09570736999999    -15.28591786000000      0.74693094000000
  H          40.51624592000000    -16.99536517000000      0.46834124000000
  C          23.14851584000000    -21.67344256000000     -1.91763702000000
  S          24.49648144000000    -20.53724112000000     -1.37310795000000
  C          24.54406735999999    -21.09908348000000      0.38083608000000
  O          23.89188896999999    -19.19747413000000     -1.32801547000000
  H          22.90219924000000    -21.41443894000000     -2.94215408000000
  H          23.51200483000000    -22.69275805000000     -1.86777364000000
  H          22.27561590000000    -21.53765677999999     -1.28696246000000
  H          23.53901820000000    -21.16525527000000      0.78206087000000
  H          25.05809059000000    -22.04907835000000      0.44196439000000
  H          25.09646743000000    -20.33416276000000      0.91419451000000
  C          35.88547491000000    -29.33964307000000     -2.91506499000000
  S          35.84419084000000    -27.66116148000000     -2.12087756000000
  C          35.10015283000000    -26.85164800999999     -3.59530745000000
  O          37.26749033000000    -27.25987618999999     -2.13474832000000
  H          36.42853603000000    -30.00100597000000     -2.24931458000000
  H          34.86908082999999    -29.69187958000000     -3.03782459000000
  H          36.39543694999998    -29.28877264999999     -3.86912535000000
  H          35.85534441999999    -26.78278876000000     -4.37228342000000
  H          34.24562412000000    -27.42852334000000     -3.92416959000000
  H          34.77521790999999    -25.86279338999999     -3.29523585000000
  C          37.79613954000000    -13.82043827000000      2.69065594000000
  S          39.54758641000000    -13.43834195000000      3.12009108000000
  C          39.23460899000000    -11.66613696000000      3.54844609000000
  O          40.27528061000000    -13.41730548000000      1.84441095000000
  H          37.78607361999999    -14.81636853000000      2.25713476000000
  H          37.20809697000000    -13.79844686000000      3.60118538000000
  H          37.42452032999999    -13.10407894000000      1.96667462000000
  H          38.80985699000000    -11.15308203000000      2.69310062000000
  H          38.56430703000000    -11.62956938000000      4.40002876000000
  H          40.18683192000000    -11.21627833000000      3.80714512000000
  C          30.64683813000000    -28.23690885000000     -1.44596218000000
  S          32.22293443000000    -27.34244125000000     -1.84011043000000
  C          32.82351449000000    -27.29908891999999     -0.10707710000000
  O          31.81502860999999    -25.97059114000000     -2.16776308000000
  H          30.09322648999999    -28.36710270000000     -2.36907844000000
  H          30.89443097000000    -29.20234869000000     -1.02039091000000
  H          30.06156780000000    -27.64425411000000     -0.75304741000000
  H          32.08295730000000    -26.81327061000000      0.51856258000000
  H          33.01059839000000    -28.31421019999999      0.22142530000000
  H          33.74464317000000    -26.72662533000000     -0.12589002000000
