118
d_D9_D7a
C     25.91324538    25.25440179    43.40885425
H     26.60741581    24.63773178    43.12551465
H     26.34412664    26.08701012    43.65726804
C     25.24561490    24.69863746    44.59239886
H     24.80614842    25.41981608    45.07160620
H     25.91560690    24.31936118    45.18173265
C     24.24908706    23.66185668    44.27256021
H     23.79152110    23.39608644    45.08576532
H     24.70268061    22.88115660    43.91685180
C     23.24636503    24.14467262    43.27827576
H     22.59275716    24.68894792    43.74379596
H     22.77910140    23.37532314    42.91784765
C     23.79585209    24.94239860    42.13453400
C     26.63255542    25.84380267    40.46895023
H     27.04445199    25.04053980    40.69486676
C     25.54542216    26.28564569    41.19153701
C     24.95768419    27.48493390    40.86052839
C     27.11189049    26.59017409    39.41189371
H     27.85495023    26.29602734    38.93599015
H     26.76903533    26.89677882    36.68626427
N     25.01577806    25.50729878    42.27502387
O     23.14108628    25.08386589    41.10548106
H     24.24247238    27.80205870    41.36349158
C     25.42008065    28.21732470    39.79293120
H     25.00584134    29.01878808    39.56685734
C     26.49181645    27.76925269    39.05964642
C     26.70312007    27.85991910    36.59013962
H     25.80622611    28.06921316    36.28666261
C     27.16532686    29.83838474    38.01297325
C     27.37709298    30.48426179    36.70781759
C     27.70702117    29.81429931    35.56439047
C     27.70212606    28.32570913    35.54818615
H     28.58681789    27.98615996    35.75648245
H     27.44648784    28.00138638    34.67095038
C     27.98966607    30.81342931    34.63209148
C     28.46068506    30.63984812    33.23993593
C     27.16049444    32.93779174    37.27591270
C     26.06154869    32.89003615    38.10359158
H     25.50717959    32.14297262    38.09745596
C     25.78234755    33.94896445    38.94055254
H     25.04192637    33.91615844    39.50078148
C     26.59873206    35.05371044    38.94558689
C     27.67807229    35.11295505    38.08156629
H     28.21235087    35.87344552    38.06284479
C     27.96542454    34.06011732    37.25310080
H     28.69699997    34.10025970    36.67997133
C     25.42716093    36.02197233    40.76188656
H     25.44464661    36.80364136    41.31944100
H     25.58469521    35.24224120    41.29898895
H     24.56773413    35.95096184    40.33931567
H     28.68662279    31.69033268    31.64561970
H     28.04756836    32.40043754    32.75003059
N     26.93156476    28.49458397    37.90127357
N     27.46659002    31.82044936    36.44068230
N     27.82756186    32.03306555    35.15786658
N     28.42064811    31.72590713    32.47377054
O     27.27845798    30.40882180    39.07868256
O     28.88367393    29.55628071    32.87510276
O     26.43449692    36.12523514    39.77090591
C     18.53816469    38.14522738    35.41210134
H     17.88455681    37.60095208    35.87762154
H     18.07090106    38.91457686    35.05167323
O     18.43288594    37.20603411    33.23930664
C     21.89053171    27.23618956    31.07941247
C     22.96987195    27.17694495    30.21539187
H     23.50415053    26.41645448    30.19667037
C     20.71896058    26.26792767    32.89571214
H     20.73644627    25.48625864    33.45326658
H     20.87649487    27.04765880    33.43281453
H     19.85953379    26.33893816    32.47314125
O     21.72629657    26.16466486    31.90473149
C     21.78361611    34.52064731    31.19347199
H     23.14674988    35.99387266    31.06981573
C     21.99491972    34.42998090    28.72396520
H     21.09802577    34.22068684    28.42048819
H     22.06083498    35.39312118    28.82008985
C     22.45712652    32.45151526    30.14679883
C     22.66889264    31.80563821    28.84164317
C     22.99882083    32.47560069    27.69821605
C     22.99392571    33.96419087    27.68201173
H     23.87861754    34.30374004    27.89030803
H     22.73828750    34.28851362    26.80477596
C     23.28146572    31.47647069    26.76591706
C     23.75248471    31.65005188    25.37376151
C     22.45229410    29.35210826    29.40973828
C     21.35334835    29.39986385    30.23741716
H     20.79897925    30.14692738    30.23128154
C     21.07414720    28.34093555    31.07437811
C     23.25722419    28.22978268    29.38692638
H     23.98879962    28.18964030    28.81379691
H     23.97842244    30.59956732    23.77944528
H     23.33936801    29.88946246    24.88385617
N     22.22336441    33.79531603    30.03509915
N     22.75838967    30.46945064    28.57450788
N     23.11936151    30.25683445    27.29169216
N     23.71244776    30.56399287    24.60759612
O     22.57025763    31.88107820    31.21250814
O     24.17547358    32.73361929    25.00892834
C     21.20504504    37.03549821    35.54267983
H     21.89921547    37.65216822    35.25934023
H     21.63592629    36.20288988    35.79109362
C     20.53741456    37.59126254    36.72622444
H     20.09794807    36.87008392    37.20543178
H     21.20740656    37.97053882    37.31555822
C     19.54088671    38.62804332    36.40638578
H     19.08332075    38.89381356    37.21959090
H     19.99448026    39.40874340    36.05067738
C     19.08765175    37.34750140    34.26835958
C     21.92435507    36.44609733    32.60277580
H     22.33625164    37.24936020    32.82869233
C     20.83722181    36.00425431    33.32536259
C     20.24948384    34.80496610    32.99435397
H     19.53427203    34.48784130    33.49731716
C     20.71188030    34.07257530    31.92675677
H     20.29764099    33.27111192    31.70068292
C     22.40369015    35.69972591    31.54571929
H     20.33372603    28.37374156    31.63460706
N     20.30757771    36.78260122    34.40884945
