      -----------------------------------------------------------      
     |                   =====================                   |     
     |                           x T B                           |     
     |                   =====================                   |     
     |                         S. Grimme                         |     
     |          Mulliken Center for Theoretical Chemistry        |     
     |                    University of Bonn                     |     
      -----------------------------------------------------------      

   * xtb version 6.7.1pre (5071a88) compiled by 'Marcel@Raven' on 2024-07-23

   xtb is free software: you can redistribute it and/or modify it under
   the terms of the GNU Lesser General Public License as published by
   the Free Software Foundation, either version 3 of the License, or
   (at your option) any later version.
   
   xtb is distributed in the hope that it will be useful,
   but WITHOUT ANY WARRANTY; without even the implied warranty of
   MERCHANTABILITY or FITNESS FOR A PARTICULAR PURPOSE.  See the
   GNU Lesser General Public License for more details.
   
   Cite this work as:
   * C. Bannwarth, E. Caldeweyher, S. Ehlert, A. Hansen, P. Pracht,
     J. Seibert, S. Spicher, S. Grimme, WIREs Comput. Mol. Sci., 2020, 11,
     e01493. DOI: 10.1002/wcms.1493
   
   for GFN2-xTB:
   * C. Bannwarth, S. Ehlert and S. Grimme., J. Chem. Theory Comput., 2019,
     15, 1652-1671. DOI: 10.1021/acs.jctc.8b01176
   for GFN1-xTB:
   * S. Grimme, C. Bannwarth, P. Shushkov, J. Chem. Theory Comput., 2017,
     13, 1989-2009. DOI: 10.1021/acs.jctc.7b00118
   for GFN0-xTB:
   * P. Pracht, E. Caldeweyher, S. Ehlert, S. Grimme, ChemRxiv, 2019, preprint.
     DOI: 10.26434/chemrxiv.8326202.v1
   for GFN-FF:
   * S. Spicher and S. Grimme, Angew. Chem. Int. Ed., 2020, 59, 15665-15673.
     DOI: 10.1002/anie.202004239
   
   for ALPB and GBSA implicit solvation:
   * S. Ehlert, M. Stahn, S. Spicher, S. Grimme, J. Chem. Theory Comput.,
     2021, 17, 4250-4261. DOI: 10.1021/acs.jctc.1c00471
   
   for ddCOSMO and CPCM-X implicit solvation:
   * M. Stahn, S. Ehlert, S. Grimme, J. Phys. Chem. A,
     2023, XX, XXXX-XXXX. DOI: 10.1021/acs.jpca.3c04382
   
   for DFT-D4:
   * E. Caldeweyher, C. Bannwarth and S. Grimme, J. Chem. Phys., 2017,
     147, 034112. DOI: 10.1063/1.4993215
   * E. Caldeweyher, S. Ehlert, A. Hansen, H. Neugebauer, S. Spicher,
     C. Bannwarth and S. Grimme, J. Chem. Phys., 2019, 150, 154122.
     DOI: 10.1063/1.5090222
   * E. Caldeweyher, J.-M. Mewes, S. Ehlert and S. Grimme, Phys. Chem. Chem. Phys.
     2020, 22, 8499-8512. DOI: 10.1039/D0CP00502A
   
   for sTDA-xTB:
   * S. Grimme and C. Bannwarth, J. Chem. Phys., 2016, 145, 054103.
     DOI: 10.1063/1.4959605
   
   in the mass-spec context:
   * V. Asgeirsson, C. Bauer and S. Grimme, Chem. Sci., 2017, 8, 4879.
     DOI: 10.1039/c7sc00601b
   * J. Koopman and S. Grimme, ACS Omega 2019, 4, 12, 15120-15133.
     DOI: 10.1021/acsomega.9b02011
   
   for metadynamics refer to:
   * S. Grimme, J. Chem. Theory Comput., 2019, 155, 2847-2862
     DOI: 10.1021/acs.jctc.9b00143
   
   for SPH calculations refer to:
   * S. Spicher and S. Grimme, J. Chem. Theory Comput., 2021, 17, 1701-1714
     DOI: 10.1021/acs.jctc.0c01306
   
   for ONIOM refer to:
   * C. Plett, A. Katbashev, S. Ehlert, S. Grimme, M. Bursch,
     Phys. Chem. Chem. Phys., 2023, 25, 17860-17868. DOI: 10.1039/D3CP02178E
   
   for DIPRO refer to:
   * J. Kohn, N. Gildemeister, S. Grimme, D. Fazzi, A. Hansen,
     J. Chem. Phys., 2023, just accepted.
   
   for PTB refer to:
   * S. Grimme, M. Mueller, A. Hansen, J. Chem. Phys., 2023, 158, 124111.
     DOI: 10.1063/5.0137838
   
   with help from (in alphabetical order)
   P. Atkinson, C. Bannwarth, F. Bohle, G. Brandenburg, E. Caldeweyher
   M. Checinski, S. Dohm, S. Ehlert, S. Ehrlich, I. Gerasimov, C. Hölzer
   A. Katbashev, J. Kohn, J. Koopman, C. Lavigne, S. Lehtola, F. März, M. Müller,
   F. Musil, H. Neugebauer, J. Pisarek, C. Plett, P. Pracht, F. Pultar,
   J. Seibert, P. Shushkov, S. Spicher, M. Stahn, M. Steiner, T. Strunk,
   J. Stückrath, T. Rose, and J. Unsleber
   
 * started run on 2026/10/03 at 18:56:06.985     
   ID    Z sym.   atoms
    1    6 C      1, 4, 7, 10, 13, 14, 16-18, 24, 26, 27, 29-32, 35-38, 40,
                  42, 43, 45, 47, 60, 64, 65, 67, 72, 74, 77-80, 83-86, 88,
                  89, 99, 102, 105, 108, 109, 111, 112, 114, 116
    2    1 H      2, 3, 5, 6, 8, 9, 11, 12, 15, 19, 20, 23, 25, 28, 33, 34,
                  39, 41, 44, 46, 48-52, 61, 62, 66, 68-70, 73, 75, 76, 81,
                  82, 87, 90-92, 100, 101, 103, 104, 106, 107, 110, 113, 115,
                  117
    3    7 N      21, 53-56, 93-96, 118
    4    8 O      22, 57-59, 63, 71, 97, 98

           -------------------------------------------------
          |                Calculation Setup                |
           -------------------------------------------------

          program call               : C:\ORCA_6.1.1\xTB_bigstack\xtb.exe d_D9_D7a.xyz -c 0 -u 0 -P 1 --acc 1.0 --namespace d_D9_D7a
          calculation namespace      : d_D9_D7a
          coordinate file            : d_D9_D7a.xyz
          omp threads                :                     1


molecular fragmentation (1/2 indicates fragments):
111111111111111111111111111111111111111111111111111111111112222222222222
2222222222222222222222222222222222222222222222
# atoms in fragment 1/2:    59    59
 fragment masses (1/2) :      459.50      459.50
CMA distance (Bohr)    :  18.388
constraining FC (au)   :  0.0500

           -------------------------------------------------
          |                 G F N 2 - x T B                 |
           -------------------------------------------------

        Reference                      10.1021/acs.jctc.8b01176
      * Hamiltonian:
        H0-scaling (s, p, d)           1.850000    2.230000    2.230000
        zeta-weighting                 0.500000
      * Dispersion:
        s8                             2.700000
        a1                             0.520000
        a2                             5.000000
        s9                             5.000000
      * Repulsion:
        kExp                           1.500000    1.000000
        rExp                           1.000000
      * Coulomb:
        alpha                          2.000000
        third order                    shell-resolved
        anisotropic                    true
        a3                             3.000000
        a5                             4.000000
        cn-shift                       1.200000
        cn-exp                         4.000000
        max-rad                        5.000000


          ...................................................
          :                      SETUP                      :
          :.................................................:
          :  # basis functions                 322          :
          :  # atomic orbitals                 322          :
          :  # shells                          186          :
          :  # electrons                       348          :
          :  max. iterations                   250          :
          :  Hamiltonian                  GFN2-xTB          :
          :  restarted?                      false          :
          :  GBSA solvation                  false          :
          :  PC potential                    false          :
          :  electronic temp.          300.0000000     K    :
          :  accuracy                    1.0000000          :
          :  -> integral cutoff          0.2500000E+02      :
          :  -> integral neglect         0.1000000E-07      :
          :  -> SCF convergence          0.1000000E-05 Eh   :
          :  -> wf. convergence          0.1000000E-03 e    :
          :  Broyden damping             0.4000000          :
          :  net charge                          0          :
          :  unpaired electrons                  0          :
          ...................................................

 iter      E             dE          RMSdq      gap      omega  full diag
   1   -197.4363376 -0.197436E+03  0.413E+00    2.86       0.0  T
   2   -197.9690326 -0.532695E+00  0.243E+00    2.59       1.0  T
   3   -198.0204488 -0.514162E-01  0.130E+00    3.11       1.0  T
   4   -198.0271559 -0.670709E-02  0.434E-01    2.98       1.0  T
   5   -198.0420104 -0.148545E-01  0.918E-02    3.04       1.0  T
   6   -198.0422198 -0.209382E-03  0.530E-02    3.04       1.0  T
   7   -198.0423863 -0.166521E-03  0.223E-02    3.05       1.0  T
   8   -198.0423933 -0.701852E-05  0.827E-03    3.05       1.1  T
   9   -198.0423962 -0.284102E-05  0.363E-03    3.05       2.5  T
  10   -198.0423964 -0.213740E-06  0.148E-03    3.05       6.2  T
  11   -198.0423965 -0.126416E-06  0.551E-04    3.05      16.7  T
  12   -198.0423965 -0.108451E-07  0.259E-04    3.05      35.5  T

   *** convergence criteria satisfied after 12 iterations ***

         #    Occupation            Energy/Eh            Energy/eV
      -------------------------------------------------------------
         1        2.0000           -0.7239272             -19.6991
       ...           ...                  ...                  ...
       168        2.0000           -0.3852554             -10.4833
       169        2.0000           -0.3838192             -10.4443
       170        2.0000           -0.3830645             -10.4237
       171        2.0000           -0.3810819             -10.3698
       172        2.0000           -0.3809433             -10.3660
       173        2.0000           -0.3801073             -10.3432
       174        2.0000           -0.3796075             -10.3296 (HOMO)
       175                         -0.2675536              -7.2805 (LUMO)
       176                         -0.2661511              -7.2423
       177                         -0.2404566              -6.5432
       178                         -0.2385583              -6.4915
       179                         -0.2345339              -6.3820
       ...                                ...                  ...
       322                          0.8698416              23.6696
      -------------------------------------------------------------
                  HL-Gap            0.1120539 Eh            3.0491 eV
             Fermi-level           -0.3235806 Eh           -8.8051 eV

 SCC (total)                   0 d,  0 h,  0 min,  0.368 sec
 SCC setup                      ...        0 min,  0.001 sec (  0.272%)
 Dispersion                     ...        0 min,  0.003 sec (  0.815%)
 classical contributions        ...        0 min,  0.001 sec (  0.272%)
 integral evaluation            ...        0 min,  0.032 sec (  8.696%)
 iterations                     ...        0 min,  0.193 sec ( 52.446%)
 molecular gradient             ...        0 min,  0.137 sec ( 37.228%)
 printout                       ...        0 min,  0.001 sec (  0.272%)

         :::::::::::::::::::::::::::::::::::::::::::::::::::::
         ::                     SUMMARY                     ::
         :::::::::::::::::::::::::::::::::::::::::::::::::::::
         :: total energy            -193.658422891937 Eh    ::
         :: gradient norm              1.318678081104 Eh/a0 ::
         :: HOMO-LUMO gap              3.049140892496 eV    ::
         ::.................................................::
         :: SCC energy              -198.041218076088 Eh    ::
         :: -> isotropic ES            0.296854435806 Eh    ::
         :: -> anisotropic ES          0.005546729571 Eh    ::
         :: -> anisotropic XC          0.036971273205 Eh    ::
         :: -> dispersion             -0.137968074943 Eh    ::
         :: repulsion energy           4.382795184151 Eh    ::
         :: add. restraining           0.000000000000 Eh    ::
         :: total charge               0.000000000000 e     ::
         :::::::::::::::::::::::::::::::::::::::::::::::::::::

           -------------------------------------------------
          |                Property Printout                |
           -------------------------------------------------

    * Orbital Energies and Occupations

         #    Occupation            Energy/Eh            Energy/eV
      -------------------------------------------------------------
         1        2.0000           -0.7239272             -19.6991
       ...           ...                  ...                  ...
       162        2.0000           -0.4055643             -11.0360
       163        2.0000           -0.3978301             -10.8255
       164        2.0000           -0.3964078             -10.7868
       165        2.0000           -0.3898518             -10.6084
       166        2.0000           -0.3882652             -10.5652
       167        2.0000           -0.3876781             -10.5493
       168        2.0000           -0.3852554             -10.4833
       169        2.0000           -0.3838192             -10.4443
       170        2.0000           -0.3830645             -10.4237
       171        2.0000           -0.3810819             -10.3698
       172        2.0000           -0.3809433             -10.3660
       173        2.0000           -0.3801073             -10.3432
       174        2.0000           -0.3796075             -10.3296 (HOMO)
       175                         -0.2675536              -7.2805 (LUMO)
       176                         -0.2661511              -7.2423
       177                         -0.2404566              -6.5432
       178                         -0.2385583              -6.4915
       179                         -0.2345339              -6.3820
       180                         -0.2335630              -6.3556
       181                         -0.2323261              -6.3219
       182                         -0.2303486              -6.2681
       183                         -0.2293582              -6.2412
       184                         -0.2279030              -6.2016
       185                         -0.2142036              -5.8288
       ...                                ...                  ...
       322                          0.8698416              23.6696
      -------------------------------------------------------------
                  HL-Gap            0.1120539 Eh            3.0491 eV
             Fermi-level           -0.3235806 Eh           -8.8051 eV

     #   Z          covCN         q      C6AA      α(0)
     1   6 C        3.762    -0.011    20.812     6.503
     2   1 H        0.930     0.057     2.229     2.335
     3   1 H        0.930     0.060     2.196     2.317
     4   6 C        3.827    -0.083    22.056     6.683
     5   1 H        0.930     0.055     2.258     2.350
     6   1 H        0.930     0.057     2.230     2.335
     7   6 C        3.825    -0.079    21.997     6.674
     8   1 H        0.930     0.053     2.288     2.365
     9   1 H        0.930     0.051     2.311     2.377
    10   6 C        3.826    -0.107    22.516     6.752
    11   1 H        0.930     0.074     2.044     2.236
    12   1 H        0.930     0.076     2.018     2.222
    13   6 C        2.766     0.268    22.476     7.764
    14   6 C        2.935    -0.056    29.385     8.890
    15   1 H        0.930     0.065     2.136     2.285
    16   6 C        2.930     0.069    26.453     8.435
    17   6 C        2.938    -0.043    29.056     8.841
    18   6 C        2.935    -0.056    29.401     8.893
    19   1 H        0.930     0.070     2.089     2.260
    20   1 H        0.930     0.070     2.084     2.257
    21   7 N        2.739    -0.113    23.464     7.194
    22   8 O        0.859    -0.468    23.085     6.442
    23   1 H        0.930     0.074     2.039     2.233
    24   6 C        2.936    -0.044    29.087     8.845
    25   1 H        0.930     0.072     2.066     2.247
    26   6 C        2.928     0.070    26.427     8.431
    27   6 C        3.764    -0.013    20.842     6.507
    28   1 H        0.930     0.059     2.207     2.323
    29   6 C        2.767     0.269    22.464     7.762
    30   6 C        3.096    -0.009    28.122     8.691
    31   6 C        3.070    -0.015    28.302     8.723
    32   6 C        3.821    -0.083    22.061     6.684
    33   1 H        0.930     0.077     2.004     2.214
    34   1 H        0.930     0.086     1.920     2.167
    35   6 C        3.172     0.028    27.004     8.488
    36   6 C        2.748     0.278    22.288     7.730
    37   6 C        2.920     0.047    26.941     8.512
    38   6 C        2.934    -0.042    29.039     8.838
    39   1 H        0.930     0.071     2.077     2.254
    40   6 C        2.932    -0.080    29.992     8.981
    41   1 H        0.930     0.067     2.113     2.273
    42   6 C        2.878     0.143    24.882     8.177
    43   6 C        2.936    -0.067    29.677     8.934
    44   1 H        0.930     0.078     1.998     2.211
    45   6 C        2.932    -0.046    29.147     8.854
    46   1 H        0.930     0.080     1.976     2.198
    47   6 C        3.664     0.013    20.627     6.514
    48   1 H        0.930     0.072     2.060     2.245
    49   1 H        0.930     0.060     2.202     2.320
    50   1 H        0.930     0.055     2.259     2.350
    51   1 H        0.862     0.206     1.074     1.623
    52   1 H        0.863     0.212     1.047     1.603
    53   7 N        2.745    -0.120    23.602     7.215
    54   7 N        3.019     0.088    19.712     6.594
    55   7 N        1.991    -0.240    27.081     7.718
    56   7 N        2.645    -0.283    27.301     7.760
    57   8 O        0.858    -0.445    22.607     6.375
    58   8 O        0.860    -0.448    22.672     6.384
    59   8 O        1.705    -0.282    18.689     5.837
    60   6 C        3.826    -0.107    22.518     6.752
    61   1 H        0.930     0.074     2.041     2.234
    62   1 H        0.930     0.077     2.015     2.219
    63   8 O        0.859    -0.467    23.063     6.439
    64   6 C        2.878     0.145    24.855     8.173
    65   6 C        2.936    -0.066    29.654     8.931
    66   1 H        0.930     0.079     1.984     2.202
    67   6 C        3.664     0.012    20.633     6.515
    68   1 H        0.930     0.074     2.043     2.235
    69   1 H        0.930     0.059     2.208     2.324
    70   1 H        0.930     0.057     2.237     2.339
    71   8 O        1.705    -0.280    18.656     5.832
    72   6 C        2.928     0.070    26.437     8.432
    73   1 H        0.930     0.069     2.094     2.263
    74   6 C        3.764    -0.013    20.841     6.507
    75   1 H        0.930     0.059     2.216     2.327
    76   1 H        0.930     0.070     2.086     2.258
    77   6 C        2.767     0.268    22.467     7.763
    78   6 C        3.096    -0.009    28.130     8.692
    79   6 C        3.070    -0.016    28.336     8.728
    80   6 C        3.821    -0.083    22.060     6.684
    81   1 H        0.930     0.077     2.010     2.217
    82   1 H        0.930     0.084     1.934     2.174
    83   6 C        3.172     0.026    27.046     8.495
    84   6 C        2.748     0.278    22.300     7.732
    85   6 C        2.920     0.046    26.977     8.517
    86   6 C        2.934    -0.042    29.047     8.839
    87   1 H        0.930     0.070     2.088     2.259
    88   6 C        2.932    -0.079    29.971     8.978
    89   6 C        2.932    -0.046    29.141     8.853
    90   1 H        0.930     0.081     1.972     2.196
    91   1 H        0.862     0.206     1.076     1.625
    92   1 H        0.863     0.212     1.048     1.603
    93   7 N        2.745    -0.120    23.612     7.217
    94   7 N        3.019     0.089    19.698     6.592
    95   7 N        1.991    -0.241    27.089     7.719
    96   7 N        2.645    -0.283    27.319     7.763
    97   8 O        0.858    -0.445    22.596     6.373
    98   8 O        0.860    -0.449    22.692     6.387
    99   6 C        3.762    -0.011    20.813     6.503
   100   1 H        0.930     0.058     2.226     2.333
   101   1 H        0.930     0.060     2.202     2.320
   102   6 C        3.827    -0.083    22.055     6.683
   103   1 H        0.930     0.055     2.262     2.352
   104   1 H        0.930     0.057     2.235     2.338
   105   6 C        3.825    -0.080    21.999     6.674
   106   1 H        0.930     0.053     2.287     2.365
   107   1 H        0.930     0.051     2.308     2.375
   108   6 C        2.766     0.268    22.475     7.764
   109   6 C        2.935    -0.056    29.387     8.890
   110   1 H        0.930     0.066     2.134     2.284
   111   6 C        2.930     0.069    26.449     8.434
   112   6 C        2.938    -0.042    29.051     8.840
   113   1 H        0.930     0.075     2.032     2.229
   114   6 C        2.936    -0.044    29.084     8.845
   115   1 H        0.930     0.072     2.060     2.244
   116   6 C        2.935    -0.057    29.412     8.894
   117   1 H        0.930     0.069     2.101     2.267
   118   7 N        2.739    -0.113    23.466     7.195

 Mol. C6AA /au·bohr⁶  :     167550.992368
 Mol. C8AA /au·bohr⁸  :    4001273.362774
 Mol. α(0) /au        :        634.441881


Wiberg/Mayer (AO) data.
largest (>0.10) Wiberg bond orders for each atom

 ---------------------------------------------------------------------------
     #   Z sym  total        # sym  WBO       # sym  WBO       # sym  WBO
 ---------------------------------------------------------------------------
     1   6 C    3.971 --     4 C    1.007     3 H    0.974     2 H    0.972
                            21 N    0.960
     2   1 H    0.997 --     1 C    0.972
     3   1 H    0.996 --     1 C    0.974
     4   6 C    3.992 --     1 C    1.007     7 C    1.006     5 H    0.979
                             6 H    0.971
     5   1 H    0.997 --     4 C    0.979
     6   1 H    0.996 --     4 C    0.971
     7   6 C    3.994 --     4 C    1.006    10 C    1.002     9 H    0.981
                             8 H    0.977
     8   1 H    0.997 --     7 C    0.977
     9   1 H    0.997 --     7 C    0.981
    10   6 C    3.990 --     7 C    1.002    13 C    0.976    12 H    0.964
                            11 H    0.955
    11   1 H    0.994 --    10 C    0.955
    12   1 H    0.994 --    10 C    0.964
    13   6 C    3.951 --    22 O    1.657    21 N    1.238    10 C    0.976
    14   6 C    3.994 --    18 C    1.442    16 C    1.406    15 H    0.974
                            24 C    0.109
    15   1 H    0.995 --    14 C    0.974
    16   6 C    3.968 --    14 C    1.406    17 C    1.405    21 N    0.991
    17   6 C    3.993 --    24 C    1.441    16 C    1.405    23 H    0.973
                            18 C    0.110
    18   6 C    3.993 --    14 C    1.442    26 C    1.401    19 H    0.974
                            17 C    0.110
    19   1 H    0.995 --    18 C    0.974
    20   1 H    0.995 --    27 C    0.974
    21   7 N    3.481 --    13 C    1.238    16 C    0.991     1 C    0.960
                            22 O    0.190
    22   8 O    1.967 --    13 C    1.657    21 N    0.190
    23   1 H    0.994 --    17 C    0.973
    24   6 C    3.992 --    17 C    1.441    26 C    1.403    25 H    0.973
                            14 C    0.109
    25   1 H    0.995 --    24 C    0.973
    26   6 C    3.966 --    24 C    1.403    18 C    1.401    53 N    0.998
    27   6 C    3.967 --    32 C    0.998    28 H    0.974    20 H    0.974
                            53 N    0.961
    28   1 H    0.996 --    27 C    0.974
    29   6 C    3.957 --    57 O    1.654    53 N    1.201    30 C    1.012
    30   6 C    3.952 --    31 C    1.431    54 N    1.218    29 C    1.012
                            55 N    0.135
    31   6 C    3.981 --    30 C    1.431    35 C    1.322    32 C    1.012
    32   6 C    3.989 --    31 C    1.012    27 C    0.998    34 H    0.962
                            33 H    0.961
    33   1 H    0.994 --    32 C    0.961
    34   1 H    0.992 --    32 C    0.962
    35   6 C    3.968 --    55 N    1.428    31 C    1.322    36 C    0.999
    36   6 C    3.952 --    58 O    1.660    56 N    1.254    35 C    0.999
    37   6 C    3.957 --    38 C    1.402    45 C    1.372    54 N    1.006
    38   6 C    3.991 --    40 C    1.434    37 C    1.402    39 H    0.973
                            43 C    0.108
    39   1 H    0.995 --    38 C    0.973
    40   6 C    3.991 --    38 C    1.434    42 C    1.381    41 H    0.971
    41   1 H    0.995 --    40 C    0.971
    42   6 C    3.932 --    40 C    1.381    43 C    1.345    59 O    1.068
    43   6 C    3.991 --    45 C    1.476    42 C    1.345    44 H    0.972
                            38 C    0.108
    44   1 H    0.993 --    43 C    0.972
    45   6 C    3.990 --    43 C    1.476    37 C    1.372    46 H    0.972
    46   1 H    0.993 --    45 C    0.972
    47   6 C    3.937 --    50 H    0.981    49 H    0.981    48 H    0.980
                            59 O    0.967
    48   1 H    0.994 --    47 C    0.980
    49   1 H    0.996 --    47 C    0.981
    50   1 H    0.997 --    47 C    0.981
    51   1 H    0.957 --    56 N    0.941
    52   1 H    0.955 --    56 N    0.942
    53   7 N    3.472 --    29 C    1.201    26 C    0.998    27 C    0.961
                            57 O    0.188
    54   7 N    3.690 --    55 N    1.218    30 C    1.218    37 C    1.006
    55   7 N    2.966 --    35 C    1.428    54 N    1.218    30 C    0.135
    56   7 N    3.371 --    36 C    1.254    52 H    0.942    51 H    0.941
                            58 O    0.193
    57   8 O    1.999 --    29 C    1.654    53 N    0.188
    58   8 O    1.973 --    36 C    1.660    56 N    0.193
    59   8 O    2.204 --    42 C    1.068    47 C    0.967
    60   6 C    3.990 --   105 C    1.002   108 C    0.976    62 H    0.964
                            61 H    0.955
    61   1 H    0.994 --    60 C    0.955
    62   1 H    0.994 --    60 C    0.964
    63   8 O    1.968 --   108 C    1.659   118 N    0.190
    64   6 C    3.933 --    88 C    1.379    65 C    1.344    71 O    1.071
    65   6 C    3.991 --    89 C    1.477    64 C    1.344    66 H    0.972
                            86 C    0.108
    66   1 H    0.993 --    65 C    0.972
    67   6 C    3.936 --    69 H    0.981    70 H    0.981    68 H    0.979
                            71 O    0.967
    68   1 H    0.994 --    67 C    0.979
    69   1 H    0.996 --    67 C    0.981
    70   1 H    0.997 --    67 C    0.981
    71   8 O    2.207 --    64 C    1.071    67 C    0.967
    72   6 C    3.965 --   114 C    1.403   116 C    1.402    93 N    0.997
    73   1 H    0.995 --   116 C    0.974
    74   6 C    3.967 --    80 C    0.998    75 H    0.974    76 H    0.974
                            93 N    0.961
    75   1 H    0.997 --    74 C    0.974
    76   1 H    0.995 --    74 C    0.974
    77   6 C    3.957 --    97 O    1.655    93 N    1.201    78 C    1.011
    78   6 C    3.952 --    79 C    1.429    94 N    1.220    77 C    1.011
                            95 N    0.134
    79   6 C    3.980 --    78 C    1.429    83 C    1.323    80 C    1.012
    80   6 C    3.989 --    79 C    1.012    74 C    0.998    82 H    0.962
                            81 H    0.961
    81   1 H    0.994 --    80 C    0.961
    82   1 H    0.992 --    80 C    0.962
    83   6 C    3.968 --    95 N    1.426    79 C    1.323    84 C    1.000
    84   6 C    3.952 --    98 O    1.659    96 N    1.253    83 C    1.000
    85   6 C    3.955 --    86 C    1.402    89 C    1.371    94 N    1.005
    86   6 C    3.992 --    88 C    1.435    85 C    1.402    87 H    0.974
                            65 C    0.108
    87   1 H    0.995 --    86 C    0.974
    88   6 C    3.991 --    86 C    1.435    64 C    1.379   117 H    0.971
    89   6 C    3.990 --    65 C    1.477    85 C    1.371    90 H    0.972
    90   1 H    0.993 --    89 C    0.972
    91   1 H    0.957 --    96 N    0.941
    92   1 H    0.955 --    96 N    0.942
    93   7 N    3.471 --    77 C    1.201    72 C    0.997    74 C    0.961
                            97 O    0.188
    94   7 N    3.692 --    95 N    1.220    78 C    1.220    85 C    1.005
    95   7 N    2.966 --    83 C    1.426    94 N    1.220    78 C    0.134
    96   7 N    3.370 --    84 C    1.253    92 H    0.942    91 H    0.941
                            98 O    0.193
    97   8 O    2.000 --    77 C    1.655    93 N    0.188
    98   8 O    1.972 --    84 C    1.659    96 N    0.193
    99   6 C    3.971 --   102 C    1.007   101 H    0.974   100 H    0.972
                           118 N    0.960
   100   1 H    0.997 --    99 C    0.972
   101   1 H    0.996 --    99 C    0.974
   102   6 C    3.992 --    99 C    1.007   105 C    1.006   103 H    0.980
                           104 H    0.971
   103   1 H    0.997 --   102 C    0.980
   104   1 H    0.996 --   102 C    0.971
   105   6 C    3.994 --   102 C    1.006    60 C    1.002   107 H    0.981
                           106 H    0.977
   106   1 H    0.997 --   105 C    0.977
   107   1 H    0.997 --   105 C    0.981
   108   6 C    3.951 --    63 O    1.659   118 N    1.237    60 C    0.976
   109   6 C    3.994 --   116 C    1.442   111 C    1.406   110 H    0.974
                           114 C    0.109
   110   1 H    0.995 --   109 C    0.974
   111   6 C    3.968 --   109 C    1.406   112 C    1.405   118 N    0.991
   112   6 C    3.993 --   114 C    1.441   111 C    1.405   113 H    0.973
                           116 C    0.110
   113   1 H    0.994 --   112 C    0.973
   114   6 C    3.992 --   112 C    1.441    72 C    1.403   115 H    0.973
                           109 C    0.109
   115   1 H    0.995 --   114 C    0.973
   116   6 C    3.993 --   109 C    1.442    72 C    1.402    73 H    0.974
                           112 C    0.110
   117   1 H    0.995 --    88 C    0.971
   118   7 N    3.480 --   108 C    1.237   111 C    0.991    99 C    0.960
                            63 O    0.190
 ---------------------------------------------------------------------------

Topologies differ in total number of bonds
Writing topology from bond orders to xtbtopo.mol

molecular dipole:
                 x           y           z       tot (Debye)
 q only:       -0.597      -0.092       2.985
   full:       -0.976      -0.092       3.372       8.927
molecular quadrupole (traceless):
                xx          xy          yy          xz          yz          zz
 q only:     -299.198     -53.614    -159.787     151.949     264.080     458.986
  q+dip:     -361.022     -90.813    -167.985     139.216     291.892     529.008
   full:     -357.953     -90.812    -171.919     144.218     291.896     529.871


           -------------------------------------------------
          | TOTAL ENERGY             -193.658422891937 Eh   |
          | GRADIENT NORM               1.318678081104 Eh/α |
          | HOMO-LUMO GAP               3.049140892496 eV   |
           -------------------------------------------------

------------------------------------------------------------------------
 * finished run on 2026/10/03 at 18:56:07.460     
------------------------------------------------------------------------
 total:
 * wall-time:     0 d,  0 h,  0 min,  0.473 sec
 *  cpu-time:     0 d,  0 h,  0 min,  0.406 sec
 * ratio c/w:     0.859 speedup
 SCF:
 * wall-time:     0 d,  0 h,  0 min,  0.368 sec
 *  cpu-time:     0 d,  0 h,  0 min,  0.359 sec
 * ratio c/w:     0.977 speedup

normal termination of xtb
