      -----------------------------------------------------------      
     |                   =====================                   |     
     |                           x T B                           |     
     |                   =====================                   |     
     |                         S. Grimme                         |     
     |          Mulliken Center for Theoretical Chemistry        |     
     |                    University of Bonn                     |     
      -----------------------------------------------------------      

   * xtb version 6.7.1pre (5071a88) compiled by 'Marcel@Raven' on 2024-07-23

   xtb is free software: you can redistribute it and/or modify it under
   the terms of the GNU Lesser General Public License as published by
   the Free Software Foundation, either version 3 of the License, or
   (at your option) any later version.
   
   xtb is distributed in the hope that it will be useful,
   but WITHOUT ANY WARRANTY; without even the implied warranty of
   MERCHANTABILITY or FITNESS FOR A PARTICULAR PURPOSE.  See the
   GNU Lesser General Public License for more details.
   
   Cite this work as:
   * C. Bannwarth, E. Caldeweyher, S. Ehlert, A. Hansen, P. Pracht,
     J. Seibert, S. Spicher, S. Grimme, WIREs Comput. Mol. Sci., 2020, 11,
     e01493. DOI: 10.1002/wcms.1493
   
   for GFN2-xTB:
   * C. Bannwarth, S. Ehlert and S. Grimme., J. Chem. Theory Comput., 2019,
     15, 1652-1671. DOI: 10.1021/acs.jctc.8b01176
   for GFN1-xTB:
   * S. Grimme, C. Bannwarth, P. Shushkov, J. Chem. Theory Comput., 2017,
     13, 1989-2009. DOI: 10.1021/acs.jctc.7b00118
   for GFN0-xTB:
   * P. Pracht, E. Caldeweyher, S. Ehlert, S. Grimme, ChemRxiv, 2019, preprint.
     DOI: 10.26434/chemrxiv.8326202.v1
   for GFN-FF:
   * S. Spicher and S. Grimme, Angew. Chem. Int. Ed., 2020, 59, 15665-15673.
     DOI: 10.1002/anie.202004239
   
   for ALPB and GBSA implicit solvation:
   * S. Ehlert, M. Stahn, S. Spicher, S. Grimme, J. Chem. Theory Comput.,
     2021, 17, 4250-4261. DOI: 10.1021/acs.jctc.1c00471
   
   for ddCOSMO and CPCM-X implicit solvation:
   * M. Stahn, S. Ehlert, S. Grimme, J. Phys. Chem. A,
     2023, XX, XXXX-XXXX. DOI: 10.1021/acs.jpca.3c04382
   
   for DFT-D4:
   * E. Caldeweyher, C. Bannwarth and S. Grimme, J. Chem. Phys., 2017,
     147, 034112. DOI: 10.1063/1.4993215
   * E. Caldeweyher, S. Ehlert, A. Hansen, H. Neugebauer, S. Spicher,
     C. Bannwarth and S. Grimme, J. Chem. Phys., 2019, 150, 154122.
     DOI: 10.1063/1.5090222
   * E. Caldeweyher, J.-M. Mewes, S. Ehlert and S. Grimme, Phys. Chem. Chem. Phys.
     2020, 22, 8499-8512. DOI: 10.1039/D0CP00502A
   
   for sTDA-xTB:
   * S. Grimme and C. Bannwarth, J. Chem. Phys., 2016, 145, 054103.
     DOI: 10.1063/1.4959605
   
   in the mass-spec context:
   * V. Asgeirsson, C. Bauer and S. Grimme, Chem. Sci., 2017, 8, 4879.
     DOI: 10.1039/c7sc00601b
   * J. Koopman and S. Grimme, ACS Omega 2019, 4, 12, 15120-15133.
     DOI: 10.1021/acsomega.9b02011
   
   for metadynamics refer to:
   * S. Grimme, J. Chem. Theory Comput., 2019, 155, 2847-2862
     DOI: 10.1021/acs.jctc.9b00143
   
   for SPH calculations refer to:
   * S. Spicher and S. Grimme, J. Chem. Theory Comput., 2021, 17, 1701-1714
     DOI: 10.1021/acs.jctc.0c01306
   
   for ONIOM refer to:
   * C. Plett, A. Katbashev, S. Ehlert, S. Grimme, M. Bursch,
     Phys. Chem. Chem. Phys., 2023, 25, 17860-17868. DOI: 10.1039/D3CP02178E
   
   for DIPRO refer to:
   * J. Kohn, N. Gildemeister, S. Grimme, D. Fazzi, A. Hansen,
     J. Chem. Phys., 2023, just accepted.
   
   for PTB refer to:
   * S. Grimme, M. Mueller, A. Hansen, J. Chem. Phys., 2023, 158, 124111.
     DOI: 10.1063/5.0137838
   
   with help from (in alphabetical order)
   P. Atkinson, C. Bannwarth, F. Bohle, G. Brandenburg, E. Caldeweyher
   M. Checinski, S. Dohm, S. Ehlert, S. Ehrlich, I. Gerasimov, C. Hölzer
   A. Katbashev, J. Kohn, J. Koopman, C. Lavigne, S. Lehtola, F. März, M. Müller,
   F. Musil, H. Neugebauer, J. Pisarek, C. Plett, P. Pracht, F. Pultar,
   J. Seibert, P. Shushkov, S. Spicher, M. Stahn, M. Steiner, T. Strunk,
   J. Stückrath, T. Rose, and J. Unsleber
   
 * started run on 2026/10/03 at 17:14:02.606     
   ID    Z sym.   atoms
    1    1 H      1, 3, 6, 11, 12, 17, 19, 22, 24, 26-30, 39, 40, 42, 43, 45,
                  46, 48, 49, 52, 56, 57, 61, 62, 64, 65, 67, 68, 70, 71, 74,
                  78, 79, 82, 84, 87, 92, 93, 98, 100, 103, 105, 107-111,
                  120, 121, 123, 124, 126, 127, 129, 130, 133, 137, 138, 141,
                  143, 146, 151, 152, 157, 159, 162, 164, 166-170, 179, 180,
                  184, 186-188, 191, 193, 194, 199, 200, 205, 208-210, 218,
                  219, 221, 222, 224, 225, 228, 231, 233, 235, 238, 239, 243,
                  245-247, 250, 252, 253, 258, 259, 264, 267-269, 277, 278,
                  280, 281, 283, 284, 287, 290, 292, 294, 297, 298, 300, 301,
                  303, 304, 307, 310, 312, 314, 317, 319, 320, 325, 326, 331,
                  334-336, 344-346, 350, 352, 353, 356, 357, 359, 360, 362,
                  363, 366, 369, 371, 373, 376, 378, 379, 384, 385, 390,
                  393-395, 403-405, 409, 411, 412, 415, 416, 420, 422-424,
                  427, 429, 430, 435, 436, 441, 444-446, 454, 455, 457, 458,
                  460, 461, 464, 467, 469, 471, 474, 475, 479, 481-483, 486,
                  488, 489, 494, 495, 500, 503-505, 513, 514, 516, 517, 519,
                  520, 523, 526, 528, 530, 532, 534, 537, 542, 543, 548, 550,
                  553, 555, 557-561, 570, 571, 573, 574, 576, 577, 579, 580,
                  583, 587, 588, 591, 593, 596, 601, 602, 607, 609, 612, 614,
                  616-620, 629, 630, 632, 633, 635, 636, 638, 639, 642, 646,
                  647
    2    6 C      2, 4, 5, 7-10, 13-16, 18, 20, 21, 23, 25, 38, 41, 44, 47,
                  50, 51, 53-55, 60, 63, 66, 69, 72, 73, 75-77, 83, 85, 86,
                  88-91, 94-97, 99, 101, 102, 104, 106, 119, 122, 125, 128,
                  131, 132, 134-136, 142, 144, 145, 147-150, 153-156, 158,
                  160, 161, 163, 165, 178, 182, 183, 185, 190, 192, 195-198,
                  201-204, 206, 207, 217, 220, 223, 226, 227, 229, 230, 232,
                  234, 237, 241, 242, 244, 249, 251, 254-257, 260-263, 265,
                  266, 276, 279, 282, 285, 286, 288, 289, 291, 293, 296, 299,
                  302, 305, 306, 308, 309, 311, 313, 316, 318, 321-324,
                  327-330, 332, 333, 343, 348, 349, 351, 355, 358, 361, 364,
                  365, 367, 368, 370, 372, 375, 377, 380-383, 386-389, 391,
                  392, 402, 407, 408, 410, 414, 418, 419, 421, 426, 428,
                  431-434, 437-440, 442, 443, 453, 456, 459, 462, 463, 465,
                  466, 468, 470, 473, 477, 478, 480, 485, 487, 490-493,
                  496-499, 501, 502, 512, 515, 518, 521, 522, 524, 525, 527,
                  529, 533, 535, 536, 538-541, 544-547, 549, 551, 552, 554,
                  556, 569, 572, 575, 578, 581, 582, 584-586, 592, 594, 595,
                  597-600, 603-606, 608, 610, 611, 613, 615, 628, 631, 634,
                  637, 640, 641, 643-645
    3    7 N      31-34, 58, 80, 112-115, 139, 171-174, 211-214, 236,
                  270-273, 295, 315, 337-340, 374, 396-399, 447-450, 472,
                  506-509, 531, 562-565, 589, 621-624, 648
    4    8 O      35-37, 59, 81, 116-118, 140, 175-177, 181, 189, 215, 216,
                  240, 248, 274, 275, 341, 342, 347, 354, 400, 401, 406, 413,
                  417, 425, 451, 452, 476, 484, 510, 511, 566-568, 590,
                  625-627, 649

           -------------------------------------------------
          |                Calculation Setup                |
           -------------------------------------------------

          program call               : "C:\ORCA_6.1.1\xtb-6.7.1pre\xtb.exe"  "Stage06_9mol_D6a_D6b_direct.xyz" --grad -c 0 -u 0 -P 1 --namespace Stage06_9mol_D6a_D6b --acc 1.000000 
          calculation namespace      : Stage06_9mol_D6a_D6b
          coordinate file            : Stage06_9mol_D6a_D6b_direct.xyz
          omp threads                :                     1


molecular fragmentation (1/2 indicates fragments):
111111111111111111111111111111111111111111111111111111111112222222222222
222222222222222222222222222222222222222222222222222222222222222222222222
222222222222222222222222222222222222222222222222222222222222222222222222
222222222222222222222222222222222222222222222222222222222222222222222222
222222222222222222222222222222222222222222222222222222222222222222222222
222222222222222222222222222222222222222222222222222222222222222222222222
222222222222222222222222222222222222222222222222222222222222222222222222
222222222222222222222222222222222222222222222222222222222222222222222222
222222222222222222222222222222222222222222222222222222222222222222222222
2
# atoms in fragment 1/2:    59   590
 fragment masses (1/2) :      459.50     4594.98
CMA distance (Bohr)    :   1.669
constraining FC (au)   :  0.0500

           -------------------------------------------------
          |                 G F N 2 - x T B                 |
           -------------------------------------------------

        Reference                      10.1021/acs.jctc.8b01176
      * Hamiltonian:
        H0-scaling (s, p, d)           1.850000    2.230000    2.230000
        zeta-weighting                 0.500000
      * Dispersion:
        s8                             2.700000
        a1                             0.520000
        a2                             5.000000
        s9                             5.000000
      * Repulsion:
        kExp                           1.500000    1.000000
        rExp                           1.000000
      * Coulomb:
        alpha                          2.000000
        third order                    shell-resolved
        anisotropic                    true
        a3                             3.000000
        a5                             4.000000
        cn-shift                       1.200000
        cn-exp                         4.000000
        max-rad                        5.000000


          ...................................................
          :                      SETUP                      :
          :.................................................:
          :  # basis functions                1771          :
          :  # atomic orbitals                1771          :
          :  # shells                         1023          :
          :  # electrons                      1914          :
          :  max. iterations                   250          :
          :  Hamiltonian                  GFN2-xTB          :
          :  restarted?                      false          :
          :  GBSA solvation                  false          :
          :  PC potential                    false          :
          :  electronic temp.          300.0000000     K    :
          :  accuracy                    1.0000000          :
          :  -> integral cutoff          0.2500000E+02      :
          :  -> integral neglect         0.1000000E-07      :
          :  -> SCF convergence          0.1000000E-05 Eh   :
          :  -> wf. convergence          0.1000000E-03 e    :
          :  Broyden damping             0.4000000          :
          :  net charge                          0          :
          :  unpaired electrons                  0          :
          ...................................................

 iter      E             dE          RMSdq      gap      omega  full diag
   1  -1086.4855470 -0.108649E+04  0.412E+00    2.78       0.0  T
   2  -1089.2649924 -0.277945E+01  0.242E+00    2.13       1.0  T
   3  -1089.5305422 -0.265550E+00  0.129E+00    2.58       1.0  T
   4  -1089.5736330 -0.430908E-01  0.431E-01    2.26       1.0  T
   5  -1089.6572855 -0.836525E-01  0.937E-02    2.29       1.0  T
   6  -1089.6584370 -0.115154E-02  0.531E-02    2.33       1.0  T
   7  -1089.6592811 -0.844078E-03  0.219E-02    2.35       1.0  T
   8  -1089.6593240 -0.429590E-04  0.864E-03    2.35       1.0  T
   9  -1089.6593433 -0.192833E-04  0.390E-03    2.35       1.0  T
  10  -1089.6593450 -0.170448E-05  0.164E-03    2.35       2.4  T
  11  -1089.6593459 -0.866330E-06  0.533E-04    2.35       7.4  T
  12  -1089.6593460 -0.530254E-07  0.268E-04    2.35      14.6  T

   *** convergence criteria satisfied after 12 iterations ***

         #    Occupation            Energy/Eh            Energy/eV
      -------------------------------------------------------------
         1        2.0000           -0.7306481             -19.8819
       ...           ...                  ...                  ...
       951        2.0000           -0.3727175             -10.1422
       952        2.0000           -0.3721280             -10.1261
       953        2.0000           -0.3707705             -10.0892
       954        2.0000           -0.3701996             -10.0736
       955        2.0000           -0.3689894             -10.0407
       956        2.0000           -0.3670410              -9.9877
       957        2.0000           -0.3649306              -9.9303 (HOMO)
       958                         -0.2784891              -7.5781 (LUMO)
       959                         -0.2736283              -7.4458
       960                         -0.2725107              -7.4154
       961                         -0.2699104              -7.3446
       962                         -0.2696905              -7.3387
       ...                                ...                  ...
      1771                          0.8934239              24.3113
      -------------------------------------------------------------
                  HL-Gap            0.0864415 Eh            2.3522 eV
             Fermi-level           -0.3217099 Eh           -8.7542 eV

 SCC (total)                   0 d,  0 h,  0 min, 26.007 sec
 SCC setup                      ...        0 min,  0.028 sec (  0.108%)
 Dispersion                     ...        0 min,  0.093 sec (  0.358%)
 classical contributions        ...        0 min,  0.012 sec (  0.046%)
 integral evaluation            ...        0 min,  0.798 sec (  3.068%)
 iterations                     ...        0 min, 18.746 sec ( 72.081%)
 molecular gradient             ...        0 min,  6.078 sec ( 23.371%)
 printout                       ...        0 min,  0.252 sec (  0.969%)

         :::::::::::::::::::::::::::::::::::::::::::::::::::::
         ::                     SUMMARY                     ::
         :::::::::::::::::::::::::::::::::::::::::::::::::::::
         :: total energy           -1065.473463826231 Eh    ::
         :: gradient norm              3.092572932180 Eh/a0 ::
         :: HOMO-LUMO gap              2.352192720478 eV    ::
         ::.................................................::
         :: SCC energy             -1089.579094737735 Eh    ::
         :: -> isotropic ES            1.603203028409 Eh    ::
         :: -> anisotropic ES         -0.005993614518 Eh    ::
         :: -> anisotropic XC          0.202747875110 Eh    ::
         :: -> dispersion             -1.035968848447 Eh    ::
         :: repulsion energy          24.105630911504 Eh    ::
         :: add. restraining           0.000000000000 Eh    ::
         :: total charge               0.000000000000 e     ::
         :::::::::::::::::::::::::::::::::::::::::::::::::::::

           -------------------------------------------------
          |                Property Printout                |
           -------------------------------------------------

    * Orbital Energies and Occupations

         #    Occupation            Energy/Eh            Energy/eV
      -------------------------------------------------------------
         1        2.0000           -0.7306481             -19.8819
       ...           ...                  ...                  ...
       945        2.0000           -0.3764032             -10.2425
       946        2.0000           -0.3755872             -10.2202
       947        2.0000           -0.3743638             -10.1870
       948        2.0000           -0.3741937             -10.1823
       949        2.0000           -0.3741649             -10.1815
       950        2.0000           -0.3732197             -10.1558
       951        2.0000           -0.3727175             -10.1422
       952        2.0000           -0.3721280             -10.1261
       953        2.0000           -0.3707705             -10.0892
       954        2.0000           -0.3701996             -10.0736
       955        2.0000           -0.3689894             -10.0407
       956        2.0000           -0.3670410              -9.9877
       957        2.0000           -0.3649306              -9.9303 (HOMO)
       958                         -0.2784891              -7.5781 (LUMO)
       959                         -0.2736283              -7.4458
       960                         -0.2725107              -7.4154
       961                         -0.2699104              -7.3446
       962                         -0.2696905              -7.3387
       963                         -0.2670760              -7.2675
       964                         -0.2666226              -7.2552
       965                         -0.2661584              -7.2425
       966                         -0.2636472              -7.1742
       967                         -0.2578114              -7.0154
       968                         -0.2561029              -6.9689
       ...                                ...                  ...
      1771                          0.8934239              24.3113
      -------------------------------------------------------------
                  HL-Gap            0.0864415 Eh            2.3522 eV
             Fermi-level           -0.3217099 Eh           -8.7542 eV

     #   Z          covCN         q      C6AA      α(0)
     1   1 H        0.930     0.074     2.043     2.235
     2   6 C        2.936    -0.051    29.269     8.873
     3   1 H        0.930     0.093     1.851     2.127
     4   6 C        2.928     0.068    26.487     8.440
     5   6 C        3.764    -0.016    20.895     6.515
     6   1 H        0.930     0.065     2.145     2.290
     7   6 C        2.767     0.275    22.352     7.743
     8   6 C        3.096    -0.004    28.000     8.672
     9   6 C        3.070    -0.022    28.477     8.750
    10   6 C        3.821    -0.084    22.093     6.689
    11   1 H        0.930     0.071     2.072     2.251
    12   1 H        0.930     0.078     2.004     2.214
    13   6 C        3.172     0.019    27.198     8.519
    14   6 C        2.748     0.278    22.304     7.733
    15   6 C        2.920     0.036    27.191     8.551
    16   6 C        2.934    -0.044    29.096     8.846
    17   1 H        0.930     0.093     1.850     2.127
    18   6 C        2.932    -0.072    29.790     8.951
    19   1 H        0.930     0.106     1.733     2.059
    20   6 C        2.878     0.147    24.802     8.164
    21   6 C        2.936    -0.077    29.917     8.970
    22   1 H        0.930     0.067     2.122     2.278
    23   6 C        2.932    -0.057    29.413     8.894
    24   1 H        0.930     0.070     2.089     2.260
    25   6 C        3.664     0.009    20.694     6.525
    26   1 H        0.930     0.064     2.149     2.292
    27   1 H        0.930     0.055     2.256     2.348
    28   1 H        0.930     0.084     1.940     2.178
    29   1 H        0.862     0.228     0.972     1.544
    30   1 H        0.863     0.210     1.056     1.609
    31   7 N        2.745    -0.112    23.438     7.190
    32   7 N        3.019     0.090    19.679     6.589
    33   7 N        1.991    -0.255    27.442     7.769
    34   7 N        2.645    -0.285    27.362     7.769
    35   8 O        0.858    -0.446    22.624     6.377
    36   8 O        0.860    -0.474    23.219     6.461
    37   8 O        1.705    -0.287    18.769     5.849
    38   6 C        3.762    -0.009    20.785     6.499
    39   1 H        0.930     0.054     2.268     2.355
    40   1 H        0.930     0.063     2.167     2.302
    41   6 C        3.827    -0.084    22.075     6.686
    42   1 H        0.930     0.064     2.153     2.294
    43   1 H        0.930     0.072     2.063     2.246
    44   6 C        3.825    -0.085    22.102     6.690
    45   1 H        0.930     0.077     2.005     2.214
    46   1 H        0.930     0.044     2.402     2.423
    47   6 C        3.826    -0.109    22.551     6.757
    48   1 H        0.930     0.078     1.997     2.210
    49   1 H        0.930     0.073     2.057     2.243
    50   6 C        2.766     0.266    22.516     7.771
    51   6 C        2.935    -0.057    29.424     8.896
    52   1 H        0.930     0.071     2.072     2.251
    53   6 C        2.930     0.061    26.623     8.462
    54   6 C        2.938    -0.053    29.312     8.879
    55   6 C        2.935    -0.058    29.430     8.897
    56   1 H        0.930     0.080     1.975     2.197
    57   1 H        0.930     0.072     2.067     2.248
    58   7 N        2.739    -0.115    23.497     7.199
    59   8 O        0.859    -0.498    23.736     6.532
    60   6 C        3.762    -0.007    20.751     6.493
    61   1 H        0.930     0.052     2.294     2.368
    62   1 H        0.930     0.057     2.230     2.335
    63   6 C        3.827    -0.083    22.062     6.684
    64   1 H        0.930     0.061     2.183     2.311
    65   1 H        0.930     0.073     2.057     2.243
    66   6 C        3.825    -0.083    22.069     6.685
    67   1 H        0.930     0.073     2.050     2.239
    68   1 H        0.930     0.044     2.399     2.422
    69   6 C        3.826    -0.108    22.546     6.757
    70   1 H        0.930     0.076     2.022     2.224
    71   1 H        0.930     0.072     2.063     2.246
    72   6 C        2.766     0.268    22.470     7.763
    73   6 C        2.935    -0.054    29.346     8.884
    74   1 H        0.930     0.066     2.125     2.279
    75   6 C        2.930     0.071    26.414     8.429
    76   6 C        2.938    -0.044    29.102     8.847
    77   6 C        2.935    -0.057    29.421     8.896
    78   1 H        0.930     0.076     2.016     2.220
    79   1 H        0.930     0.074     2.037     2.232
    80   7 N        2.739    -0.115    23.509     7.201
    81   8 O        0.859    -0.475    23.240     6.463
    82   1 H        0.930     0.076     2.022     2.223
    83   6 C        2.936    -0.047    29.163     8.857
    84   1 H        0.930     0.070     2.083     2.257
    85   6 C        2.928     0.065    26.550     8.450
    86   6 C        3.764    -0.015    20.881     6.513
    87   1 H        0.930     0.061     2.188     2.313
    88   6 C        2.767     0.268    22.485     7.766
    89   6 C        3.096    -0.009    28.119     8.691
    90   6 C        3.070    -0.019    28.417     8.741
    91   6 C        3.821    -0.084    22.094     6.689
    92   1 H        0.930     0.073     2.054     2.241
    93   1 H        0.930     0.084     1.938     2.177
    94   6 C        3.172     0.021    27.153     8.512
    95   6 C        2.748     0.277    22.322     7.736
    96   6 C        2.920     0.045    26.989     8.519
    97   6 C        2.934    -0.042    29.044     8.838
    98   1 H        0.930     0.071     2.069     2.249
    99   6 C        2.932    -0.079    29.974     8.979
   100   1 H        0.930     0.070     2.081     2.256
   101   6 C        2.878     0.145    24.836     8.170
   102   6 C        2.936    -0.067    29.680     8.935
   103   1 H        0.930     0.081     1.967     2.193
   104   6 C        2.932    -0.045    29.111     8.849
   105   1 H        0.930     0.078     1.997     2.210
   106   6 C        3.664     0.012    20.644     6.517
   107   1 H        0.930     0.075     2.032     2.229
   108   1 H        0.930     0.059     2.207     2.323
   109   1 H        0.930     0.058     2.223     2.331
   110   1 H        0.862     0.206     1.077     1.625
   111   1 H        0.863     0.217     1.024     1.585
   112   7 N        2.745    -0.117    23.545     7.207
   113   7 N        3.019     0.091    19.659     6.585
   114   7 N        1.991    -0.244    27.172     7.731
   115   7 N        2.645    -0.284    27.336     7.765
   116   8 O        0.858    -0.448    22.669     6.383
   117   8 O        0.860    -0.460    22.918     6.418
   118   8 O        1.705    -0.278    18.611     5.825
   119   6 C        3.762    -0.013    20.849     6.509
   120   1 H        0.930     0.062     2.173     2.305
   121   1 H        0.930     0.064     2.154     2.295
   122   6 C        3.827    -0.084    22.081     6.686
   123   1 H        0.930     0.056     2.250     2.345
   124   1 H        0.930     0.060     2.197     2.318
   125   6 C        3.825    -0.079    21.997     6.674
   126   1 H        0.930     0.051     2.302     2.373
   127   1 H        0.930     0.055     2.255     2.348
   128   6 C        3.826    -0.105    22.491     6.748
   129   1 H        0.930     0.072     2.068     2.248
   130   1 H        0.930     0.078     2.001     2.212
   131   6 C        2.766     0.269    22.458     7.761
   132   6 C        2.935    -0.060    29.501     8.908
   133   1 H        0.930     0.067     2.122     2.278
   134   6 C        2.930     0.061    26.630     8.463
   135   6 C        2.938    -0.050    29.244     8.869
   136   6 C        2.935    -0.060    29.489     8.906
   137   1 H        0.930     0.070     2.082     2.256
   138   1 H        0.930     0.068     2.104     2.268
   139   7 N        2.739    -0.108    23.358     7.178
   140   8 O        0.859    -0.493    23.635     6.518
   141   1 H        0.930     0.073     2.048     2.238
   142   6 C        2.936    -0.046    29.154     8.855
   143   1 H        0.930     0.096     1.822     2.111
   144   6 C        2.928     0.073    26.377     8.423
   145   6 C        3.764    -0.015    20.881     6.513
   146   1 H        0.930     0.064     2.151     2.293
   147   6 C        2.767     0.276    22.336     7.740
   148   6 C        3.096    -0.003    27.974     8.668
   149   6 C        3.070    -0.018    28.389     8.736
   150   6 C        3.821    -0.084    22.082     6.687
   151   1 H        0.930     0.075     2.033     2.229
   152   1 H        0.930     0.080     1.976     2.198
   153   6 C        3.172     0.023    27.105     8.504
   154   6 C        2.748     0.280    22.259     7.725
   155   6 C        2.920     0.042    27.051     8.529
   156   6 C        2.934    -0.044    29.097     8.847
   157   1 H        0.930     0.090     1.877     2.142
   158   6 C        2.932    -0.081    30.031     8.987
   159   1 H        0.930     0.091     1.865     2.135
   160   6 C        2.878     0.142    24.915     8.183
   161   6 C        2.936    -0.071    29.780     8.950
   162   1 H        0.930     0.074     2.043     2.235
   163   6 C        2.932    -0.051    29.254     8.870
   164   1 H        0.930     0.075     2.028     2.227
   165   6 C        3.664     0.010    20.680     6.523
   166   1 H        0.930     0.067     2.120     2.277
   167   1 H        0.930     0.065     2.142     2.289
   168   1 H        0.930     0.060     2.204     2.321
   169   1 H        0.862     0.205     1.083     1.630
   170   1 H        0.863     0.212     1.044     1.601
   171   7 N        2.745    -0.115    23.513     7.202
   172   7 N        3.019     0.092    19.641     6.582
   173   7 N        1.991    -0.246    27.211     7.736
   174   7 N        2.645    -0.283    27.308     7.761
   175   8 O        0.858    -0.435    22.395     6.345
   176   8 O        0.860    -0.461    22.941     6.422
   177   8 O        1.705    -0.286    18.750     5.846
   178   6 C        3.826    -0.107    22.513     6.752
   179   1 H        0.930     0.075     2.034     2.230
   180   1 H        0.930     0.076     2.019     2.222
   181   8 O        0.859    -0.491    23.586     6.511
   182   6 C        2.878     0.147    24.813     8.166
   183   6 C        2.936    -0.072    29.807     8.954
   184   1 H        0.930     0.072     2.062     2.245
   185   6 C        3.664     0.010    20.665     6.520
   186   1 H        0.930     0.065     2.140     2.288
   187   1 H        0.930     0.057     2.233     2.337
   188   1 H        0.930     0.071     2.073     2.251
   189   8 O        1.705    -0.285    18.732     5.843
   190   6 C        2.928     0.073    26.370     8.421
   191   1 H        0.930     0.067     2.114     2.273
   192   6 C        3.764    -0.015    20.887     6.514
   193   1 H        0.930     0.065     2.142     2.289
   194   1 H        0.930     0.067     2.116     2.275
   195   6 C        2.767     0.276    22.326     7.738
   196   6 C        3.096    -0.003    27.987     8.670
   197   6 C        3.070    -0.019    28.410     8.740
   198   6 C        3.821    -0.084    22.088     6.688
   199   1 H        0.930     0.073     2.056     2.242
   200   1 H        0.930     0.083     1.953     2.185
   201   6 C        3.172     0.025    27.080     8.500
   202   6 C        2.748     0.277    22.310     7.734
   203   6 C        2.920     0.040    27.099     8.537
   204   6 C        2.934    -0.046    29.131     8.852
   205   1 H        0.930     0.092     1.859     2.132
   206   6 C        2.932    -0.072    29.805     8.953
   207   6 C        2.932    -0.054    29.333     8.882
   208   1 H        0.930     0.074     2.037     2.232
   209   1 H        0.862     0.229     0.967     1.541
   210   1 H        0.863     0.204     1.085     1.632
   211   7 N        2.745    -0.116    23.520     7.203
   212   7 N        3.019     0.089    19.704     6.593
   213   7 N        1.991    -0.253    27.398     7.763
   214   7 N        2.645    -0.285    27.357     7.768
   215   8 O        0.858    -0.438    22.450     6.353
   216   8 O        0.860    -0.455    22.815     6.404
   217   6 C        3.762    -0.013    20.849     6.509
   218   1 H        0.930     0.060     2.195     2.317
   219   1 H        0.930     0.065     2.136     2.285
   220   6 C        3.827    -0.085    22.100     6.689
   221   1 H        0.930     0.058     2.224     2.332
   222   1 H        0.930     0.061     2.190     2.314
   223   6 C        3.825    -0.082    22.040     6.680
   224   1 H        0.930     0.056     2.242     2.341
   225   1 H        0.930     0.050     2.314     2.379
   226   6 C        2.766     0.265    22.524     7.772
   227   6 C        2.935    -0.061    29.522     8.911
   228   1 H        0.930     0.070     2.084     2.257
   229   6 C        2.930     0.060    26.664     8.468
   230   6 C        2.938    -0.047    29.166     8.857
   231   1 H        0.930     0.071     2.075     2.252
   232   6 C        2.936    -0.043    29.056     8.840
   233   1 H        0.930     0.098     1.806     2.101
   234   6 C        2.935    -0.060    29.497     8.907
   235   1 H        0.930     0.077     2.009     2.216
   236   7 N        2.739    -0.112    23.446     7.192
   237   6 C        3.826    -0.107    22.529     6.754
   238   1 H        0.930     0.076     2.015     2.220
   239   1 H        0.930     0.081     1.964     2.191
   240   8 O        0.859    -0.474    23.226     6.462
   241   6 C        2.878     0.148    24.786     8.162
   242   6 C        2.936    -0.073    29.815     8.955
   243   1 H        0.930     0.073     2.057     2.243
   244   6 C        3.664     0.012    20.638     6.516
   245   1 H        0.930     0.067     2.116     2.275
   246   1 H        0.930     0.053     2.284     2.363
   247   1 H        0.930     0.075     2.029     2.227
   248   8 O        1.705    -0.283    18.705     5.839
   249   6 C        2.928     0.068    26.467     8.437
   250   1 H        0.930     0.070     2.080     2.255
   251   6 C        3.764    -0.017    20.928     6.521
   252   1 H        0.930     0.065     2.140     2.287
   253   1 H        0.930     0.072     2.060     2.244
   254   6 C        2.767     0.268    22.477     7.764
   255   6 C        3.096    -0.009    28.132     8.693
   256   6 C        3.070    -0.016    28.329     8.727
   257   6 C        3.821    -0.084    22.093     6.689
   258   1 H        0.930     0.075     2.027     2.226
   259   1 H        0.930     0.082     1.954     2.186
   260   6 C        3.172     0.028    26.997     8.487
   261   6 C        2.748     0.281    22.238     7.722
   262   6 C        2.920     0.043    27.027     8.525
   263   6 C        2.934    -0.044    29.105     8.848
   264   1 H        0.930     0.072     2.068     2.249
   265   6 C        2.932    -0.074    29.836     8.958
   266   6 C        2.932    -0.052    29.281     8.874
   267   1 H        0.930     0.077     2.008     2.216
   268   1 H        0.862     0.231     0.960     1.534
   269   1 H        0.863     0.209     1.060     1.613
   270   7 N        2.745    -0.119    23.585     7.213
   271   7 N        3.019     0.086    19.742     6.599
   272   7 N        1.991    -0.246    27.223     7.738
   273   7 N        2.645    -0.282    27.277     7.757
   274   8 O        0.858    -0.445    22.593     6.373
   275   8 O        0.860    -0.466    23.033     6.435
   276   6 C        3.762    -0.011    20.822     6.505
   277   1 H        0.930     0.059     2.212     2.326
   278   1 H        0.930     0.061     2.187     2.312
   279   6 C        3.827    -0.084    22.071     6.685
   280   1 H        0.930     0.056     2.249     2.345
   281   1 H        0.930     0.059     2.215     2.327
   282   6 C        3.825    -0.081    22.016     6.677
   283   1 H        0.930     0.054     2.266     2.354
   284   1 H        0.930     0.053     2.282     2.362
   285   6 C        2.766     0.270    22.445     7.759
   286   6 C        2.935    -0.058    29.440     8.898
   287   1 H        0.930     0.068     2.112     2.272
   288   6 C        2.930     0.066    26.523     8.446
   289   6 C        2.938    -0.045    29.119     8.850
   290   1 H        0.930     0.077     2.009     2.216
   291   6 C        2.936    -0.046    29.140     8.853
   292   1 H        0.930     0.075     2.030     2.228
   293   6 C        2.935    -0.059    29.460     8.902
   294   1 H        0.930     0.075     2.030     2.228
   295   7 N        2.739    -0.112    23.445     7.191
   296   6 C        3.762    -0.012    20.838     6.507
   297   1 H        0.930     0.060     2.202     2.320
   298   1 H        0.930     0.063     2.165     2.301
   299   6 C        3.827    -0.084    22.076     6.686
   300   1 H        0.930     0.058     2.227     2.334
   301   1 H        0.930     0.059     2.207     2.323
   302   6 C        3.825    -0.078    21.977     6.671
   303   1 H        0.930     0.050     2.315     2.379
   304   1 H        0.930     0.051     2.302     2.372
   305   6 C        2.766     0.268    22.471     7.763
   306   6 C        2.935    -0.057    29.422     8.896
   307   1 H        0.930     0.066     2.133     2.284
   308   6 C        2.930     0.067    26.506     8.443
   309   6 C        2.938    -0.048    29.189     8.861
   310   1 H        0.930     0.074     2.047     2.237
   311   6 C        2.936    -0.047    29.164     8.857
   312   1 H        0.930     0.091     1.868     2.137
   313   6 C        2.935    -0.058    29.443     8.899
   314   1 H        0.930     0.091     1.865     2.136
   315   7 N        2.739    -0.110    23.398     7.184
   316   6 C        2.928     0.072    26.397     8.426
   317   1 H        0.930     0.069     2.097     2.264
   318   6 C        3.764    -0.011    20.811     6.502
   319   1 H        0.930     0.058     2.227     2.334
   320   1 H        0.930     0.067     2.117     2.275
   321   6 C        2.767     0.275    22.349     7.742
   322   6 C        3.096    -0.003    27.994     8.671
   323   6 C        3.070    -0.019    28.407     8.739
   324   6 C        3.821    -0.083    22.068     6.685
   325   1 H        0.930     0.076     2.019     2.222
   326   1 H        0.930     0.081     1.971     2.195
   327   6 C        3.172     0.022    27.131     8.509
   328   6 C        2.748     0.276    22.326     7.737
   329   6 C        2.920     0.041    27.072     8.532
   330   6 C        2.934    -0.046    29.144     8.854
   331   1 H        0.930     0.089     1.892     2.151
   332   6 C        2.932    -0.083    30.076     8.994
   333   6 C        2.932    -0.050    29.243     8.869
   334   1 H        0.930     0.076     2.022     2.224
   335   1 H        0.862     0.204     1.084     1.631
   336   1 H        0.863     0.211     1.052     1.607
   337   7 N        2.745    -0.115    23.501     7.200
   338   7 N        3.019     0.091    19.659     6.585
   339   7 N        1.991    -0.247    27.256     7.743
   340   7 N        2.645    -0.286    27.382     7.772
   341   8 O        0.858    -0.441    22.526     6.363
   342   8 O        0.860    -0.452    22.740     6.394
   343   6 C        3.664     0.010    20.676     6.522
   344   1 H        0.930     0.070     2.085     2.258
   345   1 H        0.930     0.062     2.171     2.304
   346   1 H        0.930     0.060     2.193     2.316
   347   8 O        1.705    -0.284    18.714     5.841
   348   6 C        2.878     0.142    24.904     8.181
   349   6 C        2.936    -0.070    29.755     8.946
   350   1 H        0.930     0.075     2.028     2.227
   351   6 C        3.826    -0.105    22.492     6.748
   352   1 H        0.930     0.073     2.054     2.241
   353   1 H        0.930     0.074     2.044     2.235
   354   8 O        0.859    -0.482    23.386     6.484
   355   6 C        3.762    -0.007    20.751     6.493
   356   1 H        0.930     0.052     2.295     2.369
   357   1 H        0.930     0.066     2.130     2.282
   358   6 C        3.827    -0.082    22.038     6.680
   359   1 H        0.930     0.058     2.217     2.328
   360   1 H        0.930     0.059     2.211     2.325
   361   6 C        3.825    -0.080    22.007     6.675
   362   1 H        0.930     0.052     2.300     2.372
   363   1 H        0.930     0.049     2.334     2.389
   364   6 C        2.766     0.268    22.476     7.764
   365   6 C        2.935    -0.054    29.353     8.885
   366   1 H        0.930     0.063     2.162     2.299
   367   6 C        2.930     0.070    26.436     8.432
   368   6 C        2.938    -0.043    29.063     8.842
   369   1 H        0.930     0.076     2.019     2.222
   370   6 C        2.936    -0.045    29.119     8.850
   371   1 H        0.930     0.073     2.052     2.240
   372   6 C        2.935    -0.057    29.413     8.895
   373   1 H        0.930     0.078     1.998     2.210
   374   7 N        2.739    -0.114    23.482     7.197
   375   6 C        2.928     0.067    26.504     8.443
   376   1 H        0.930     0.075     2.035     2.231
   377   6 C        3.764    -0.015    20.878     6.513
   378   1 H        0.930     0.061     2.189     2.313
   379   1 H        0.930     0.072     2.065     2.247
   380   6 C        2.767     0.268    22.481     7.765
   381   6 C        3.096    -0.009    28.137     8.693
   382   6 C        3.070    -0.020    28.437     8.744
   383   6 C        3.821    -0.085    22.102     6.690
   384   1 H        0.930     0.071     2.075     2.252
   385   1 H        0.930     0.086     1.915     2.164
   386   6 C        3.172     0.022    27.147     8.511
   387   6 C        2.748     0.274    22.366     7.744
   388   6 C        2.920     0.041    27.090     8.535
   389   6 C        2.934    -0.044    29.086     8.845
   390   1 H        0.930     0.071     2.069     2.249
   391   6 C        2.932    -0.072    29.792     8.951
   392   6 C        2.932    -0.049    29.228     8.866
   393   1 H        0.930     0.075     2.028     2.227
   394   1 H        0.862     0.229     0.968     1.541
   395   1 H        0.863     0.209     1.062     1.614
   396   7 N        2.745    -0.119    23.582     7.212
   397   7 N        3.019     0.089    19.696     6.591
   398   7 N        1.991    -0.252    27.378     7.760
   399   7 N        2.645    -0.288    27.434     7.779
   400   8 O        0.858    -0.445    22.604     6.374
   401   8 O        0.860    -0.457    22.860     6.410
   402   6 C        3.664     0.010    20.677     6.522
   403   1 H        0.930     0.068     2.112     2.272
   404   1 H        0.930     0.057     2.234     2.337
   405   1 H        0.930     0.073     2.052     2.240
   406   8 O        1.705    -0.278    18.617     5.826
   407   6 C        2.878     0.150    24.743     8.154
   408   6 C        2.936    -0.070    29.745     8.944
   409   1 H        0.930     0.078     1.997     2.210
   410   6 C        3.826    -0.107    22.518     6.752
   411   1 H        0.930     0.074     2.041     2.234
   412   1 H        0.930     0.075     2.030     2.228
   413   8 O        0.859    -0.469    23.110     6.445
   414   6 C        3.826    -0.111    22.601     6.765
   415   1 H        0.930     0.077     2.014     2.219
   416   1 H        0.930     0.070     2.089     2.260
   417   8 O        0.859    -0.473    23.201     6.458
   418   6 C        2.878     0.145    24.855     8.173
   419   6 C        2.936    -0.066    29.651     8.930
   420   1 H        0.930     0.080     1.976     2.198
   421   6 C        3.664     0.012    20.638     6.516
   422   1 H        0.930     0.076     2.018     2.221
   423   1 H        0.930     0.057     2.239     2.340
   424   1 H        0.930     0.058     2.223     2.332
   425   8 O        1.705    -0.279    18.630     5.828
   426   6 C        2.928     0.065    26.553     8.451
   427   1 H        0.930     0.082     1.961     2.190
   428   6 C        3.764    -0.014    20.872     6.512
   429   1 H        0.930     0.060     2.198     2.318
   430   1 H        0.930     0.077     2.012     2.218
   431   6 C        2.767     0.267    22.490     7.767
   432   6 C        3.096    -0.009    28.136     8.693
   433   6 C        3.070    -0.017    28.355     8.731
   434   6 C        3.821    -0.084    22.085     6.688
   435   1 H        0.930     0.078     2.002     2.212
   436   1 H        0.930     0.086     1.921     2.167
   437   6 C        3.172     0.023    27.107     8.505
   438   6 C        2.748     0.275    22.340     7.739
   439   6 C        2.920     0.045    26.987     8.519
   440   6 C        2.934    -0.043    29.078     8.844
   441   1 H        0.930     0.071     2.070     2.250
   442   6 C        2.932    -0.081    30.027     8.987
   443   6 C        2.932    -0.047    29.164     8.857
   444   1 H        0.930     0.080     1.982     2.201
   445   1 H        0.862     0.207     1.072     1.622
   446   1 H        0.863     0.213     1.042     1.599
   447   7 N        2.745    -0.114    23.490     7.198
   448   7 N        3.019     0.087    19.724     6.596
   449   7 N        1.991    -0.245    27.200     7.735
   450   7 N        2.645    -0.285    27.361     7.769
   451   8 O        0.858    -0.457    22.855     6.410
   452   8 O        0.860    -0.451    22.728     6.392
   453   6 C        3.762    -0.009    20.789     6.499
   454   1 H        0.930     0.053     2.277     2.360
   455   1 H        0.930     0.061     2.188     2.313
   456   6 C        3.827    -0.085    22.100     6.689
   457   1 H        0.930     0.063     2.160     2.298
   458   1 H        0.930     0.076     2.016     2.220
   459   6 C        3.825    -0.084    22.077     6.686
   460   1 H        0.930     0.071     2.071     2.250
   461   1 H        0.930     0.042     2.421     2.433
   462   6 C        2.766     0.265    22.523     7.772
   463   6 C        2.935    -0.051    29.265     8.872
   464   1 H        0.930     0.075     2.030     2.228
   465   6 C        2.930     0.070    26.432     8.431
   466   6 C        2.938    -0.047    29.165     8.857
   467   1 H        0.930     0.073     2.048     2.238
   468   6 C        2.936    -0.050    29.236     8.868
   469   1 H        0.930     0.066     2.127     2.280
   470   6 C        2.935    -0.053    29.318     8.880
   471   1 H        0.930     0.068     2.102     2.267
   472   7 N        2.739    -0.117    23.543     7.206
   473   6 C        3.826    -0.110    22.572     6.761
   474   1 H        0.930     0.078     1.994     2.208
   475   1 H        0.930     0.074     2.041     2.234
   476   8 O        0.859    -0.473    23.203     6.458
   477   6 C        2.878     0.144    24.857     8.173
   478   6 C        2.936    -0.068    29.694     8.937
   479   1 H        0.930     0.081     1.973     2.196
   480   6 C        3.664     0.013    20.628     6.514
   481   1 H        0.930     0.072     2.068     2.249
   482   1 H        0.930     0.055     2.257     2.349
   483   1 H        0.930     0.067     2.115     2.274
   484   8 O        1.705    -0.282    18.680     5.835
   485   6 C        2.928     0.068    26.476     8.438
   486   1 H        0.930     0.069     2.092     2.262
   487   6 C        3.764    -0.013    20.848     6.508
   488   1 H        0.930     0.058     2.227     2.334
   489   1 H        0.930     0.069     2.092     2.262
   490   6 C        2.767     0.268    22.481     7.765
   491   6 C        3.096    -0.011    28.170     8.699
   492   6 C        3.070    -0.017    28.371     8.734
   493   6 C        3.821    -0.083    22.069     6.685
   494   1 H        0.930     0.076     2.015     2.220
   495   1 H        0.930     0.084     1.940     2.178
   496   6 C        3.172     0.024    27.089     8.502
   497   6 C        2.748     0.277    22.313     7.735
   498   6 C        2.920     0.042    27.053     8.529
   499   6 C        2.934    -0.044    29.083     8.844
   500   1 H        0.930     0.067     2.117     2.275
   501   6 C        2.932    -0.082    30.039     8.988
   502   6 C        2.932    -0.046    29.139     8.853
   503   1 H        0.930     0.077     2.007     2.215
   504   1 H        0.862     0.205     1.079     1.627
   505   1 H        0.863     0.212     1.045     1.601
   506   7 N        2.745    -0.121    23.638     7.221
   507   7 N        3.019     0.092    19.640     6.582
   508   7 N        1.991    -0.240    27.083     7.718
   509   7 N        2.645    -0.284    27.339     7.765
   510   8 O        0.858    -0.448    22.671     6.384
   511   8 O        0.860    -0.452    22.744     6.394
   512   6 C        3.762    -0.011    20.823     6.505
   513   1 H        0.930     0.056     2.246     2.343
   514   1 H        0.930     0.053     2.281     2.362
   515   6 C        3.827    -0.083    22.068     6.684
   516   1 H        0.930     0.059     2.207     2.323
   517   1 H        0.930     0.067     2.113     2.273
   518   6 C        3.825    -0.083    22.064     6.684
   519   1 H        0.930     0.075     2.030     2.228
   520   1 H        0.930     0.045     2.383     2.414
   521   6 C        2.766     0.268    22.472     7.763
   522   6 C        2.935    -0.056    29.395     8.892
   523   1 H        0.930     0.067     2.123     2.279
   524   6 C        2.930     0.070    26.436     8.432
   525   6 C        2.938    -0.047    29.174     8.858
   526   1 H        0.930     0.077     2.006     2.215
   527   6 C        2.936    -0.050    29.251     8.870
   528   1 H        0.930     0.070     2.087     2.259
   529   6 C        2.935    -0.058    29.436     8.898
   530   1 H        0.930     0.094     1.838     2.120
   531   7 N        2.739    -0.114    23.493     7.199
   532   1 H        0.930     0.076     2.019     2.222
   533   6 C        2.936    -0.046    29.152     8.855
   534   1 H        0.930     0.073     2.048     2.238
   535   6 C        2.928     0.068    26.480     8.439
   536   6 C        3.764    -0.018    20.930     6.521
   537   1 H        0.930     0.066     2.134     2.284
   538   6 C        2.767     0.268    22.474     7.764
   539   6 C        3.096    -0.009    28.127     8.692
   540   6 C        3.070    -0.015    28.319     8.726
   541   6 C        3.821    -0.084    22.083     6.687
   542   1 H        0.930     0.075     2.029     2.227
   543   1 H        0.930     0.084     1.934     2.174
   544   6 C        3.172     0.027    27.032     8.493
   545   6 C        2.748     0.281    22.244     7.723
   546   6 C        2.920     0.046    26.971     8.517
   547   6 C        2.934    -0.042    29.044     8.838
   548   1 H        0.930     0.071     2.074     2.252
   549   6 C        2.932    -0.079    29.969     8.978
   550   1 H        0.930     0.069     2.095     2.263
   551   6 C        2.878     0.145    24.855     8.173
   552   6 C        2.936    -0.067    29.667     8.933
   553   1 H        0.930     0.079     1.994     2.208
   554   6 C        2.932    -0.047    29.158     8.856
   555   1 H        0.930     0.080     1.982     2.201
   556   6 C        3.664     0.012    20.635     6.515
   557   1 H        0.930     0.073     2.052     2.240
   558   1 H        0.930     0.059     2.207     2.323
   559   1 H        0.930     0.057     2.232     2.336
   560   1 H        0.862     0.206     1.076     1.625
   561   1 H        0.863     0.213     1.043     1.600
   562   7 N        2.745    -0.119    23.597     7.215
   563   7 N        3.019     0.089    19.693     6.591
   564   7 N        1.991    -0.240    27.082     7.718
   565   7 N        2.645    -0.281    27.268     7.755
   566   8 O        0.858    -0.445    22.610     6.375
   567   8 O        0.860    -0.456    22.841     6.408
   568   8 O        1.705    -0.281    18.661     5.832
   569   6 C        3.762    -0.012    20.835     6.507
   570   1 H        0.930     0.058     2.221     2.330
   571   1 H        0.930     0.054     2.272     2.357
   572   6 C        3.827    -0.084    22.080     6.686
   573   1 H        0.930     0.060     2.198     2.318
   574   1 H        0.930     0.069     2.101     2.267
   575   6 C        3.825    -0.083    22.071     6.685
   576   1 H        0.930     0.073     2.052     2.240
   577   1 H        0.930     0.046     2.366     2.405
   578   6 C        3.826    -0.111    22.608     6.766
   579   1 H        0.930     0.079     1.985     2.203
   580   1 H        0.930     0.076     2.016     2.220
   581   6 C        2.766     0.267    22.489     7.766
   582   6 C        2.935    -0.058    29.434     8.898
   583   1 H        0.930     0.075     2.027     2.226
   584   6 C        2.930     0.065    26.539     8.449
   585   6 C        2.938    -0.046    29.143     8.854
   586   6 C        2.935    -0.059    29.456     8.901
   587   1 H        0.930     0.068     2.102     2.267
   588   1 H        0.930     0.074     2.042     2.234
   589   7 N        2.739    -0.115    23.514     7.202
   590   8 O        0.859    -0.476    23.265     6.467
   591   1 H        0.930     0.075     2.031     2.228
   592   6 C        2.936    -0.046    29.149     8.854
   593   1 H        0.930     0.071     2.072     2.251
   594   6 C        2.928     0.069    26.456     8.435
   595   6 C        3.764    -0.013    20.853     6.509
   596   1 H        0.930     0.058     2.218     2.329
   597   6 C        2.767     0.268    22.473     7.764
   598   6 C        3.096    -0.010    28.153     8.696
   599   6 C        3.070    -0.016    28.346     8.730
   600   6 C        3.821    -0.083    22.071     6.686
   601   1 H        0.930     0.078     1.999     2.211
   602   1 H        0.930     0.085     1.931     2.173
   603   6 C        3.172     0.026    27.040     8.494
   604   6 C        2.748     0.275    22.341     7.739
   605   6 C        2.920     0.042    27.049     8.529
   606   6 C        2.934    -0.049    29.205     8.863
   607   1 H        0.930     0.069     2.100     2.266
   608   6 C        2.932    -0.078    29.942     8.974
   609   1 H        0.930     0.073     2.052     2.240
   610   6 C        2.878     0.148    24.782     8.161
   611   6 C        2.936    -0.069    29.720     8.941
   612   1 H        0.930     0.081     1.972     2.196
   613   6 C        2.932    -0.048    29.198     8.862
   614   1 H        0.930     0.078     2.000     2.211
   615   6 C        3.664     0.013    20.616     6.512
   616   1 H        0.930     0.070     2.086     2.258
   617   1 H        0.930     0.049     2.333     2.389
   618   1 H        0.930     0.075     2.033     2.229
   619   1 H        0.862     0.229     0.967     1.540
   620   1 H        0.863     0.205     1.082     1.630
   621   7 N        2.745    -0.119    23.589     7.213
   622   7 N        3.019     0.087    19.725     6.596
   623   7 N        1.991    -0.249    27.296     7.748
   624   7 N        2.645    -0.285    27.365     7.769
   625   8 O        0.858    -0.450    22.699     6.388
   626   8 O        0.860    -0.450    22.714     6.390
   627   8 O        1.705    -0.280    18.646     5.830
   628   6 C        3.762    -0.011    20.818     6.504
   629   1 H        0.930     0.058     2.226     2.333
   630   1 H        0.930     0.060     2.197     2.318
   631   6 C        3.827    -0.083    22.065     6.684
   632   1 H        0.930     0.056     2.251     2.346
   633   1 H        0.930     0.058     2.219     2.329
   634   6 C        3.825    -0.080    22.004     6.675
   635   1 H        0.930     0.053     2.279     2.361
   636   1 H        0.930     0.051     2.308     2.375
   637   6 C        3.826    -0.107    22.524     6.753
   638   1 H        0.930     0.075     2.033     2.230
   639   1 H        0.930     0.077     2.011     2.218
   640   6 C        2.766     0.268    22.475     7.764
   641   6 C        2.935    -0.055    29.377     8.889
   642   1 H        0.930     0.066     2.125     2.279
   643   6 C        2.930     0.070    26.443     8.433
   644   6 C        2.938    -0.044    29.090     8.846
   645   6 C        2.935    -0.057    29.408     8.894
   646   1 H        0.930     0.070     2.082     2.256
   647   1 H        0.930     0.070     2.084     2.257
   648   7 N        2.739    -0.113    23.475     7.196
   649   8 O        0.859    -0.466    23.054     6.438

 Mol. C6AA /au·bohr⁶  :    5064375.487479
 Mol. C8AA /au·bohr⁸  :  121021076.445869
 Mol. α(0) /au        :       3487.923118


Wiberg/Mayer (AO) data.
largest (>0.10) Wiberg bond orders for each atom

 ---------------------------------------------------------------------------
     #   Z sym  total        # sym  WBO       # sym  WBO       # sym  WBO
 ---------------------------------------------------------------------------
     1   1 H    0.994 --    54 C    0.973
     2   6 C    3.989 --    54 C    1.440     4 C    1.403     3 H    0.966
                            51 C    0.110
     3   1 H    0.991 --     2 C    0.966
     4   6 C    3.966 --     2 C    1.403    55 C    1.402    31 N    0.998
     5   6 C    3.967 --    10 C    0.998    57 H    0.973     6 H    0.973
                            31 N    0.962
     6   1 H    0.996 --     5 C    0.973
     7   6 C    3.957 --    35 O    1.650    31 N    1.207     8 C    1.009
     8   6 C    3.955 --     9 C    1.428    32 N    1.228     7 C    1.009
                            33 N    0.132
     9   6 C    3.980 --     8 C    1.428    13 C    1.326    10 C    1.011
    10   6 C    3.990 --     9 C    1.011     5 C    0.998    12 H    0.963
                            11 H    0.961
    11   1 H    0.995 --    10 C    0.961
    12   1 H    0.993 --    10 C    0.963
    13   6 C    3.967 --    33 N    1.418     9 C    1.326    14 C    1.001
    14   6 C    3.951 --    36 O    1.630    34 N    1.277    13 C    1.001
    15   6 C    3.950 --    16 C    1.396    23 C    1.372    32 N    1.001
    16   6 C    3.987 --    18 C    1.441    15 C    1.396    17 H    0.967
                            21 C    0.104
    17   1 H    0.991 --    16 C    0.967
    18   6 C    3.987 --    16 C    1.441    20 C    1.375    19 H    0.961
                            23 C    0.102
    19   1 H    0.988 --    18 C    0.961
    20   6 C    3.933 --    18 C    1.375    21 C    1.344    37 O    1.075
    21   6 C    3.991 --    23 C    1.472    20 C    1.344    22 H    0.972
                            16 C    0.104
    22   1 H    0.995 --    21 C    0.972
    23   6 C    3.991 --    21 C    1.472    15 C    1.372    24 H    0.974
                            18 C    0.102
    24   1 H    0.995 --    23 C    0.974
    25   6 C    3.929 --    27 H    0.981    26 H    0.977    28 H    0.975
                            37 O    0.962
    26   1 H    0.996 --    25 C    0.977
    27   1 H    0.997 --    25 C    0.981
    28   1 H    0.993 --    25 C    0.975
    29   1 H    0.947 --    34 N    0.919
    30   1 H    0.956 --    34 N    0.941
    31   7 N    3.478 --     7 C    1.207     4 C    0.998     5 C    0.962
                            35 O    0.187
    32   7 N    3.693 --     8 C    1.228    33 N    1.219    15 C    1.001
    33   7 N    2.959 --    13 C    1.418    32 N    1.219     8 C    0.132
    34   7 N    3.388 --    14 C    1.277    30 H    0.941    29 H    0.919
                            36 O    0.195
    35   8 O    1.996 --     7 C    1.650    31 N    0.187
    36   8 O    1.949 --    14 C    1.630    34 N    0.195
    37   8 O    2.206 --    20 C    1.075    25 C    0.962
    38   6 C    3.965 --    41 C    1.007    40 H    0.972    39 H    0.970
                            58 N    0.955
    39   1 H    0.997 --    38 C    0.970
    40   1 H    0.996 --    38 C    0.972
    41   6 C    3.988 --    44 C    1.007    38 C    1.007    42 H    0.976
                            43 H    0.966
    42   1 H    0.996 --    41 C    0.976
    43   1 H    0.994 --    41 C    0.966
    44   6 C    3.991 --    41 C    1.007    47 C    1.001    46 H    0.981
                            45 H    0.971
    45   1 H    0.994 --    44 C    0.971
    46   1 H    0.998 --    44 C    0.981
    47   6 C    3.990 --    44 C    1.001    50 C    0.982    49 H    0.962
                            48 H    0.950
    48   1 H    0.993 --    47 C    0.950
    49   1 H    0.995 --    47 C    0.962
    50   6 C    3.948 --    59 O    1.616    58 N    1.259    47 C    0.982
    51   6 C    3.993 --    55 C    1.441    53 C    1.405    52 H    0.972
                             2 C    0.110
    52   1 H    0.995 --    51 C    0.972
    53   6 C    3.967 --    54 C    1.405    51 C    1.405    58 N    0.988
    54   6 C    3.993 --     2 C    1.440    53 C    1.405     1 H    0.973
                            55 C    0.110
    55   6 C    3.991 --    51 C    1.441     4 C    1.402    56 H    0.970
                            54 C    0.110
    56   1 H    0.993 --    55 C    0.970
    57   1 H    0.995 --     5 C    0.973
    58   7 N    3.495 --    50 C    1.259    53 C    0.988    38 C    0.955
                            59 O    0.187
    59   8 O    1.942 --    50 C    1.616    58 N    0.187
    60   6 C    3.967 --    63 C    1.006    62 H    0.973    61 H    0.972
                            80 N    0.956
    61   1 H    0.997 --    60 C    0.972
    62   1 H    0.997 --    60 C    0.973
    63   6 C    3.988 --    66 C    1.007    60 C    1.006    64 H    0.978
                            65 H    0.966
    64   1 H    0.996 --    63 C    0.978
    65   1 H    0.994 --    63 C    0.966
    66   6 C    3.992 --    63 C    1.007    69 C    1.001    68 H    0.982
                            67 H    0.972
    67   1 H    0.995 --    66 C    0.972
    68   1 H    0.998 --    66 C    0.982
    69   6 C    3.990 --    66 C    1.001    72 C    0.978    71 H    0.964
                            70 H    0.953
    70   1 H    0.994 --    69 C    0.953
    71   1 H    0.995 --    69 C    0.964
    72   6 C    3.949 --    81 O    1.652    80 N    1.237    69 C    0.978
    73   6 C    3.994 --    77 C    1.442    75 C    1.405    74 H    0.974
                            83 C    0.109
    74   1 H    0.995 --    73 C    0.974
    75   6 C    3.971 --    73 C    1.405    76 C    1.404    80 N    0.996
    76   6 C    3.993 --    83 C    1.441    75 C    1.404    82 H    0.973
                            77 C    0.110
    77   6 C    3.992 --    73 C    1.442    85 C    1.402    78 H    0.971
                            76 C    0.110
    78   1 H    0.994 --    77 C    0.971
    79   1 H    0.994 --    86 C    0.973
    80   7 N    3.481 --    72 C    1.237    75 C    0.996    60 C    0.956
                            81 O    0.187
    81   8 O    1.960 --    72 C    1.652    80 N    0.187
    82   1 H    0.994 --    76 C    0.973
    83   6 C    3.992 --    76 C    1.441    85 C    1.404    84 H    0.973
                            73 C    0.109
    84   1 H    0.995 --    83 C    0.973
    85   6 C    3.962 --    83 C    1.404    77 C    1.402   112 N    0.992
    86   6 C    3.967 --    91 C    0.998    87 H    0.974    79 H    0.973
                           112 N    0.962
    87   1 H    0.996 --    86 C    0.974
    88   6 C    3.958 --   116 O    1.647   112 N    1.211    89 C    1.009
    89   6 C    3.953 --    90 C    1.429   113 N    1.223    88 C    1.009
                           114 N    0.133
    90   6 C    3.980 --    89 C    1.429    94 C    1.323    91 C    1.012
    91   6 C    3.990 --    90 C    1.012    86 C    0.998    93 H    0.963
                            92 H    0.961
    92   1 H    0.994 --    91 C    0.961
    93   1 H    0.992 --    91 C    0.963
    94   6 C    3.967 --   114 N    1.421    90 C    1.323    95 C    1.003
    95   6 C    3.951 --   117 O    1.647   115 N    1.258    94 C    1.003
    96   6 C    3.954 --    97 C    1.401   104 C    1.370   113 N    1.004
    97   6 C    3.991 --    99 C    1.436    96 C    1.401    98 H    0.973
                           102 C    0.107
    98   1 H    0.995 --    97 C    0.973
    99   6 C    3.990 --    97 C    1.436   101 C    1.379   100 H    0.970
   100   1 H    0.994 --    99 C    0.970
   101   6 C    3.933 --    99 C    1.379   102 C    1.341   118 O    1.075
   102   6 C    3.991 --   104 C    1.478   101 C    1.341   103 H    0.970
                            97 C    0.107
   103   1 H    0.993 --   102 C    0.970
   104   6 C    3.990 --   102 C    1.478    96 C    1.370   105 H    0.972
   105   1 H    0.993 --   104 C    0.972
   106   6 C    3.935 --   108 H    0.981   109 H    0.980   107 H    0.979
                           118 O    0.966
   107   1 H    0.994 --   106 C    0.979
   108   1 H    0.996 --   106 C    0.981
   109   1 H    0.996 --   106 C    0.980
   110   1 H    0.957 --   115 N    0.940
   111   1 H    0.953 --   115 N    0.939
   112   7 N    3.479 --    88 C    1.211    85 C    0.992    86 C    0.962
                           116 O    0.192
   113   7 N    3.694 --    89 C    1.223   114 N    1.222    96 C    1.004
   114   7 N    2.964 --    94 C    1.421   113 N    1.222    89 C    0.133
   115   7 N    3.374 --    95 C    1.258   110 H    0.940   111 H    0.939
                           117 O    0.191
   116   8 O    1.995 --    88 C    1.647   112 N    0.192
   117   8 O    1.962 --    95 C    1.647   115 N    0.191
   118   8 O    2.212 --   101 C    1.075   106 C    0.966
   119   6 C    3.968 --   122 C    1.007   121 H    0.973   120 H    0.971
                           139 N    0.960
   120   1 H    0.996 --   119 C    0.971
   121   1 H    0.996 --   119 C    0.973
   122   6 C    3.991 --   119 C    1.007   125 C    1.006   123 H    0.978
                           124 H    0.970
   123   1 H    0.997 --   122 C    0.978
   124   1 H    0.996 --   122 C    0.970
   125   6 C    3.993 --   122 C    1.006   128 C    1.001   127 H    0.980
                           126 H    0.975
   126   1 H    0.997 --   125 C    0.975
   127   1 H    0.997 --   125 C    0.980
   128   6 C    3.990 --   125 C    1.001   131 C    0.979   130 H    0.961
                           129 H    0.953
   129   1 H    0.994 --   128 C    0.953
   130   1 H    0.994 --   128 C    0.961
   131   6 C    3.949 --   140 O    1.620   139 N    1.263   128 C    0.979
   132   6 C    3.994 --   136 C    1.441   134 C    1.404   133 H    0.974
                           142 C    0.110
   133   1 H    0.995 --   132 C    0.974
   134   6 C    3.965 --   135 C    1.406   132 C    1.404   139 N    0.986
   135   6 C    3.993 --   142 C    1.440   134 C    1.406   141 H    0.973
                           136 C    0.109
   136   6 C    3.993 --   132 C    1.441   144 C    1.401   137 H    0.973
                           135 C    0.109
   137   1 H    0.995 --   136 C    0.973
   138   1 H    0.995 --   145 C    0.974
   139   7 N    3.498 --   131 C    1.263   134 C    0.986   119 C    0.960
                           140 O    0.189
   140   8 O    1.946 --   131 C    1.620   139 N    0.189
   141   1 H    0.994 --   135 C    0.973
   142   6 C    3.988 --   135 C    1.440   144 C    1.402   143 H    0.966
                           132 C    0.110
   143   1 H    0.991 --   142 C    0.966
   144   6 C    3.968 --   142 C    1.402   136 C    1.401   171 N    1.003
   145   6 C    3.967 --   150 C    0.998   138 H    0.974   146 H    0.973
                           171 N    0.961
   146   1 H    0.996 --   145 C    0.973
   147   6 C    3.957 --   175 O    1.666   171 N    1.194   148 C    1.009
   148   6 C    3.955 --   149 C    1.431   172 N    1.225   147 C    1.009
                           173 N    0.133
   149   6 C    3.981 --   148 C    1.431   153 C    1.323   150 C    1.011
   150   6 C    3.990 --   149 C    1.011   145 C    0.998   152 H    0.962
                           151 H    0.961
   151   1 H    0.994 --   150 C    0.961
   152   1 H    0.993 --   150 C    0.962
   153   6 C    3.968 --   173 N    1.421   149 C    1.323   154 C    1.003
   154   6 C    3.950 --   176 O    1.649   174 N    1.255   153 C    1.003
   155   6 C    3.953 --   156 C    1.400   163 C    1.373   172 N    1.003
   156   6 C    3.988 --   158 C    1.436   155 C    1.400   157 H    0.967
                           161 C    0.107
   157   1 H    0.992 --   156 C    0.967
   158   6 C    3.988 --   156 C    1.436   160 C    1.381   159 H    0.964
                           163 C    0.101
   159   1 H    0.991 --   158 C    0.964
   160   6 C    3.932 --   158 C    1.381   161 C    1.346   177 O    1.066
   161   6 C    3.991 --   163 C    1.474   160 C    1.346   162 H    0.973
                           156 C    0.107
   162   1 H    0.994 --   161 C    0.973
   163   6 C    3.990 --   161 C    1.474   155 C    1.373   164 H    0.973
                           158 C    0.101
   164   1 H    0.994 --   163 C    0.973
   165   6 C    3.936 --   166 H    0.980   168 H    0.980   167 H    0.980
                           177 O    0.967
   166   1 H    0.995 --   165 C    0.980
   167   1 H    0.996 --   165 C    0.980
   168   1 H    0.996 --   165 C    0.980
   169   1 H    0.958 --   174 N    0.942
   170   1 H    0.955 --   174 N    0.942
   171   7 N    3.468 --   147 C    1.194   144 C    1.003   145 C    0.961
                           175 O    0.185
   172   7 N    3.695 --   148 C    1.225   173 N    1.222   155 C    1.003
   173   7 N    2.964 --   153 C    1.421   172 N    1.222   148 C    0.133
   174   7 N    3.370 --   154 C    1.255   169 H    0.942   170 H    0.942
                           176 O    0.190
   175   8 O    2.008 --   147 C    1.666   171 N    0.185
   176   8 O    1.961 --   154 C    1.649   174 N    0.190
   177   8 O    2.200 --   160 C    1.066   165 C    0.967
   178   6 C    3.990 --   223 C    1.001   226 C    0.979   180 H    0.962
                           179 H    0.953
   179   1 H    0.994 --   178 C    0.953
   180   1 H    0.994 --   178 C    0.962
   181   8 O    1.949 --   226 C    1.620   236 N    0.190
   182   6 C    3.932 --   206 C    1.378   183 C    1.345   189 O    1.070
   183   6 C    3.991 --   207 C    1.474   182 C    1.345   184 H    0.973
                           204 C    0.106
   184   1 H    0.994 --   183 C    0.973
   185   6 C    3.934 --   187 H    0.981   186 H    0.981   188 H    0.977
                           189 O    0.966
   186   1 H    0.995 --   185 C    0.981
   187   1 H    0.997 --   185 C    0.981
   188   1 H    0.995 --   185 C    0.977
   189   8 O    2.204 --   182 C    1.070   185 C    0.966
   190   6 C    3.968 --   232 C    1.401   234 C    1.401   211 N    1.004
   191   1 H    0.995 --   234 C    0.973
   192   6 C    3.967 --   198 C    0.998   194 H    0.973   193 H    0.973
                           211 N    0.960
   193   1 H    0.996 --   192 C    0.973
   194   1 H    0.995 --   192 C    0.973
   195   6 C    3.956 --   215 O    1.665   211 N    1.193   196 C    1.010
   196   6 C    3.954 --   197 C    1.430   212 N    1.224   195 C    1.010
                           213 N    0.134
   197   6 C    3.980 --   196 C    1.430   201 C    1.325   198 C    1.011
   198   6 C    3.989 --   197 C    1.011   192 C    0.998   199 H    0.962
                           200 H    0.961
   199   1 H    0.994 --   198 C    0.962
   200   1 H    0.992 --   198 C    0.961
   201   6 C    3.967 --   213 N    1.426   197 C    1.325   202 C    0.996
   202   6 C    3.954 --   216 O    1.648   214 N    1.271   201 C    0.996
   203   6 C    3.954 --   204 C    1.399   207 C    1.372   212 N    1.004
   204   6 C    3.988 --   206 C    1.438   203 C    1.399   205 H    0.967
                           183 C    0.106
   205   1 H    0.991 --   204 C    0.967
   206   6 C    3.991 --   204 C    1.438   182 C    1.378   235 H    0.969
                           207 C    0.101
   207   6 C    3.991 --   183 C    1.474   203 C    1.372   208 H    0.973
                           206 C    0.101
   208   1 H    0.994 --   207 C    0.973
   209   1 H    0.947 --   214 N    0.920
   210   1 H    0.958 --   214 N    0.944
   211   7 N    3.466 --   195 C    1.193   190 C    1.004   192 C    0.960
                           215 O    0.183
   212   7 N    3.690 --   196 C    1.224   213 N    1.215   203 C    1.004
   213   7 N    2.960 --   201 C    1.426   212 N    1.215   196 C    0.134
   214   7 N    3.384 --   202 C    1.271   210 H    0.944   209 H    0.920
                           216 O    0.199
   215   8 O    2.006 --   195 C    1.665   211 N    0.183
   216   8 O    1.967 --   202 C    1.648   214 N    0.199
   217   6 C    3.968 --   220 C    1.007   219 H    0.973   218 H    0.971
                           236 N    0.960
   218   1 H    0.996 --   217 C    0.971
   219   1 H    0.996 --   217 C    0.973
   220   6 C    3.991 --   217 C    1.007   223 C    1.007   221 H    0.979
                           222 H    0.970
   221   1 H    0.997 --   220 C    0.979
   222   1 H    0.996 --   220 C    0.970
   223   6 C    3.993 --   220 C    1.007   178 C    1.001   225 H    0.980
                           224 H    0.976
   224   1 H    0.997 --   223 C    0.976
   225   1 H    0.997 --   223 C    0.980
   226   6 C    3.950 --   181 O    1.620   236 N    1.262   178 C    0.979
   227   6 C    3.993 --   234 C    1.441   229 C    1.405   228 H    0.973
                           232 C    0.110
   228   1 H    0.995 --   227 C    0.973
   229   6 C    3.963 --   230 C    1.406   227 C    1.405   236 N    0.983
   230   6 C    3.994 --   232 C    1.440   229 C    1.406   231 H    0.973
                           234 C    0.109
   231   1 H    0.995 --   230 C    0.973
   232   6 C    3.987 --   230 C    1.440   190 C    1.401   233 H    0.967
                           227 C    0.110
   233   1 H    0.990 --   232 C    0.967
   234   6 C    3.993 --   227 C    1.441   190 C    1.401   191 H    0.973
                           230 C    0.109
   235   1 H    0.994 --   206 C    0.969
   236   7 N    3.496 --   226 C    1.262   229 C    0.983   217 C    0.960
                           181 O    0.190
   237   6 C    3.990 --   282 C    1.002   285 C    0.979   239 H    0.962
                           238 H    0.953
   238   1 H    0.994 --   237 C    0.953
   239   1 H    0.993 --   237 C    0.962
   240   8 O    1.965 --   285 C    1.644   295 N    0.187
   241   6 C    3.934 --   265 C    1.377   242 C    1.344   248 O    1.074
   242   6 C    3.991 --   266 C    1.474   241 C    1.344   243 H    0.972
                           263 C    0.106
   243   1 H    0.994 --   242 C    0.972
   244   6 C    3.932 --   246 H    0.981   245 H    0.977   247 H    0.976
                           248 O    0.964
   245   1 H    0.995 --   244 C    0.977
   246   1 H    0.997 --   244 C    0.981
   247   1 H    0.994 --   244 C    0.976
   248   8 O    2.208 --   241 C    1.074   244 C    0.964
   249   6 C    3.966 --   291 C    1.403   293 C    1.401   270 N    0.999
   250   1 H    0.995 --   293 C    0.974
   251   6 C    3.965 --   257 C    0.998   252 H    0.973   253 H    0.973
                           270 N    0.960
   252   1 H    0.996 --   251 C    0.973
   253   1 H    0.995 --   251 C    0.973
   254   6 C    3.957 --   274 O    1.655   270 N    1.200   255 C    1.012
   255   6 C    3.953 --   256 C    1.430   271 N    1.219   254 C    1.012
                           272 N    0.135
   256   6 C    3.980 --   255 C    1.430   260 C    1.324   257 C    1.012
   257   6 C    3.989 --   256 C    1.012   251 C    0.998   259 H    0.961
                           258 H    0.961
   258   1 H    0.994 --   257 C    0.961
   259   1 H    0.992 --   257 C    0.961
   260   6 C    3.968 --   272 N    1.429   256 C    1.324   261 C    0.997
   261   6 C    3.953 --   275 O    1.637   273 N    1.280   260 C    0.997
   262   6 C    3.956 --   263 C    1.399   266 C    1.372   271 N    1.006
   263   6 C    3.991 --   265 C    1.438   262 C    1.399   264 H    0.973
                           242 C    0.106
   264   1 H    0.995 --   263 C    0.973
   265   6 C    3.991 --   263 C    1.438   241 C    1.377   294 H    0.969
                           266 C    0.101
   266   6 C    3.990 --   242 C    1.474   262 C    1.372   267 H    0.972
                           265 C    0.101
   267   1 H    0.994 --   266 C    0.972
   268   1 H    0.946 --   273 N    0.918
   269   1 H    0.956 --   273 N    0.942
   270   7 N    3.472 --   254 C    1.200   249 C    0.999   251 C    0.960
                           274 O    0.187
   271   7 N    3.688 --   255 C    1.219   272 N    1.215   262 C    1.006
   272   7 N    2.963 --   260 C    1.429   271 N    1.215   255 C    0.135
   273   7 N    3.392 --   261 C    1.280   269 H    0.942   268 H    0.918
                           275 O    0.198
   274   8 O    1.999 --   254 C    1.655   270 N    0.187
   275   8 O    1.957 --   261 C    1.637   273 N    0.198
   276   6 C    3.969 --   279 C    1.007   278 H    0.974   277 H    0.972
                           295 N    0.959
   277   1 H    0.997 --   276 C    0.972
   278   1 H    0.996 --   276 C    0.974
   279   6 C    3.991 --   276 C    1.007   282 C    1.006   280 H    0.979
                           281 H    0.971
   280   1 H    0.997 --   279 C    0.979
   281   1 H    0.996 --   279 C    0.971
   282   6 C    3.994 --   279 C    1.006   237 C    1.002   284 H    0.981
                           283 H    0.976
   283   1 H    0.997 --   282 C    0.976
   284   1 H    0.997 --   282 C    0.981
   285   6 C    3.949 --   240 O    1.644   295 N    1.243   237 C    0.979
   286   6 C    3.994 --   293 C    1.442   288 C    1.405   287 H    0.974
                           291 C    0.109
   287   1 H    0.995 --   286 C    0.974
   288   6 C    3.969 --   289 C    1.405   286 C    1.405   295 N    0.991
   289   6 C    3.993 --   291 C    1.441   288 C    1.405   290 H    0.973
                           293 C    0.110
   290   1 H    0.994 --   289 C    0.973
   291   6 C    3.992 --   289 C    1.441   249 C    1.403   292 H    0.972
                           286 C    0.109
   292   1 H    0.994 --   291 C    0.972
   293   6 C    3.993 --   286 C    1.442   249 C    1.401   250 H    0.974
                           289 C    0.110
   294   1 H    0.994 --   265 C    0.969
   295   7 N    3.484 --   285 C    1.243   288 C    0.991   276 C    0.959
                           240 O    0.187
   296   6 C    3.969 --   299 C    1.007   298 H    0.973   297 H    0.972
                           315 N    0.960
   297   1 H    0.996 --   296 C    0.972
   298   1 H    0.996 --   296 C    0.973
   299   6 C    3.991 --   296 C    1.007   302 C    1.006   300 H    0.978
                           301 H    0.970
   300   1 H    0.997 --   299 C    0.978
   301   1 H    0.996 --   299 C    0.970
   302   6 C    3.994 --   299 C    1.006   351 C    1.001   304 H    0.981
                           303 H    0.976
   303   1 H    0.997 --   302 C    0.976
   304   1 H    0.997 --   302 C    0.981
   305   6 C    3.950 --   354 O    1.640   315 N    1.251   351 C    0.977
   306   6 C    3.994 --   313 C    1.442   308 C    1.405   307 H    0.974
                           311 C    0.110
   307   1 H    0.995 --   306 C    0.974
   308   6 C    3.967 --   309 C    1.406   306 C    1.405   315 N    0.988
   309   6 C    3.993 --   311 C    1.440   308 C    1.406   310 H    0.973
                           313 C    0.110
   310   1 H    0.994 --   309 C    0.973
   311   6 C    3.989 --   309 C    1.440   316 C    1.403   312 H    0.967
                           306 C    0.110
   312   1 H    0.992 --   311 C    0.967
   313   6 C    3.993 --   306 C    1.442   316 C    1.402   317 H    0.974
                           309 C    0.110
   314   1 H    0.991 --   332 C    0.964
   315   7 N    3.490 --   305 C    1.251   308 C    0.988   296 C    0.960
                           354 O    0.190
   316   6 C    3.966 --   311 C    1.403   313 C    1.402   337 N    0.998
   317   1 H    0.995 --   313 C    0.974
   318   6 C    3.969 --   324 C    0.998   320 H    0.974   319 H    0.974
                           337 N    0.962
   319   1 H    0.997 --   318 C    0.974
   320   1 H    0.995 --   318 C    0.974
   321   6 C    3.957 --   341 O    1.657   337 N    1.201   322 C    1.009
   322   6 C    3.954 --   323 C    1.430   338 N    1.225   321 C    1.009
                           339 N    0.132
   323   6 C    3.980 --   322 C    1.430   327 C    1.324   324 C    1.012
   324   6 C    3.990 --   323 C    1.012   318 C    0.998   326 H    0.964
                           325 H    0.961
   325   1 H    0.994 --   324 C    0.961
   326   1 H    0.993 --   324 C    0.964
   327   6 C    3.967 --   339 N    1.421   323 C    1.324   328 C    1.002
   328   6 C    3.951 --   342 O    1.658   340 N    1.249   327 C    1.002
   329   6 C    3.953 --   330 C    1.400   333 C    1.372   338 N    1.003
   330   6 C    3.988 --   332 C    1.436   329 C    1.400   331 H    0.967
                           349 C    0.107
   331   1 H    0.992 --   330 C    0.967
   332   6 C    3.988 --   330 C    1.436   348 C    1.380   314 H    0.964
                           333 C    0.100
   333   6 C    3.990 --   349 C    1.475   329 C    1.372   334 H    0.973
                           332 C    0.100
   334   1 H    0.994 --   333 C    0.973
   335   1 H    0.958 --   340 N    0.942
   336   1 H    0.956 --   340 N    0.942
   337   7 N    3.472 --   321 C    1.201   316 C    0.998   318 C    0.962
                           341 O    0.186
   338   7 N    3.694 --   322 C    1.225   339 N    1.221   329 C    1.003
   339   7 N    2.963 --   327 C    1.421   338 N    1.221   322 C    0.132
   340   7 N    3.366 --   328 C    1.249   336 H    0.942   335 H    0.942
                           342 O    0.191
   341   8 O    2.001 --   321 C    1.657   337 N    0.186
   342   8 O    1.970 --   328 C    1.658   340 N    0.191
   343   6 C    3.935 --   346 H    0.980   344 H    0.980   345 H    0.980
                           347 O    0.966
   344   1 H    0.995 --   343 C    0.980
   345   1 H    0.996 --   343 C    0.980
   346   1 H    0.996 --   343 C    0.980
   347   8 O    2.204 --   348 C    1.069   343 C    0.966
   348   6 C    3.932 --   332 C    1.380   349 C    1.345   347 O    1.069
   349   6 C    3.991 --   333 C    1.475   348 C    1.345   350 H    0.973
                           330 C    0.107
   350   1 H    0.994 --   349 C    0.973
   351   6 C    3.990 --   302 C    1.001   305 C    0.977   353 H    0.963
                           352 H    0.953
   352   1 H    0.994 --   351 C    0.953
   353   1 H    0.994 --   351 C    0.963
   354   8 O    1.955 --   305 C    1.640   315 N    0.190
   355   6 C    3.969 --   358 C    1.007   357 H    0.972   356 H    0.972
                           374 N    0.959
   356   1 H    0.997 --   355 C    0.972
   357   1 H    0.996 --   355 C    0.972
   358   6 C    3.991 --   355 C    1.007   361 C    1.006   359 H    0.979
                           360 H    0.970
   359   1 H    0.997 --   358 C    0.979
   360   1 H    0.996 --   358 C    0.970
   361   6 C    3.994 --   358 C    1.006   410 C    1.002   363 H    0.981
                           362 H    0.977
   362   1 H    0.997 --   361 C    0.977
   363   1 H    0.998 --   361 C    0.981
   364   6 C    3.951 --   413 O    1.656   374 N    1.239   410 C    0.976
   365   6 C    3.994 --   372 C    1.441   367 C    1.405   366 H    0.974
                           370 C    0.109
   366   1 H    0.996 --   365 C    0.974
   367   6 C    3.969 --   365 C    1.405   368 C    1.405   374 N    0.992
   368   6 C    3.993 --   370 C    1.440   367 C    1.405   369 H    0.973
                           372 C    0.110
   369   1 H    0.994 --   368 C    0.973
   370   6 C    3.992 --   368 C    1.440   375 C    1.404   371 H    0.973
                           365 C    0.109
   371   1 H    0.994 --   370 C    0.973
   372   6 C    3.992 --   365 C    1.441   375 C    1.402   376 H    0.971
                           368 C    0.110
   373   1 H    0.993 --   391 C    0.969
   374   7 N    3.482 --   364 C    1.239   367 C    0.992   355 C    0.959
                           413 O    0.189
   375   6 C    3.964 --   370 C    1.404   372 C    1.402   396 N    0.995
   376   1 H    0.994 --   372 C    0.971
   377   6 C    3.967 --   383 C    0.998   378 H    0.974   379 H    0.973
                           396 N    0.962
   378   1 H    0.996 --   377 C    0.974
   379   1 H    0.995 --   377 C    0.973
   380   6 C    3.957 --   400 O    1.651   396 N    1.205   381 C    1.010
   381   6 C    3.953 --   382 C    1.428   397 N    1.224   380 C    1.010
                           398 N    0.133
   382   6 C    3.980 --   381 C    1.428   386 C    1.325   383 C    1.012
   383   6 C    3.990 --   382 C    1.012   377 C    0.998   385 H    0.962
                           384 H    0.961
   384   1 H    0.995 --   383 C    0.961
   385   1 H    0.992 --   383 C    0.962
   386   6 C    3.967 --   398 N    1.422   382 C    1.325   387 C    0.998
   387   6 C    3.954 --   401 O    1.644   399 N    1.271   386 C    0.998
   388   6 C    3.953 --   389 C    1.398   392 C    1.370   397 N    1.003
   389   6 C    3.991 --   391 C    1.439   388 C    1.398   390 H    0.973
                           408 C    0.106
   390   1 H    0.995 --   389 C    0.973
   391   6 C    3.991 --   389 C    1.439   407 C    1.375   373 H    0.969
   392   6 C    3.991 --   408 C    1.477   388 C    1.370   393 H    0.972
   393   1 H    0.994 --   392 C    0.972
   394   1 H    0.947 --   399 N    0.919
   395   1 H    0.956 --   399 N    0.942
   396   7 N    3.475 --   380 C    1.205   375 C    0.995   377 C    0.962
                           400 O    0.190
   397   7 N    3.692 --   381 C    1.224   398 N    1.218   388 C    1.003
   398   7 N    2.960 --   386 C    1.422   397 N    1.218   381 C    0.133
   399   7 N    3.384 --   387 C    1.271   395 H    0.942   394 H    0.919
                           401 O    0.198
   400   8 O    1.999 --   380 C    1.651   396 N    0.190
   401   8 O    1.964 --   387 C    1.644   399 N    0.198
   402   6 C    3.933 --   404 H    0.981   403 H    0.980   405 H    0.977
                           406 O    0.965
   403   1 H    0.995 --   402 C    0.980
   404   1 H    0.997 --   402 C    0.981
   405   1 H    0.994 --   402 C    0.977
   406   8 O    2.214 --   407 C    1.078   402 C    0.965
   407   6 C    3.933 --   391 C    1.375   408 C    1.341   406 O    1.078
   408   6 C    3.991 --   392 C    1.477   407 C    1.341   409 H    0.970
                           389 C    0.106
   409   1 H    0.993 --   408 C    0.970
   410   6 C    3.990 --   361 C    1.002   364 C    0.976   412 H    0.964
                           411 H    0.954
   411   1 H    0.994 --   410 C    0.954
   412   1 H    0.994 --   410 C    0.964
   413   8 O    1.966 --   364 C    1.656   374 N    0.189
   414   6 C    3.990 --   459 C    1.001   462 C    0.977   416 H    0.964
                           415 H    0.953
   415   1 H    0.994 --   414 C    0.953
   416   1 H    0.995 --   414 C    0.964
   417   8 O    1.962 --   462 C    1.652   472 N    0.189
   418   6 C    3.933 --   442 C    1.379   419 C    1.343   425 O    1.073
   419   6 C    3.991 --   443 C    1.477   418 C    1.343   420 H    0.972
                           440 C    0.108
   420   1 H    0.993 --   419 C    0.972
   421   6 C    3.935 --   424 H    0.981   423 H    0.980   422 H    0.979
                           425 O    0.967
   422   1 H    0.994 --   421 C    0.979
   423   1 H    0.997 --   421 C    0.980
   424   1 H    0.996 --   421 C    0.981
   425   8 O    2.210 --   418 C    1.073   421 C    0.967
   426   6 C    3.962 --   468 C    1.404   470 C    1.402   447 N    0.991
   427   1 H    0.993 --   470 C    0.970
   428   6 C    3.966 --   434 C    0.998   429 H    0.974   430 H    0.972
                           447 N    0.962
   429   1 H    0.996 --   428 C    0.974
   430   1 H    0.994 --   428 C    0.972
   431   6 C    3.958 --   451 O    1.635   447 N    1.218   432 C    1.010
   432   6 C    3.952 --   433 C    1.430   448 N    1.220   431 C    1.010
                           449 N    0.135
   433   6 C    3.981 --   432 C    1.430   437 C    1.321   434 C    1.013
   434   6 C    3.989 --   433 C    1.013   428 C    0.998   436 H    0.962
                           435 H    0.959
   435   1 H    0.994 --   434 C    0.959
   436   1 H    0.992 --   434 C    0.962
   437   6 C    3.968 --   449 N    1.424   433 C    1.321   438 C    1.001
   438   6 C    3.952 --   452 O    1.657   450 N    1.253   437 C    1.001
   439   6 C    3.956 --   440 C    1.402   443 C    1.371   448 N    1.005
   440   6 C    3.991 --   442 C    1.435   439 C    1.402   441 H    0.973
                           419 C    0.108
   441   1 H    0.995 --   440 C    0.973
   442   6 C    3.990 --   440 C    1.435   418 C    1.379   471 H    0.971
   443   6 C    3.990 --   419 C    1.477   439 C    1.371   444 H    0.972
   444   1 H    0.993 --   443 C    0.972
   445   1 H    0.957 --   450 N    0.941
   446   1 H    0.955 --   450 N    0.941
   447   7 N    3.486 --   431 C    1.218   426 C    0.991   428 C    0.962
                           451 O    0.192
   448   7 N    3.690 --   432 C    1.220   449 N    1.219   439 C    1.005
   449   7 N    2.964 --   437 C    1.424   448 N    1.219   432 C    0.135
   450   7 N    3.370 --   438 C    1.253   446 H    0.941   445 H    0.941
                           452 O    0.193
   451   8 O    1.985 --   431 C    1.635   447 N    0.192
   452   8 O    1.971 --   438 C    1.657   450 N    0.193
   453   6 C    3.966 --   456 C    1.007   455 H    0.973   454 H    0.971
                           472 N    0.955
   454   1 H    0.997 --   453 C    0.971
   455   1 H    0.996 --   453 C    0.973
   456   6 C    3.987 --   459 C    1.007   453 C    1.007   457 H    0.978
                           458 H    0.965
   457   1 H    0.996 --   456 C    0.978
   458   1 H    0.994 --   456 C    0.965
   459   6 C    3.992 --   456 C    1.007   414 C    1.001   461 H    0.981
                           460 H    0.971
   460   1 H    0.995 --   459 C    0.971
   461   1 H    0.998 --   459 C    0.981
   462   6 C    3.950 --   417 O    1.652   472 N    1.238   414 C    0.977
   463   6 C    3.993 --   470 C    1.441   465 C    1.406   464 H    0.972
                           468 C    0.109
   464   1 H    0.994 --   463 C    0.972
   465   6 C    3.970 --   463 C    1.406   466 C    1.404   472 N    0.994
   466   6 C    3.993 --   468 C    1.440   465 C    1.404   467 H    0.973
                           470 C    0.110
   467   1 H    0.994 --   466 C    0.973
   468   6 C    3.993 --   466 C    1.440   426 C    1.404   469 H    0.974
                           463 C    0.109
   469   1 H    0.995 --   468 C    0.974
   470   6 C    3.991 --   463 C    1.441   426 C    1.402   427 H    0.970
                           466 C    0.110
   471   1 H    0.995 --   442 C    0.971
   472   7 N    3.482 --   462 C    1.238   465 C    0.994   453 C    0.955
                           417 O    0.189
   473   6 C    3.990 --   518 C    1.001   521 C    0.979   475 H    0.964
                           474 H    0.951
   474   1 H    0.993 --   473 C    0.951
   475   1 H    0.994 --   473 C    0.964
   476   8 O    1.962 --   521 C    1.655   531 N    0.186
   477   6 C    3.933 --   501 C    1.378   478 C    1.343   484 O    1.073
   478   6 C    3.991 --   502 C    1.477   477 C    1.343   479 H    0.972
                           499 C    0.106
   479   1 H    0.993 --   478 C    0.972
   480   6 C    3.933 --   482 H    0.981   483 H    0.979   481 H    0.976
                           484 O    0.965
   481   1 H    0.995 --   480 C    0.976
   482   1 H    0.997 --   480 C    0.981
   483   1 H    0.995 --   480 C    0.979
   484   8 O    2.209 --   477 C    1.073   480 C    0.965
   485   6 C    3.965 --   527 C    1.403   529 C    1.401   506 N    0.997
   486   1 H    0.995 --   529 C    0.974
   487   6 C    3.967 --   493 C    0.998   488 H    0.974   489 H    0.974
                           506 N    0.961
   488   1 H    0.997 --   487 C    0.974
   489   1 H    0.995 --   487 C    0.974
   490   6 C    3.957 --   510 O    1.649   506 N    1.201   491 C    1.014
   491   6 C    3.952 --   492 C    1.425   507 N    1.222   490 C    1.014
                           508 N    0.131
   492   6 C    3.980 --   491 C    1.425   496 C    1.325   493 C    1.012
   493   6 C    3.989 --   492 C    1.012   487 C    0.998   495 H    0.963
                           494 H    0.961
   494   1 H    0.994 --   493 C    0.961
   495   1 H    0.992 --   493 C    0.963
   496   6 C    3.968 --   508 N    1.422   492 C    1.325   497 C    1.001
   497   6 C    3.951 --   511 O    1.657   509 N    1.253   496 C    1.001
   498   6 C    3.952 --   499 C    1.400   502 C    1.370   507 N    1.002
   499   6 C    3.992 --   501 C    1.437   498 C    1.400   500 H    0.974
                           478 C    0.106
   500   1 H    0.995 --   499 C    0.974
   501   6 C    3.988 --   499 C    1.437   477 C    1.378   530 H    0.964
   502   6 C    3.990 --   478 C    1.477   498 C    1.370   503 H    0.972
   503   1 H    0.994 --   502 C    0.972
   504   1 H    0.957 --   509 N    0.942
   505   1 H    0.955 --   509 N    0.942
   506   7 N    3.470 --   490 C    1.201   485 C    0.997   487 C    0.961
                           510 O    0.186
   507   7 N    3.696 --   508 N    1.226   491 C    1.222   498 C    1.002
   508   7 N    2.967 --   496 C    1.422   507 N    1.226   491 C    0.131
   509   7 N    3.369 --   497 C    1.253   505 H    0.942   504 H    0.942
                           511 O    0.192
   510   8 O    1.995 --   490 C    1.649   506 N    0.186
   511   8 O    1.970 --   497 C    1.657   509 N    0.192
   512   6 C    3.969 --   515 C    1.006   514 H    0.974   513 H    0.973
                           531 N    0.958
   513   1 H    0.997 --   512 C    0.973
   514   1 H    0.997 --   512 C    0.974
   515   6 C    3.989 --   518 C    1.007   512 C    1.006   516 H    0.977
                           517 H    0.968
   516   1 H    0.996 --   515 C    0.977
   517   1 H    0.995 --   515 C    0.968
   518   6 C    3.991 --   515 C    1.007   473 C    1.001   520 H    0.981
                           519 H    0.971
   519   1 H    0.994 --   518 C    0.971
   520   1 H    0.998 --   518 C    0.981
   521   6 C    3.949 --   476 O    1.655   531 N    1.235   473 C    0.979
   522   6 C    3.994 --   529 C    1.443   524 C    1.405   523 H    0.974
                           527 C    0.109
   523   1 H    0.995 --   522 C    0.974
   524   6 C    3.970 --   522 C    1.405   525 C    1.404   531 N    0.994
   525   6 C    3.993 --   527 C    1.441   524 C    1.404   526 H    0.972
                           529 C    0.110
   526   1 H    0.994 --   525 C    0.972
   527   6 C    3.993 --   525 C    1.441   485 C    1.403   528 H    0.971
                           522 C    0.109
   528   1 H    0.995 --   527 C    0.971
   529   6 C    3.993 --   522 C    1.443   485 C    1.401   486 H    0.974
                           525 C    0.110
   530   1 H    0.991 --   501 C    0.964
   531   7 N    3.478 --   521 C    1.235   524 C    0.994   512 C    0.958
                           476 O    0.186
   532   1 H    0.994 --   585 C    0.973
   533   6 C    3.992 --   585 C    1.441   535 C    1.403   534 H    0.973
                           582 C    0.109
   534   1 H    0.994 --   533 C    0.973
   535   6 C    3.966 --   533 C    1.403   586 C    1.401   562 N    0.998
   536   6 C    3.965 --   541 C    0.998   537 H    0.973   588 H    0.972
                           562 N    0.960
   537   1 H    0.996 --   536 C    0.973
   538   6 C    3.957 --   566 O    1.654   562 N    1.201   539 C    1.012
   539   6 C    3.952 --   540 C    1.430   563 N    1.219   538 C    1.012
                           564 N    0.134
   540   6 C    3.981 --   539 C    1.430   544 C    1.322   541 C    1.012
   541   6 C    3.989 --   540 C    1.012   536 C    0.998   542 H    0.961
                           543 H    0.961
   542   1 H    0.994 --   541 C    0.961
   543   1 H    0.992 --   541 C    0.961
   544   6 C    3.968 --   564 N    1.426   540 C    1.322   545 C    1.001
   545   6 C    3.951 --   567 O    1.652   565 N    1.257   544 C    1.001
   546   6 C    3.956 --   547 C    1.402   554 C    1.371   563 N    1.005
   547   6 C    3.991 --   549 C    1.435   546 C    1.402   548 H    0.973
                           552 C    0.108
   548   1 H    0.995 --   547 C    0.973
   549   6 C    3.991 --   547 C    1.435   551 C    1.380   550 H    0.971
   550   1 H    0.995 --   549 C    0.971
   551   6 C    3.933 --   549 C    1.380   552 C    1.344   568 O    1.071
   552   6 C    3.991 --   554 C    1.476   551 C    1.344   553 H    0.972
                           547 C    0.108
   553   1 H    0.993 --   552 C    0.972
   554   6 C    3.990 --   552 C    1.476   546 C    1.371   555 H    0.972
   555   1 H    0.993 --   554 C    0.972
   556   6 C    3.936 --   558 H    0.981   559 H    0.981   557 H    0.979
                           568 O    0.967
   557   1 H    0.994 --   556 C    0.979
   558   1 H    0.996 --   556 C    0.981
   559   1 H    0.996 --   556 C    0.981
   560   1 H    0.957 --   565 N    0.941
   561   1 H    0.955 --   565 N    0.941
   562   7 N    3.472 --   538 C    1.201   535 C    0.998   536 C    0.960
                           566 O    0.188
   563   7 N    3.692 --   564 N    1.220   539 C    1.219   546 C    1.005
   564   7 N    2.966 --   544 C    1.426   563 N    1.220   539 C    0.134
   565   7 N    3.373 --   545 C    1.257   561 H    0.941   560 H    0.941
                           567 O    0.192
   566   8 O    1.999 --   538 C    1.654   562 N    0.188
   567   8 O    1.966 --   545 C    1.652   565 N    0.192
   568   8 O    2.207 --   551 C    1.071   556 C    0.967
   569   6 C    3.969 --   572 C    1.007   571 H    0.974   570 H    0.972
                           589 N    0.957
   570   1 H    0.997 --   569 C    0.972
   571   1 H    0.997 --   569 C    0.974
   572   6 C    3.989 --   575 C    1.007   569 C    1.007   573 H    0.978
                           574 H    0.968
   573   1 H    0.996 --   572 C    0.978
   574   1 H    0.995 --   572 C    0.968
   575   6 C    3.992 --   572 C    1.007   578 C    1.001   577 H    0.980
                           576 H    0.971
   576   1 H    0.995 --   575 C    0.971
   577   1 H    0.998 --   575 C    0.980
   578   6 C    3.990 --   575 C    1.001   581 C    0.979   580 H    0.963
                           579 H    0.951
   579   1 H    0.993 --   578 C    0.951
   580   1 H    0.994 --   578 C    0.963
   581   6 C    3.948 --   590 O    1.642   589 N    1.242   578 C    0.979
   582   6 C    3.993 --   586 C    1.442   584 C    1.405   583 H    0.972
                           533 C    0.109
   583   1 H    0.994 --   582 C    0.972
   584   6 C    3.969 --   582 C    1.405   585 C    1.405   589 N    0.991
   585   6 C    3.993 --   533 C    1.441   584 C    1.405   532 H    0.973
                           586 C    0.110
   586   6 C    3.993 --   582 C    1.442   535 C    1.401   587 H    0.973
                           585 C    0.110
   587   1 H    0.995 --   586 C    0.973
   588   1 H    0.994 --   536 C    0.972
   589   7 N    3.483 --   581 C    1.242   584 C    0.991   569 C    0.957
                           590 O    0.187
   590   8 O    1.963 --   581 C    1.642   589 N    0.187
   591   1 H    0.994 --   644 C    0.973
   592   6 C    3.992 --   644 C    1.441   594 C    1.403   593 H    0.973
                           641 C    0.109
   593   1 H    0.995 --   592 C    0.973
   594   6 C    3.965 --   592 C    1.403   645 C    1.401   621 N    0.997
   595   6 C    3.967 --   600 C    0.998   596 H    0.974   647 H    0.974
                           621 N    0.961
   596   1 H    0.997 --   595 C    0.974
   597   6 C    3.957 --   625 O    1.647   621 N    1.204   598 C    1.013
   598   6 C    3.952 --   599 C    1.428   622 N    1.219   597 C    1.013
                           623 N    0.134
   599   6 C    3.980 --   598 C    1.428   603 C    1.325   600 C    1.012
   600   6 C    3.989 --   599 C    1.012   595 C    0.998   602 H    0.962
                           601 H    0.960
   601   1 H    0.994 --   600 C    0.960
   602   1 H    0.992 --   600 C    0.962
   603   6 C    3.968 --   623 N    1.428   599 C    1.325   604 C    0.995
   604   6 C    3.955 --   626 O    1.653   624 N    1.270   603 C    0.995
   605   6 C    3.955 --   606 C    1.400   613 C    1.370   622 N    1.005
   606   6 C    3.992 --   608 C    1.436   605 C    1.400   607 H    0.974
                           611 C    0.107
   607   1 H    0.995 --   606 C    0.974
   608   6 C    3.990 --   606 C    1.436   610 C    1.376   609 H    0.970
   609   1 H    0.994 --   608 C    0.970
   610   6 C    3.934 --   608 C    1.376   611 C    1.342   627 O    1.076
   611   6 C    3.991 --   613 C    1.477   610 C    1.342   612 H    0.972
                           606 C    0.107
   612   1 H    0.993 --   611 C    0.972
   613   6 C    3.990 --   611 C    1.477   605 C    1.370   614 H    0.972
   614   1 H    0.993 --   613 C    0.972
   615   6 C    3.932 --   617 H    0.981   616 H    0.976   618 H    0.976
                           627 O    0.964
   616   1 H    0.995 --   615 C    0.976
   617   1 H    0.997 --   615 C    0.981
   618   1 H    0.994 --   615 C    0.976
   619   1 H    0.947 --   624 N    0.920
   620   1 H    0.958 --   624 N    0.944
   621   7 N    3.473 --   597 C    1.204   594 C    0.997   595 C    0.961
                           625 O    0.187
   622   7 N    3.689 --   598 C    1.219   623 N    1.216   605 C    1.005
   623   7 N    2.962 --   603 C    1.428   622 N    1.216   598 C    0.134
   624   7 N    3.384 --   604 C    1.270   620 H    0.944   619 H    0.920
                           626 O    0.201
   625   8 O    1.994 --   597 C    1.647   621 N    0.187
   626   8 O    1.971 --   604 C    1.653   624 N    0.201
   627   8 O    2.212 --   610 C    1.076   615 C    0.964
   628   6 C    3.970 --   631 C    1.007   630 H    0.974   629 H    0.972
                           648 N    0.960
   629   1 H    0.997 --   628 C    0.972
   630   1 H    0.996 --   628 C    0.974
   631   6 C    3.992 --   628 C    1.007   634 C    1.006   632 H    0.979
                           633 H    0.971
   632   1 H    0.997 --   631 C    0.979
   633   1 H    0.996 --   631 C    0.971
   634   6 C    3.994 --   631 C    1.006   637 C    1.002   636 H    0.981
                           635 H    0.976
   635   1 H    0.997 --   634 C    0.976
   636   1 H    0.997 --   634 C    0.981
   637   6 C    3.990 --   634 C    1.002   640 C    0.976   639 H    0.964
                           638 H    0.954
   638   1 H    0.994 --   637 C    0.954
   639   1 H    0.994 --   637 C    0.964
   640   6 C    3.951 --   649 O    1.659   648 N    1.236   637 C    0.976
   641   6 C    3.994 --   645 C    1.442   643 C    1.405   642 H    0.974
                           592 C    0.109
   642   1 H    0.995 --   641 C    0.974
   643   6 C    3.969 --   641 C    1.405   644 C    1.405   648 N    0.992
   644   6 C    3.993 --   592 C    1.441   643 C    1.405   591 H    0.973
                           645 C    0.110
   645   6 C    3.993 --   641 C    1.442   594 C    1.401   646 H    0.974
                           644 C    0.110
   646   1 H    0.995 --   645 C    0.974
   647   1 H    0.995 --   595 C    0.974
   648   7 N    3.479 --   640 C    1.236   643 C    0.992   628 C    0.960
                           649 O    0.189
   649   8 O    1.969 --   640 C    1.659   648 N    0.189
 ---------------------------------------------------------------------------

Topologies differ in total number of bonds
Writing topology from bond orders to xtbtopo.mol

molecular dipole:
                 x           y           z       tot (Debye)
 q only:       -0.117      -1.198       1.791
   full:       -0.314      -0.380       1.953       5.120
molecular quadrupole (traceless):
                xx          xy          yy          xz          yz          zz
 q only:     -351.624     -85.578    -146.768     157.779     168.017     498.392
  q+dip:     -444.399     -62.250     -43.450     141.577     284.960     487.849
   full:     -427.604     -62.421     -65.037     169.262     284.309     492.640


           -------------------------------------------------
          | TOTAL ENERGY            -1065.473463826231 Eh   |
          | GRADIENT NORM               3.092572932180 Eh/α |
          | HOMO-LUMO GAP               2.352192720478 eV   |
           -------------------------------------------------

------------------------------------------------------------------------
 * finished run on 2026/10/03 at 17:14:29.528     
------------------------------------------------------------------------
 total:
 * wall-time:     0 d,  0 h,  0 min, 26.920 sec
 *  cpu-time:     0 d,  0 h,  0 min, 26.719 sec
 * ratio c/w:     0.993 speedup
 SCF:
 * wall-time:     0 d,  0 h,  0 min, 26.034 sec
 *  cpu-time:     0 d,  0 h,  0 min, 25.891 sec
 * ratio c/w:     0.994 speedup

normal termination of xtb
