      -----------------------------------------------------------      
     |                   =====================                   |     
     |                           x T B                           |     
     |                   =====================                   |     
     |                         S. Grimme                         |     
     |          Mulliken Center for Theoretical Chemistry        |     
     |                    University of Bonn                     |     
      -----------------------------------------------------------      

   * xtb version 6.7.1pre (5071a88) compiled by 'Marcel@Raven' on 2024-07-23

   xtb is free software: you can redistribute it and/or modify it under
   the terms of the GNU Lesser General Public License as published by
   the Free Software Foundation, either version 3 of the License, or
   (at your option) any later version.
   
   xtb is distributed in the hope that it will be useful,
   but WITHOUT ANY WARRANTY; without even the implied warranty of
   MERCHANTABILITY or FITNESS FOR A PARTICULAR PURPOSE.  See the
   GNU Lesser General Public License for more details.
   
   Cite this work as:
   * C. Bannwarth, E. Caldeweyher, S. Ehlert, A. Hansen, P. Pracht,
     J. Seibert, S. Spicher, S. Grimme, WIREs Comput. Mol. Sci., 2020, 11,
     e01493. DOI: 10.1002/wcms.1493
   
   for GFN2-xTB:
   * C. Bannwarth, S. Ehlert and S. Grimme., J. Chem. Theory Comput., 2019,
     15, 1652-1671. DOI: 10.1021/acs.jctc.8b01176
   for GFN1-xTB:
   * S. Grimme, C. Bannwarth, P. Shushkov, J. Chem. Theory Comput., 2017,
     13, 1989-2009. DOI: 10.1021/acs.jctc.7b00118
   for GFN0-xTB:
   * P. Pracht, E. Caldeweyher, S. Ehlert, S. Grimme, ChemRxiv, 2019, preprint.
     DOI: 10.26434/chemrxiv.8326202.v1
   for GFN-FF:
   * S. Spicher and S. Grimme, Angew. Chem. Int. Ed., 2020, 59, 15665-15673.
     DOI: 10.1002/anie.202004239
   
   for ALPB and GBSA implicit solvation:
   * S. Ehlert, M. Stahn, S. Spicher, S. Grimme, J. Chem. Theory Comput.,
     2021, 17, 4250-4261. DOI: 10.1021/acs.jctc.1c00471
   
   for ddCOSMO and CPCM-X implicit solvation:
   * M. Stahn, S. Ehlert, S. Grimme, J. Phys. Chem. A,
     2023, XX, XXXX-XXXX. DOI: 10.1021/acs.jpca.3c04382
   
   for DFT-D4:
   * E. Caldeweyher, C. Bannwarth and S. Grimme, J. Chem. Phys., 2017,
     147, 034112. DOI: 10.1063/1.4993215
   * E. Caldeweyher, S. Ehlert, A. Hansen, H. Neugebauer, S. Spicher,
     C. Bannwarth and S. Grimme, J. Chem. Phys., 2019, 150, 154122.
     DOI: 10.1063/1.5090222
   * E. Caldeweyher, J.-M. Mewes, S. Ehlert and S. Grimme, Phys. Chem. Chem. Phys.
     2020, 22, 8499-8512. DOI: 10.1039/D0CP00502A
   
   for sTDA-xTB:
   * S. Grimme and C. Bannwarth, J. Chem. Phys., 2016, 145, 054103.
     DOI: 10.1063/1.4959605
   
   in the mass-spec context:
   * V. Asgeirsson, C. Bauer and S. Grimme, Chem. Sci., 2017, 8, 4879.
     DOI: 10.1039/c7sc00601b
   * J. Koopman and S. Grimme, ACS Omega 2019, 4, 12, 15120-15133.
     DOI: 10.1021/acsomega.9b02011
   
   for metadynamics refer to:
   * S. Grimme, J. Chem. Theory Comput., 2019, 155, 2847-2862
     DOI: 10.1021/acs.jctc.9b00143
   
   for SPH calculations refer to:
   * S. Spicher and S. Grimme, J. Chem. Theory Comput., 2021, 17, 1701-1714
     DOI: 10.1021/acs.jctc.0c01306
   
   for ONIOM refer to:
   * C. Plett, A. Katbashev, S. Ehlert, S. Grimme, M. Bursch,
     Phys. Chem. Chem. Phys., 2023, 25, 17860-17868. DOI: 10.1039/D3CP02178E
   
   for DIPRO refer to:
   * J. Kohn, N. Gildemeister, S. Grimme, D. Fazzi, A. Hansen,
     J. Chem. Phys., 2023, just accepted.
   
   for PTB refer to:
   * S. Grimme, M. Mueller, A. Hansen, J. Chem. Phys., 2023, 158, 124111.
     DOI: 10.1063/5.0137838
   
   with help from (in alphabetical order)
   P. Atkinson, C. Bannwarth, F. Bohle, G. Brandenburg, E. Caldeweyher
   M. Checinski, S. Dohm, S. Ehlert, S. Ehrlich, I. Gerasimov, C. Hölzer
   A. Katbashev, J. Kohn, J. Koopman, C. Lavigne, S. Lehtola, F. März, M. Müller,
   F. Musil, H. Neugebauer, J. Pisarek, C. Plett, P. Pracht, F. Pultar,
   J. Seibert, P. Shushkov, S. Spicher, M. Stahn, M. Steiner, T. Strunk,
   J. Stückrath, T. Rose, and J. Unsleber
   
 * started run on 2026/10/03 at 17:07:29.459     
   ID    Z sym.   atoms
    1    6 C      1-3, 6-9, 11, 13, 14, 16, 18, 31, 35, 36, 38, 43, 45,
                  48-51, 54-57, 59, 60, 70, 73, 76, 79, 80, 82, 83, 85, 87,
                  90, 94, 95, 97, 102, 104, 107-110, 113-116, 118, 119, 129,
                  132, 135, 138, 139, 141, 142, 144, 146, 150, 152, 153,
                  155-158, 161-164, 166, 168, 169, 171, 173, 186, 189, 192,
                  195, 198, 199, 201-203, 209, 211, 212, 214-217, 220-223,
                  225, 227, 228, 230, 232, 245, 248, 251, 254, 257, 258,
                  260-262
    2    1 H      4, 5, 10, 12, 15, 17, 19-23, 32, 33, 37, 39-41, 44, 46, 47,
                  52, 53, 58, 61-63, 71, 72, 74, 75, 77, 78, 81, 84, 86, 88,
                  91, 92, 96, 98-100, 103, 105, 106, 111, 112, 117, 120-122,
                  130, 131, 133, 134, 136, 137, 140, 143, 145, 147, 149, 151,
                  154, 159, 160, 165, 167, 170, 172, 174-178, 187, 188, 190,
                  191, 193, 194, 196, 197, 200, 204, 205, 208, 210, 213, 218,
                  219, 224, 226, 229, 231, 233-237, 246, 247, 249, 250, 252,
                  253, 255, 256, 259, 263, 264
    3    7 N      24-27, 64-67, 89, 123-126, 148, 179-182, 206, 238-241, 265
    4    8 O      28-30, 34, 42, 68, 69, 93, 101, 127, 128, 183-185, 207,
                  242-244, 266

           -------------------------------------------------
          |                Calculation Setup                |
           -------------------------------------------------

          program call               : "C:\ORCA_6.1.1\xtb-6.7.1pre\xtb.exe"  "Stage06a2_D6a_D6b_direct.xyz" --grad -c 0 -u 0 -P 1 --namespace Stage06a2_D6a_D6b --acc 1.000000 
          calculation namespace      : Stage06a2_D6a_D6b
          coordinate file            : Stage06a2_D6a_D6b_direct.xyz
          omp threads                :                     1


molecular fragmentation (1/2 indicates fragments):
111111111111111111111112111211222222222222222222222222222222222222222222
222222222222222222222222222222222222222222222222222222222222222222222222
222222222222222222222222222222222222222222222222222222222222222222222222
22222222222222222222222222222222222222222222222222
# atoms in fragment 1/2:    28   238
 fragment masses (1/2) :      229.24     1868.00
CMA distance (Bohr)    :  21.445
constraining FC (au)   :  0.0500

           -------------------------------------------------
          |                 G F N 2 - x T B                 |
           -------------------------------------------------

        Reference                      10.1021/acs.jctc.8b01176
      * Hamiltonian:
        H0-scaling (s, p, d)           1.850000    2.230000    2.230000
        zeta-weighting                 0.500000
      * Dispersion:
        s8                             2.700000
        a1                             0.520000
        a2                             5.000000
        s9                             5.000000
      * Repulsion:
        kExp                           1.500000    1.000000
        rExp                           1.000000
      * Coulomb:
        alpha                          2.000000
        third order                    shell-resolved
        anisotropic                    true
        a3                             3.000000
        a5                             4.000000
        cn-shift                       1.200000
        cn-exp                         4.000000
        max-rad                        5.000000


          ...................................................
          :                      SETUP                      :
          :.................................................:
          :  # basis functions                 731          :
          :  # atomic orbitals                 731          :
          :  # shells                          421          :
          :  # electrons                       793          :
          :  max. iterations                   250          :
          :  Hamiltonian                  GFN2-xTB          :
          :  restarted?                      false          :
          :  GBSA solvation                  false          :
          :  PC potential                    false          :
          :  electronic temp.          300.0000000     K    :
          :  accuracy                    1.0000000          :
          :  -> integral cutoff          0.2500000E+02      :
          :  -> integral neglect         0.1000000E-07      :
          :  -> SCF convergence          0.1000000E-05 Eh   :
          :  -> wf. convergence          0.1000000E-03 e    :
          :  Broyden damping             0.4000000          :
          :  net charge                          0          :
          :  unpaired electrons                  0          :
          ...................................................

 iter      E             dE          RMSdq      gap      omega  full diag
   1   -448.9754455 -0.448975E+03  0.474E+00    1.78       0.0  T
   2   -449.0084622 -0.330167E-01  0.390E+00    0.02       1.0  T
   3   -448.9865065  0.219558E-01  0.276E+00    0.10       1.0  T
   4   -443.6346974  0.535181E+01  0.402E+00    0.29       1.0  T
   5   -449.4180306 -0.578333E+01  0.277E+00    0.35       1.0  T
   6   -451.1503404 -0.173231E+01  0.119E+00    0.23       1.0  T
   7   -449.9315704  0.121877E+01  0.132E+00    0.04       1.0  T
   8   -451.1215713 -0.119000E+01  0.128E+00    0.27       1.0  T
   9   -451.5162871 -0.394716E+00  0.725E-01    0.44       1.0  T
  10   -451.5452115 -0.289245E-01  0.572E-01    0.24       1.0  T
  11   -451.6031251 -0.579136E-01  0.360E-01    0.36       1.0  T
  12   -451.5858547  0.172704E-01  0.382E-01    0.33       1.0  T
  13   -451.4328501  0.153005E+00  0.811E-01    0.25       1.0  T
  14   -451.5751609 -0.142311E+00  0.338E-01    0.44       1.0  T
  15   -451.6003484 -0.251875E-01  0.239E-01    0.44       1.0  T
  16   -451.5783306  0.220178E-01  0.330E-01    0.44       1.0  T
  17   -451.6045923 -0.262618E-01  0.197E-01    0.43       1.0  T
  18   -451.6114003 -0.680793E-02  0.116E-01    0.41       1.0  T
  19   -451.6150248 -0.362457E-02  0.429E-02    0.37       1.0  T
  20   -451.6107083  0.431651E-02  0.973E-02    0.39       1.0  T
  21   -451.6138677 -0.315938E-02  0.684E-02    0.40       1.0  T
  22   -451.6154129 -0.154521E-02  0.141E-02    0.38       1.0  T
  23   -451.6153505  0.624463E-04  0.165E-02    0.38       1.0  T
  24   -451.6153852 -0.346846E-04  0.125E-02    0.38       1.0  T
  25   -451.6154620 -0.768096E-04  0.552E-03    0.38       1.1  T
  26   -451.6154773 -0.153713E-04  0.239E-03    0.38       2.6  T
  27   -451.6154806 -0.323842E-05  0.128E-03    0.38       4.8  T
  28   -451.6154808 -0.203296E-06  0.980E-04    0.38       6.3  T
  29   -451.6154810 -0.177982E-06  0.651E-04    0.38       9.4  T

   *** convergence criteria satisfied after 29 iterations ***

         #    Occupation            Energy/Eh            Energy/eV
      -------------------------------------------------------------
         1        2.0000           -0.7226631             -19.6647
       ...           ...                  ...                  ...
       391        1.9982           -0.3816817             -10.3861
       392        1.9942           -0.3805689             -10.3558
       393        1.9907           -0.3801113             -10.3434
       394        1.9643           -0.3788062             -10.3078
       395        1.9347           -0.3782018             -10.2914
       396        1.8898           -0.3776584             -10.2766
       397        1.2318           -0.3745384             -10.1917 (HOMO)
       398        0.0006           -0.3604968              -9.8096 (LUMO)
       399                         -0.3362329              -9.1494
       400                         -0.3252211              -8.8497
       401                         -0.2703205              -7.3558
       402                         -0.2693799              -7.3302
       ...                                ...                  ...
       731                          0.8773390              23.8736
      -------------------------------------------------------------
                  HL-Gap            0.0140416 Eh            0.3821 eV
             Fermi-level           -0.3715782 Eh          -10.1112 eV

 SCC (total)                   0 d,  0 h,  0 min,  4.651 sec
 SCC setup                      ...        0 min,  0.005 sec (  0.108%)
 Dispersion                     ...        0 min,  0.010 sec (  0.215%)
 classical contributions        ...        0 min,  0.002 sec (  0.043%)
 integral evaluation            ...        0 min,  0.115 sec (  2.473%)
 iterations                     ...        0 min,  3.821 sec ( 82.154%)
 molecular gradient             ...        0 min,  0.624 sec ( 13.416%)
 printout                       ...        0 min,  0.074 sec (  1.591%)

         :::::::::::::::::::::::::::::::::::::::::::::::::::::
         ::                     SUMMARY                     ::
         :::::::::::::::::::::::::::::::::::::::::::::::::::::
         :: total energy            -441.776368159715 Eh    ::
         :: gradient norm              2.002064111583 Eh/a0 ::
         :: HOMO-LUMO gap              0.382091062547 eV    ::
         ::.................................................::
         :: SCC energy              -451.612703506122 Eh    ::
         :: -> isotropic ES            0.690416342472 Eh    ::
         :: -> anisotropic ES         -0.004460640166 Eh    ::
         :: -> anisotropic XC          0.085754888620 Eh    ::
         :: -> dispersion             -0.351703210641 Eh    ::
         :: repulsion energy           9.836335346407 Eh    ::
         :: add. restraining           0.000000000000 Eh    ::
         :: total charge               0.000000000333 e     ::
         :::::::::::::::::::::::::::::::::::::::::::::::::::::

           -------------------------------------------------
          |                Property Printout                |
           -------------------------------------------------

    * Orbital Energies and Occupations

         #    Occupation            Energy/Eh            Energy/eV
      -------------------------------------------------------------
         1        2.0000           -0.7226631             -19.6647
       ...           ...                  ...                  ...
       385        1.9999           -0.3844534             -10.4615
       386        1.9997           -0.3832868             -10.4298
       387        1.9995           -0.3828069             -10.4167
       388        1.9993           -0.3825616             -10.4100
       389        1.9987           -0.3819783             -10.3942
       390        1.9986           -0.3819186             -10.3925
       391        1.9982           -0.3816817             -10.3861
       392        1.9942           -0.3805689             -10.3558
       393        1.9907           -0.3801113             -10.3434
       394        1.9643           -0.3788062             -10.3078
       395        1.9347           -0.3782018             -10.2914
       396        1.8898           -0.3776584             -10.2766
       397        1.2318           -0.3745384             -10.1917 (HOMO)
       398        0.0006           -0.3604968              -9.8096 (LUMO)
       399                         -0.3362329              -9.1494
       400                         -0.3252211              -8.8497
       401                         -0.2703205              -7.3558
       402                         -0.2693799              -7.3302
       403                         -0.2678518              -7.2886
       404                         -0.2677420              -7.2856
       405                         -0.2663848              -7.2487
       406                         -0.2448905              -6.6638
       407                         -0.2438031              -6.6342
       408                         -0.2411521              -6.5621
       ...                                ...                  ...
       731                          0.8773390              23.8736
      -------------------------------------------------------------
                  HL-Gap            0.0140416 Eh            0.3821 eV
             Fermi-level           -0.3715782 Eh          -10.1112 eV

     #   Z          covCN         q      C6AA      α(0)
     1   6 C        2.117     0.086    28.686     8.655
     2   6 C        3.054     0.007    27.807     8.648
     3   6 C        2.845    -0.043    29.069     8.836
     4   1 H        0.930     0.104     1.750     2.068
     5   1 H        0.930     0.104     1.745     2.066
     6   6 C        3.172     0.035    26.852     8.465
     7   6 C        2.748     0.282    22.229     7.720
     8   6 C        2.920     0.049    26.895     8.504
     9   6 C        2.934    -0.034    28.850     8.809
    10   1 H        0.930     0.085     1.923     2.168
    11   6 C        2.932    -0.077    29.932     8.972
    12   1 H        0.930     0.096     1.817     2.108
    13   6 C        2.878     0.147    24.798     8.163
    14   6 C        2.936    -0.066    29.652     8.931
    15   1 H        0.930     0.080     1.976     2.198
    16   6 C        2.932    -0.047    29.159     8.856
    17   1 H        0.930     0.080     1.983     2.202
    18   6 C        3.664     0.009    20.696     6.525
    19   1 H        0.930     0.071     2.076     2.253
    20   1 H        0.930     0.067     2.117     2.275
    21   1 H        0.930     0.063     2.165     2.301
    22   1 H        0.862     0.212     1.046     1.602
    23   1 H        0.863     0.214     1.036     1.595
    24   7 N        0.014    -0.133    28.483     7.987
    25   7 N        3.019     0.113    19.295     6.524
    26   7 N        1.991    -0.217    26.530     7.639
    27   7 N        2.645    -0.278    27.189     7.744
    28   8 O        0.003    -0.420    22.715     6.278
    29   8 O        0.860    -0.436    22.412     6.347
    30   8 O        1.705    -0.276    18.581     5.820
    31   6 C        3.826    -0.109    22.561     6.759
    32   1 H        0.930     0.076     2.017     2.221
    33   1 H        0.930     0.074     2.042     2.234
    34   8 O        0.859    -0.467    23.066     6.439
    35   6 C        2.878     0.150    24.743     8.154
    36   6 C        2.936    -0.069    29.707     8.939
    37   1 H        0.930     0.076     2.015     2.220
    38   6 C        3.664     0.009    20.685     6.523
    39   1 H        0.930     0.068     2.105     2.269
    40   1 H        0.930     0.059     2.213     2.326
    41   1 H        0.930     0.073     2.047     2.237
    42   8 O        1.705    -0.278    18.605     5.824
    43   6 C        2.928     0.070    26.431     8.431
    44   1 H        0.930     0.072     2.062     2.246
    45   6 C        3.764    -0.013    20.853     6.509
    46   1 H        0.930     0.058     2.220     2.330
    47   1 H        0.930     0.072     2.065     2.247
    48   6 C        2.767     0.268    22.469     7.763
    49   6 C        3.096    -0.009    28.115     8.690
    50   6 C        3.070    -0.015    28.311     8.724
    51   6 C        3.821    -0.083    22.070     6.685
    52   1 H        0.930     0.080     1.979     2.199
    53   1 H        0.930     0.085     1.924     2.169
    54   6 C        3.172     0.029    26.991     8.487
    55   6 C        2.748     0.277    22.314     7.735
    56   6 C        2.920     0.044    27.011     8.523
    57   6 C        2.934    -0.042    29.051     8.840
    58   1 H        0.930     0.073     2.054     2.241
    59   6 C        2.932    -0.070    29.756     8.946
    60   6 C        2.932    -0.050    29.247     8.869
    61   1 H        0.930     0.078     1.994     2.208
    62   1 H        0.862     0.231     0.962     1.536
    63   1 H        0.863     0.205     1.078     1.627
    64   7 N        2.745    -0.118    23.576     7.211
    65   7 N        3.019     0.087    19.728     6.597
    66   7 N        1.991    -0.248    27.277     7.746
    67   7 N        2.645    -0.282    27.293     7.759
    68   8 O        0.858    -0.443    22.562     6.368
    69   8 O        0.860    -0.439    22.468     6.355
    70   6 C        3.762    -0.012    20.836     6.507
    71   1 H        0.930     0.058     2.221     2.330
    72   1 H        0.930     0.062     2.170     2.303
    73   6 C        3.827    -0.084    22.077     6.686
    74   1 H        0.930     0.057     2.240     2.340
    75   1 H        0.930     0.059     2.214     2.327
    76   6 C        3.825    -0.081    22.025     6.678
    77   1 H        0.930     0.054     2.268     2.355
    78   1 H        0.930     0.048     2.343     2.394
    79   6 C        2.766     0.265    22.536     7.775
    80   6 C        2.935    -0.055    29.354     8.886
    81   1 H        0.930     0.073     2.055     2.242
    82   6 C        2.930     0.068    26.479     8.439
    83   6 C        2.938    -0.043    29.060     8.841
    84   1 H        0.930     0.074     2.038     2.232
    85   6 C        2.936    -0.044    29.096     8.846
    86   1 H        0.930     0.072     2.061     2.245
    87   6 C        2.935    -0.055    29.359     8.886
    88   1 H        0.930     0.079     1.992     2.207
    89   7 N        2.739    -0.115    23.503     7.200
    90   6 C        3.826    -0.107    22.523     6.753
    91   1 H        0.930     0.076     2.019     2.222
    92   1 H        0.930     0.081     1.967     2.193
    93   8 O        0.859    -0.475    23.236     6.463
    94   6 C        2.878     0.145    24.847     8.172
    95   6 C        2.936    -0.067    29.660     8.932
    96   1 H        0.930     0.079     1.989     2.206
    97   6 C        3.664     0.016    20.577     6.506
    98   1 H        0.930     0.072     2.060     2.245
    99   1 H        0.930     0.054     2.265     2.353
   100   1 H        0.930     0.061     2.184     2.311
   101   8 O        1.705    -0.282    18.684     5.836
   102   6 C        2.928     0.069    26.455     8.435
   103   1 H        0.930     0.070     2.083     2.257
   104   6 C        3.764    -0.016    20.909     6.518
   105   1 H        0.930     0.064     2.151     2.293
   106   1 H        0.930     0.071     2.070     2.250
   107   6 C        2.767     0.269    22.462     7.762
   108   6 C        3.096    -0.009    28.130     8.692
   109   6 C        3.070    -0.016    28.341     8.729
   110   6 C        3.821    -0.083    22.074     6.686
   111   1 H        0.930     0.074     2.037     2.232
   112   1 H        0.930     0.080     1.976     2.198
   113   6 C        3.172     0.027    27.019     8.491
   114   6 C        2.748     0.283    22.200     7.715
   115   6 C        2.920     0.047    26.951     8.513
   116   6 C        2.934    -0.042    29.041     8.838
   117   1 H        0.930     0.070     2.083     2.257
   118   6 C        2.932    -0.078    29.951     8.975
   119   6 C        2.932    -0.045    29.123     8.850
   120   1 H        0.930     0.083     1.946     2.181
   121   1 H        0.862     0.211     1.052     1.606
   122   1 H        0.863     0.215     1.034     1.593
   123   7 N        2.745    -0.120    23.603     7.216
   124   7 N        3.019     0.090    19.673     6.588
   125   7 N        1.991    -0.234    26.935     7.697
   126   7 N        2.645    -0.274    27.076     7.728
   127   8 O        0.858    -0.443    22.559     6.368
   128   8 O        0.860    -0.469    23.099     6.444
   129   6 C        3.762    -0.011    20.818     6.504
   130   1 H        0.930     0.059     2.212     2.326
   131   1 H        0.930     0.061     2.185     2.311
   132   6 C        3.827    -0.083    22.067     6.684
   133   1 H        0.930     0.056     2.250     2.346
   134   1 H        0.930     0.059     2.215     2.327
   135   6 C        3.825    -0.080    22.012     6.676
   136   1 H        0.930     0.054     2.268     2.355
   137   1 H        0.930     0.053     2.283     2.363
   138   6 C        2.766     0.270    22.445     7.759
   139   6 C        2.935    -0.058    29.439     8.898
   140   1 H        0.930     0.067     2.115     2.274
   141   6 C        2.930     0.066    26.528     8.447
   142   6 C        2.938    -0.045    29.116     8.850
   143   1 H        0.930     0.076     2.019     2.222
   144   6 C        2.936    -0.045    29.128     8.851
   145   1 H        0.930     0.074     2.037     2.232
   146   6 C        2.935    -0.058    29.452     8.900
   147   1 H        0.930     0.069     2.091     2.261
   148   7 N        2.739    -0.112    23.445     7.191
   149   1 H        0.930     0.076     2.017     2.221
   150   6 C        2.936    -0.045    29.129     8.851
   151   1 H        0.930     0.074     2.043     2.235
   152   6 C        2.928     0.069    26.461     8.436
   153   6 C        3.764    -0.016    20.908     6.518
   154   1 H        0.930     0.064     2.154     2.295
   155   6 C        2.767     0.269    22.465     7.762
   156   6 C        3.096    -0.009    28.117     8.690
   157   6 C        3.070    -0.015    28.317     8.725
   158   6 C        3.821    -0.083    22.073     6.686
   159   1 H        0.930     0.077     2.007     2.215
   160   1 H        0.930     0.082     1.954     2.186
   161   6 C        3.172     0.026    27.040     8.494
   162   6 C        2.748     0.281    22.244     7.723
   163   6 C        2.920     0.046    26.970     8.516
   164   6 C        2.934    -0.042    29.038     8.838
   165   1 H        0.930     0.071     2.079     2.255
   166   6 C        2.932    -0.078    29.959     8.976
   167   1 H        0.930     0.069     2.096     2.264
   168   6 C        2.878     0.145    24.849     8.172
   169   6 C        2.936    -0.067    29.658     8.932
   170   1 H        0.930     0.079     1.991     2.207
   171   6 C        2.932    -0.046    29.149     8.854
   172   1 H        0.930     0.080     1.981     2.201
   173   6 C        3.664     0.012    20.630     6.515
   174   1 H        0.930     0.073     2.052     2.240
   175   1 H        0.930     0.059     2.205     2.322
   176   1 H        0.930     0.057     2.235     2.338
   177   1 H        0.862     0.206     1.077     1.625
   178   1 H        0.863     0.213     1.042     1.599
   179   7 N        2.745    -0.119    23.591     7.214
   180   7 N        3.019     0.090    19.686     6.590
   181   7 N        1.991    -0.240    27.078     7.717
   182   7 N        2.645    -0.281    27.267     7.755
   183   8 O        0.858    -0.443    22.560     6.368
   184   8 O        0.860    -0.458    22.874     6.412
   185   8 O        1.705    -0.280    18.654     5.831
   186   6 C        3.762    -0.011    20.817     6.504
   187   1 H        0.930     0.059     2.213     2.326
   188   1 H        0.930     0.061     2.187     2.312
   189   6 C        3.827    -0.083    22.068     6.684
   190   1 H        0.930     0.056     2.250     2.345
   191   1 H        0.930     0.059     2.215     2.327
   192   6 C        3.825    -0.080    22.015     6.677
   193   1 H        0.930     0.055     2.262     2.352
   194   1 H        0.930     0.053     2.279     2.361
   195   6 C        3.826    -0.107    22.525     6.753
   196   1 H        0.930     0.077     2.015     2.219
   197   1 H        0.930     0.082     1.957     2.188
   198   6 C        2.766     0.270    22.441     7.758
   199   6 C        2.935    -0.058    29.435     8.898
   200   1 H        0.930     0.068     2.111     2.272
   201   6 C        2.930     0.066    26.520     8.445
   202   6 C        2.938    -0.045    29.112     8.849
   203   6 C        2.935    -0.058    29.449     8.900
   204   1 H        0.930     0.070     2.080     2.255
   205   1 H        0.930     0.072     2.060     2.244
   206   7 N        2.739    -0.112    23.445     7.191
   207   8 O        0.859    -0.475    23.231     6.462
   208   1 H        0.930     0.076     2.024     2.224
   209   6 C        2.936    -0.044    29.085     8.845
   210   1 H        0.930     0.073     2.055     2.242
   211   6 C        2.928     0.070    26.436     8.432
   212   6 C        3.764    -0.013    20.847     6.508
   213   1 H        0.930     0.058     2.222     2.331
   214   6 C        2.767     0.268    22.472     7.764
   215   6 C        3.096    -0.009    28.132     8.693
   216   6 C        3.070    -0.016    28.332     8.728
   217   6 C        3.821    -0.083    22.063     6.685
   218   1 H        0.930     0.078     1.995     2.209
   219   1 H        0.930     0.084     1.933     2.174
   220   6 C        3.172     0.028    27.011     8.490
   221   6 C        2.748     0.277    22.321     7.736
   222   6 C        2.920     0.043    27.034     8.526
   223   6 C        2.934    -0.045    29.120     8.850
   224   1 H        0.930     0.070     2.084     2.257
   225   6 C        2.932    -0.073    29.831     8.957
   226   1 H        0.930     0.074     2.039     2.233
   227   6 C        2.878     0.150    24.747     8.155
   228   6 C        2.936    -0.068    29.702     8.938
   229   1 H        0.930     0.077     2.006     2.215
   230   6 C        2.932    -0.050    29.243     8.869
   231   1 H        0.930     0.079     1.994     2.208
   232   6 C        3.664     0.009    20.684     6.523
   233   1 H        0.930     0.069     2.091     2.261
   234   1 H        0.930     0.057     2.229     2.335
   235   1 H        0.930     0.072     2.058     2.243
   236   1 H        0.862     0.230     0.964     1.538
   237   1 H        0.863     0.205     1.079     1.627
   238   7 N        2.745    -0.119    23.597     7.215
   239   7 N        3.019     0.086    19.746     6.600
   240   7 N        1.991    -0.248    27.279     7.746
   241   7 N        2.645    -0.283    27.314     7.762
   242   8 O        0.858    -0.443    22.564     6.369
   243   8 O        0.860    -0.445    22.593     6.373
   244   8 O        1.705    -0.277    18.600     5.823
   245   6 C        3.762    -0.011    20.815     6.503
   246   1 H        0.930     0.057     2.228     2.334
   247   1 H        0.930     0.061     2.191     2.315
   248   6 C        3.827    -0.083    22.059     6.683
   249   1 H        0.930     0.055     2.253     2.347
   250   1 H        0.930     0.057     2.228     2.334
   251   6 C        3.825    -0.080    21.999     6.674
   252   1 H        0.930     0.053     2.283     2.363
   253   1 H        0.930     0.051     2.310     2.376
   254   6 C        3.826    -0.107    22.516     6.752
   255   1 H        0.930     0.075     2.035     2.231
   256   1 H        0.930     0.077     2.014     2.219
   257   6 C        2.766     0.268    22.472     7.764
   258   6 C        2.935    -0.056    29.385     8.890
   259   1 H        0.930     0.065     2.135     2.285
   260   6 C        2.930     0.069    26.448     8.434
   261   6 C        2.938    -0.042    29.044     8.839
   262   6 C        2.935    -0.057    29.405     8.893
   263   1 H        0.930     0.069     2.091     2.261
   264   1 H        0.930     0.070     2.084     2.257
   265   7 N        2.739    -0.112    23.450     7.192
   266   8 O        0.859    -0.465    23.025     6.434

 Mol. C6AA /au·bohr⁶  :     862638.556459
 Mol. C8AA /au·bohr⁸  :   20615191.736104
 Mol. α(0) /au        :       1440.407569


Wiberg/Mayer (AO) data.
largest (>0.10) Wiberg bond orders for each atom

 ---------------------------------------------------------------------------
     #   Z sym  total        # sym  WBO       # sym  WBO       # sym  WBO
 ---------------------------------------------------------------------------
     1   6 C    3.867 --     2 C    1.439    25 N    1.276    28 O    0.520
                            24 N    0.348    26 N    0.165
     2   6 C    3.968 --     1 C    1.439     6 C    1.259     3 C    1.095
     3   6 C    3.895 --     2 C    1.095     5 H    0.962     4 H    0.961
                            24 N    0.726
     4   1 H    0.988 --     3 C    0.961
     5   1 H    0.988 --     3 C    0.962
     6   6 C    3.956 --    26 N    1.419     2 C    1.259     7 C    0.996
     7   6 C    3.952 --    29 O    1.661    27 N    1.256     6 C    0.996
     8   6 C    3.940 --     9 C    1.391    16 C    1.367    25 N    0.998
     9   6 C    3.985 --    11 C    1.440     8 C    1.391    10 H    0.970
                            14 C    0.103
    10   1 H    0.993 --     9 C    0.970
    11   6 C    3.984 --     9 C    1.440    13 C    1.375    12 H    0.963
    12   1 H    0.990 --    11 C    0.963
    13   6 C    3.929 --    11 C    1.375    14 C    1.338    30 O    1.078
    14   6 C    3.985 --    16 C    1.479    13 C    1.338    15 H    0.972
                             9 C    0.103
    15   1 H    0.993 --    14 C    0.972
    16   6 C    3.987 --    14 C    1.479     8 C    1.367    17 H    0.972
    17   1 H    0.993 --    16 C    0.972
    18   6 C    3.932 --    19 H    0.980    20 H    0.979    21 H    0.979
                            30 O    0.964
    19   1 H    0.995 --    18 C    0.980
    20   1 H    0.995 --    18 C    0.979
    21   1 H    0.995 --    18 C    0.979
    22   1 H    0.954 --    27 N    0.938
    23   1 H    0.954 --    27 N    0.941
    24   7 N    2.109 --    28 O    0.908     3 C    0.726     1 C    0.348
    25   7 N    3.701 --     1 C    1.276    26 N    1.191     8 C    0.998
    26   7 N    3.010 --     6 C    1.419    25 N    1.191     1 C    0.165
    27   7 N    3.370 --     7 C    1.256    23 H    0.941    22 H    0.938
                            29 O    0.194
    28   8 O    1.605 --    24 N    0.908     1 C    0.520
    29   8 O    1.980 --     7 C    1.661    27 N    0.194
    30   8 O    2.209 --    13 C    1.078    18 C    0.964
    31   6 C    3.990 --    76 C    1.002    79 C    0.975    33 H    0.964
                            32 H    0.954
    32   1 H    0.994 --    31 C    0.954
    33   1 H    0.994 --    31 C    0.964
    34   8 O    1.967 --    79 C    1.655    89 N    0.191
    35   6 C    3.925 --    59 C    1.372    36 C    1.339    42 O    1.078
    36   6 C    3.985 --    60 C    1.478    35 C    1.339    37 H    0.973
                            57 C    0.105
    37   1 H    0.994 --    36 C    0.973
    38   6 C    3.931 --    40 H    0.980    39 H    0.980    41 H    0.976
                            42 O    0.964
    39   1 H    0.995 --    38 C    0.980
    40   1 H    0.996 --    38 C    0.980
    41   1 H    0.993 --    38 C    0.976
    42   8 O    2.207 --    35 C    1.078    38 C    0.964
    43   6 C    3.965 --    85 C    1.403    87 C    1.402    64 N    0.997
    44   1 H    0.994 --    87 C    0.973
    45   6 C    3.967 --    51 C    0.998    46 H    0.974    47 H    0.974
                            64 N    0.961
    46   1 H    0.996 --    45 C    0.974
    47   1 H    0.995 --    45 C    0.974
    48   6 C    3.957 --    68 O    1.655    64 N    1.202    49 C    1.010
    49   6 C    3.951 --    50 C    1.430    65 N    1.219    48 C    1.010
                            66 N    0.135
    50   6 C    3.976 --    49 C    1.430    54 C    1.320    51 C    1.013
    51   6 C    3.988 --    50 C    1.013    45 C    0.998    53 H    0.962
                            52 H    0.960
    52   1 H    0.993 --    51 C    0.960
    53   1 H    0.991 --    51 C    0.962
    54   6 C    3.957 --    66 N    1.429    50 C    1.320    55 C    0.993
    55   6 C    3.953 --    69 O    1.650    67 N    1.272    54 C    0.993
    56   6 C    3.944 --    57 C    1.395    60 C    1.368    65 N    1.007
    57   6 C    3.988 --    59 C    1.441    56 C    1.395    58 H    0.973
                            36 C    0.105
    58   1 H    0.995 --    57 C    0.973
    59   6 C    3.985 --    57 C    1.441    35 C    1.372    88 H    0.969
    60   6 C    3.988 --    36 C    1.478    56 C    1.368    61 H    0.972
    61   1 H    0.993 --    60 C    0.972
    62   1 H    0.946 --    67 N    0.919
    63   1 H    0.958 --    67 N    0.943
    64   7 N    3.472 --    48 C    1.202    43 C    0.997    45 C    0.961
                            68 O    0.189
    65   7 N    3.684 --    49 C    1.219    66 N    1.213    56 C    1.007
    66   7 N    2.961 --    54 C    1.429    65 N    1.213    49 C    0.135
    67   7 N    3.384 --    55 C    1.272    63 H    0.943    62 H    0.919
                            69 O    0.199
    68   8 O    2.001 --    48 C    1.655    64 N    0.189
    69   8 O    1.963 --    55 C    1.650    67 N    0.199
    70   6 C    3.970 --    73 C    1.007    72 H    0.973    71 H    0.972
                            89 N    0.960
    71   1 H    0.997 --    70 C    0.972
    72   1 H    0.996 --    70 C    0.973
    73   6 C    3.992 --    70 C    1.007    76 C    1.006    74 H    0.979
                            75 H    0.971
    74   1 H    0.997 --    73 C    0.979
    75   1 H    0.996 --    73 C    0.971
    76   6 C    3.994 --    73 C    1.006    31 C    1.002    78 H    0.981
                            77 H    0.976
    77   1 H    0.997 --    76 C    0.976
    78   1 H    0.998 --    76 C    0.981
    79   6 C    3.952 --    34 O    1.655    89 N    1.240    31 C    0.975
    80   6 C    3.993 --    87 C    1.441    82 C    1.406    81 H    0.973
                            85 C    0.109
    81   1 H    0.994 --    80 C    0.973
    82   6 C    3.966 --    80 C    1.406    83 C    1.406    89 N    0.988
    83   6 C    3.993 --    85 C    1.440    82 C    1.406    84 H    0.973
                            87 C    0.110
    84   1 H    0.994 --    83 C    0.973
    85   6 C    3.992 --    83 C    1.440    43 C    1.403    86 H    0.973
                            80 C    0.109
    86   1 H    0.995 --    85 C    0.973
    87   6 C    3.992 --    80 C    1.441    43 C    1.402    44 H    0.973
                            83 C    0.110
    88   1 H    0.993 --    59 C    0.969
    89   7 N    3.482 --    79 C    1.240    82 C    0.988    70 C    0.960
                            34 O    0.191
    90   6 C    3.990 --   135 C    1.002   138 C    0.979    92 H    0.962
                            91 H    0.953
    91   1 H    0.994 --    90 C    0.953
    92   1 H    0.993 --    90 C    0.962
    93   8 O    1.964 --   138 C    1.643   148 N    0.187
    94   6 C    3.931 --   118 C    1.379    95 C    1.344   101 O    1.071
    95   6 C    3.989 --   119 C    1.477    94 C    1.344    96 H    0.972
                           116 C    0.107
    96   1 H    0.993 --    95 C    0.972
    97   6 C    3.935 --    99 H    0.981   100 H    0.980    98 H    0.976
                           101 O    0.966
    98   1 H    0.994 --    97 C    0.976
    99   1 H    0.997 --    97 C    0.981
   100   1 H    0.996 --    97 C    0.980
   101   8 O    2.204 --    94 C    1.071    97 C    0.966
   102   6 C    3.966 --   144 C    1.403   146 C    1.401   123 N    0.999
   103   1 H    0.995 --   146 C    0.974
   104   6 C    3.966 --   110 C    0.998   105 H    0.973   106 H    0.973
                           123 N    0.961
   105   1 H    0.996 --   104 C    0.973
   106   1 H    0.995 --   104 C    0.973
   107   6 C    3.957 --   127 O    1.657   123 N    1.198   108 C    1.012
   108   6 C    3.952 --   109 C    1.429   124 N    1.219   107 C    1.012
                           125 N    0.134
   109   6 C    3.979 --   108 C    1.429   113 C    1.322   110 C    1.012
   110   6 C    3.990 --   109 C    1.012   104 C    0.998   112 H    0.962
                           111 H    0.961
   111   1 H    0.994 --   110 C    0.961
   112   1 H    0.993 --   110 C    0.962
   113   6 C    3.967 --   125 N    1.427   109 C    1.322   114 C    1.001
   114   6 C    3.951 --   128 O    1.637   126 N    1.272   113 C    1.001
   115   6 C    3.952 --   116 C    1.401   119 C    1.371   124 N    1.005
   116   6 C    3.990 --   118 C    1.436   115 C    1.401   117 H    0.973
                            95 C    0.107
   117   1 H    0.995 --   116 C    0.973
   118   6 C    3.989 --   116 C    1.436    94 C    1.379   147 H    0.971
   119   6 C    3.989 --    95 C    1.477   115 C    1.371   120 H    0.971
   120   1 H    0.993 --   119 C    0.971
   121   1 H    0.955 --   126 N    0.939
   122   1 H    0.954 --   126 N    0.941
   123   7 N    3.469 --   107 C    1.198   102 C    0.999   104 C    0.961
                           127 O    0.186
   124   7 N    3.692 --   125 N    1.222   108 C    1.219   115 C    1.005
   125   7 N    2.969 --   113 C    1.427   124 N    1.222   108 C    0.134
   126   7 N    3.387 --   114 C    1.272   122 H    0.941   121 H    0.939
                           128 O    0.193
   127   8 O    2.001 --   107 C    1.657   123 N    0.186
   128   8 O    1.953 --   114 C    1.637   126 N    0.193
   129   6 C    3.969 --   132 C    1.007   131 H    0.974   130 H    0.972
                           148 N    0.959
   130   1 H    0.997 --   129 C    0.972
   131   1 H    0.996 --   129 C    0.974
   132   6 C    3.991 --   129 C    1.007   135 C    1.006   133 H    0.979
                           134 H    0.971
   133   1 H    0.997 --   132 C    0.979
   134   1 H    0.996 --   132 C    0.971
   135   6 C    3.994 --   132 C    1.006    90 C    1.002   137 H    0.981
                           136 H    0.976
   136   1 H    0.997 --   135 C    0.976
   137   1 H    0.997 --   135 C    0.981
   138   6 C    3.949 --    93 O    1.643   148 N    1.244    90 C    0.979
   139   6 C    3.994 --   146 C    1.442   141 C    1.405   140 H    0.974
                           144 C    0.109
   140   1 H    0.995 --   139 C    0.974
   141   6 C    3.968 --   142 C    1.405   139 C    1.405   148 N    0.991
   142   6 C    3.993 --   144 C    1.441   141 C    1.405   143 H    0.973
                           146 C    0.110
   143   1 H    0.994 --   142 C    0.973
   144   6 C    3.992 --   142 C    1.441   102 C    1.403   145 H    0.973
                           139 C    0.109
   145   1 H    0.994 --   144 C    0.973
   146   6 C    3.993 --   139 C    1.442   102 C    1.401   103 H    0.974
                           142 C    0.110
   147   1 H    0.995 --   118 C    0.971
   148   7 N    3.484 --   138 C    1.244   141 C    0.991   129 C    0.959
                            93 O    0.187
   149   1 H    0.994 --   202 C    0.973
   150   6 C    3.992 --   202 C    1.441   152 C    1.403   151 H    0.973
                           199 C    0.109
   151   1 H    0.994 --   150 C    0.973
   152   6 C    3.966 --   150 C    1.403   203 C    1.401   179 N    0.999
   153   6 C    3.966 --   158 C    0.998   154 H    0.973   205 H    0.973
                           179 N    0.960
   154   1 H    0.996 --   153 C    0.973
   155   6 C    3.957 --   183 O    1.656   179 N    1.200   156 C    1.011
   156   6 C    3.952 --   157 C    1.430   180 N    1.220   155 C    1.011
                           181 N    0.134
   157   6 C    3.981 --   156 C    1.430   161 C    1.322   158 C    1.012
   158   6 C    3.989 --   157 C    1.012   153 C    0.998   160 H    0.961
                           159 H    0.960
   159   1 H    0.994 --   158 C    0.960
   160   1 H    0.992 --   158 C    0.961
   161   6 C    3.968 --   181 N    1.425   157 C    1.322   162 C    1.001
   162   6 C    3.951 --   184 O    1.651   182 N    1.257   161 C    1.001
   163   6 C    3.955 --   164 C    1.401   171 C    1.371   180 N    1.005
   164   6 C    3.991 --   166 C    1.435   163 C    1.401   165 H    0.973
                           169 C    0.108
   165   1 H    0.995 --   164 C    0.973
   166   6 C    3.991 --   164 C    1.435   168 C    1.379   167 H    0.971
   167   1 H    0.995 --   166 C    0.971
   168   6 C    3.932 --   166 C    1.379   169 C    1.344   185 O    1.071
   169   6 C    3.991 --   171 C    1.477   168 C    1.344   170 H    0.972
                           164 C    0.108
   170   1 H    0.993 --   169 C    0.972
   171   6 C    3.990 --   169 C    1.477   163 C    1.371   172 H    0.972
   172   1 H    0.993 --   171 C    0.972
   173   6 C    3.936 --   175 H    0.981   176 H    0.981   174 H    0.979
                           185 O    0.967
   174   1 H    0.994 --   173 C    0.979
   175   1 H    0.996 --   173 C    0.981
   176   1 H    0.996 --   173 C    0.981
   177   1 H    0.957 --   182 N    0.941
   178   1 H    0.955 --   182 N    0.941
   179   7 N    3.471 --   155 C    1.200   152 C    0.999   153 C    0.960
                           183 O    0.188
   180   7 N    3.692 --   181 N    1.221   156 C    1.220   163 C    1.005
   181   7 N    2.966 --   161 C    1.425   180 N    1.221   156 C    0.134
   182   7 N    3.373 --   162 C    1.257   178 H    0.941   177 H    0.941
                           184 O    0.191
   183   8 O    2.001 --   155 C    1.656   179 N    0.188
   184   8 O    1.964 --   162 C    1.651   182 N    0.191
   185   8 O    2.207 --   168 C    1.071   173 C    0.967
   186   6 C    3.969 --   189 C    1.007   188 H    0.974   187 H    0.972
                           206 N    0.959
   187   1 H    0.997 --   186 C    0.972
   188   1 H    0.996 --   186 C    0.974
   189   6 C    3.991 --   186 C    1.007   192 C    1.006   190 H    0.979
                           191 H    0.971
   190   1 H    0.997 --   189 C    0.979
   191   1 H    0.996 --   189 C    0.971
   192   6 C    3.993 --   189 C    1.006   195 C    1.002   194 H    0.981
                           193 H    0.976
   193   1 H    0.997 --   192 C    0.976
   194   1 H    0.997 --   192 C    0.981
   195   6 C    3.989 --   192 C    1.002   198 C    0.979   197 H    0.962
                           196 H    0.953
   196   1 H    0.994 --   195 C    0.953
   197   1 H    0.993 --   195 C    0.962
   198   6 C    3.949 --   207 O    1.643   206 N    1.243   195 C    0.979
   199   6 C    3.994 --   203 C    1.442   201 C    1.405   200 H    0.974
                           150 C    0.109
   200   1 H    0.995 --   199 C    0.974
   201   6 C    3.969 --   202 C    1.405   199 C    1.405   206 N    0.991
   202   6 C    3.993 --   150 C    1.441   201 C    1.405   149 H    0.973
                           203 C    0.110
   203   6 C    3.993 --   199 C    1.442   152 C    1.401   204 H    0.974
                           202 C    0.110
   204   1 H    0.995 --   203 C    0.974
   205   1 H    0.995 --   153 C    0.973
   206   7 N    3.484 --   198 C    1.243   201 C    0.991   186 C    0.959
                           207 O    0.187
   207   8 O    1.964 --   198 C    1.643   206 N    0.187
   208   1 H    0.994 --   261 C    0.973
   209   6 C    3.992 --   261 C    1.441   211 C    1.403   210 H    0.973
                           258 C    0.109
   210   1 H    0.995 --   209 C    0.973
   211   6 C    3.965 --   209 C    1.403   262 C    1.401   238 N    0.997
   212   6 C    3.967 --   217 C    0.998   213 H    0.974   264 H    0.974
                           238 N    0.961
   213   1 H    0.996 --   212 C    0.974
   214   6 C    3.957 --   242 O    1.655   238 N    1.201   215 C    1.011
   215   6 C    3.952 --   216 C    1.430   239 N    1.219   214 C    1.011
                           240 N    0.135
   216   6 C    3.978 --   215 C    1.430   220 C    1.322   217 C    1.012
   217   6 C    3.989 --   216 C    1.012   212 C    0.998   219 H    0.962
                           218 H    0.960
   218   1 H    0.993 --   217 C    0.960
   219   1 H    0.992 --   217 C    0.962
   220   6 C    3.962 --   240 N    1.429   216 C    1.322   221 C    0.994
   221   6 C    3.953 --   243 O    1.650   241 N    1.272   220 C    0.994
   222   6 C    3.950 --   223 C    1.397   230 C    1.369   239 N    1.006
   223   6 C    3.990 --   225 C    1.439   222 C    1.397   224 H    0.973
                           228 C    0.106
   224   1 H    0.995 --   223 C    0.973
   225   6 C    3.988 --   223 C    1.439   227 C    1.374   226 H    0.970
   226   1 H    0.994 --   225 C    0.970
   227   6 C    3.930 --   225 C    1.374   228 C    1.341   244 O    1.078
   228   6 C    3.988 --   230 C    1.477   227 C    1.341   229 H    0.972
                           223 C    0.106
   229   1 H    0.993 --   228 C    0.972
   230   6 C    3.989 --   228 C    1.477   222 C    1.369   231 H    0.972
   231   1 H    0.993 --   230 C    0.972
   232   6 C    3.932 --   234 H    0.981   233 H    0.980   235 H    0.976
                           244 O    0.965
   233   1 H    0.995 --   232 C    0.980
   234   1 H    0.996 --   232 C    0.981
   235   1 H    0.994 --   232 C    0.976
   236   1 H    0.947 --   241 N    0.920
   237   1 H    0.958 --   241 N    0.944
   238   7 N    3.471 --   214 C    1.201   211 C    0.997   212 C    0.961
                           242 O    0.188
   239   7 N    3.686 --   215 C    1.219   240 N    1.214   222 C    1.006
   240   7 N    2.961 --   220 C    1.429   239 N    1.214   215 C    0.135
   241   7 N    3.384 --   221 C    1.272   237 H    0.944   236 H    0.920
                           243 O    0.199
   242   8 O    2.001 --   214 C    1.655   238 N    0.188
   243   8 O    1.965 --   221 C    1.650   241 N    0.199
   244   8 O    2.211 --   227 C    1.078   232 C    0.965
   245   6 C    3.970 --   248 C    1.007   247 H    0.974   246 H    0.972
                           265 N    0.960
   246   1 H    0.997 --   245 C    0.972
   247   1 H    0.996 --   245 C    0.974
   248   6 C    3.992 --   245 C    1.007   251 C    1.006   249 H    0.979
                           250 H    0.971
   249   1 H    0.997 --   248 C    0.979
   250   1 H    0.996 --   248 C    0.971
   251   6 C    3.994 --   248 C    1.006   254 C    1.002   253 H    0.981
                           252 H    0.976
   252   1 H    0.997 --   251 C    0.976
   253   1 H    0.997 --   251 C    0.981
   254   6 C    3.989 --   251 C    1.002   257 C    0.976   256 H    0.964
                           255 H    0.954
   255   1 H    0.994 --   254 C    0.954
   256   1 H    0.994 --   254 C    0.964
   257   6 C    3.950 --   266 O    1.658   265 N    1.238   254 C    0.976
   258   6 C    3.994 --   262 C    1.442   260 C    1.405   259 H    0.974
                           209 C    0.109
   259   1 H    0.995 --   258 C    0.974
   260   6 C    3.968 --   258 C    1.405   261 C    1.405   265 N    0.991
   261   6 C    3.993 --   209 C    1.441   260 C    1.405   208 H    0.973
                           262 C    0.110
   262   6 C    3.993 --   258 C    1.442   211 C    1.401   263 H    0.974
                           261 C    0.110
   263   1 H    0.995 --   262 C    0.974
   264   1 H    0.995 --   212 C    0.974
   265   7 N    3.480 --   257 C    1.238   260 C    0.991   245 C    0.960
                           266 O    0.189
   266   8 O    1.966 --   257 C    1.658   265 N    0.189
 ---------------------------------------------------------------------------

Topologies differ in total number of bonds
Writing topology from bond orders to xtbtopo.mol

molecular dipole:
                 x           y           z       tot (Debye)
 q only:       -2.265      -0.976       0.169
   full:       -2.404       0.036       0.467       6.226
molecular quadrupole (traceless):
                xx          xy          yy          xz          yz          zz
 q only:     -366.844    -309.713      33.386    -251.850    -134.301     333.459
  q+dip:     -480.498    -270.497     153.714    -253.214      26.845     326.785
   full:     -473.336    -271.103     144.495    -241.925      26.462     328.841


           -------------------------------------------------
          | TOTAL ENERGY             -441.776368159715 Eh   |
          | GRADIENT NORM               2.002064111583 Eh/α |
          | HOMO-LUMO GAP               0.382091062547 eV   |
           -------------------------------------------------

------------------------------------------------------------------------
 * finished run on 2026/10/03 at 17:07:34.303     
------------------------------------------------------------------------
 total:
 * wall-time:     0 d,  0 h,  0 min,  4.842 sec
 *  cpu-time:     0 d,  0 h,  0 min,  4.797 sec
 * ratio c/w:     0.991 speedup
 SCF:
 * wall-time:     0 d,  0 h,  0 min,  4.656 sec
 *  cpu-time:     0 d,  0 h,  0 min,  4.641 sec
 * ratio c/w:     0.997 speedup

normal termination of xtb
