      -----------------------------------------------------------      
     |                   =====================                   |     
     |                           x T B                           |     
     |                   =====================                   |     
     |                         S. Grimme                         |     
     |          Mulliken Center for Theoretical Chemistry        |     
     |                    University of Bonn                     |     
      -----------------------------------------------------------      

   * xtb version 6.7.1pre (5071a88) compiled by 'Marcel@Raven' on 2024-07-23

   xtb is free software: you can redistribute it and/or modify it under
   the terms of the GNU Lesser General Public License as published by
   the Free Software Foundation, either version 3 of the License, or
   (at your option) any later version.
   
   xtb is distributed in the hope that it will be useful,
   but WITHOUT ANY WARRANTY; without even the implied warranty of
   MERCHANTABILITY or FITNESS FOR A PARTICULAR PURPOSE.  See the
   GNU Lesser General Public License for more details.
   
   Cite this work as:
   * C. Bannwarth, E. Caldeweyher, S. Ehlert, A. Hansen, P. Pracht,
     J. Seibert, S. Spicher, S. Grimme, WIREs Comput. Mol. Sci., 2020, 11,
     e01493. DOI: 10.1002/wcms.1493
   
   for GFN2-xTB:
   * C. Bannwarth, S. Ehlert and S. Grimme., J. Chem. Theory Comput., 2019,
     15, 1652-1671. DOI: 10.1021/acs.jctc.8b01176
   for GFN1-xTB:
   * S. Grimme, C. Bannwarth, P. Shushkov, J. Chem. Theory Comput., 2017,
     13, 1989-2009. DOI: 10.1021/acs.jctc.7b00118
   for GFN0-xTB:
   * P. Pracht, E. Caldeweyher, S. Ehlert, S. Grimme, ChemRxiv, 2019, preprint.
     DOI: 10.26434/chemrxiv.8326202.v1
   for GFN-FF:
   * S. Spicher and S. Grimme, Angew. Chem. Int. Ed., 2020, 59, 15665-15673.
     DOI: 10.1002/anie.202004239
   
   for ALPB and GBSA implicit solvation:
   * S. Ehlert, M. Stahn, S. Spicher, S. Grimme, J. Chem. Theory Comput.,
     2021, 17, 4250-4261. DOI: 10.1021/acs.jctc.1c00471
   
   for ddCOSMO and CPCM-X implicit solvation:
   * M. Stahn, S. Ehlert, S. Grimme, J. Phys. Chem. A,
     2023, XX, XXXX-XXXX. DOI: 10.1021/acs.jpca.3c04382
   
   for DFT-D4:
   * E. Caldeweyher, C. Bannwarth and S. Grimme, J. Chem. Phys., 2017,
     147, 034112. DOI: 10.1063/1.4993215
   * E. Caldeweyher, S. Ehlert, A. Hansen, H. Neugebauer, S. Spicher,
     C. Bannwarth and S. Grimme, J. Chem. Phys., 2019, 150, 154122.
     DOI: 10.1063/1.5090222
   * E. Caldeweyher, J.-M. Mewes, S. Ehlert and S. Grimme, Phys. Chem. Chem. Phys.
     2020, 22, 8499-8512. DOI: 10.1039/D0CP00502A
   
   for sTDA-xTB:
   * S. Grimme and C. Bannwarth, J. Chem. Phys., 2016, 145, 054103.
     DOI: 10.1063/1.4959605
   
   in the mass-spec context:
   * V. Asgeirsson, C. Bauer and S. Grimme, Chem. Sci., 2017, 8, 4879.
     DOI: 10.1039/c7sc00601b
   * J. Koopman and S. Grimme, ACS Omega 2019, 4, 12, 15120-15133.
     DOI: 10.1021/acsomega.9b02011
   
   for metadynamics refer to:
   * S. Grimme, J. Chem. Theory Comput., 2019, 155, 2847-2862
     DOI: 10.1021/acs.jctc.9b00143
   
   for SPH calculations refer to:
   * S. Spicher and S. Grimme, J. Chem. Theory Comput., 2021, 17, 1701-1714
     DOI: 10.1021/acs.jctc.0c01306
   
   for ONIOM refer to:
   * C. Plett, A. Katbashev, S. Ehlert, S. Grimme, M. Bursch,
     Phys. Chem. Chem. Phys., 2023, 25, 17860-17868. DOI: 10.1039/D3CP02178E
   
   for DIPRO refer to:
   * J. Kohn, N. Gildemeister, S. Grimme, D. Fazzi, A. Hansen,
     J. Chem. Phys., 2023, just accepted.
   
   for PTB refer to:
   * S. Grimme, M. Mueller, A. Hansen, J. Chem. Phys., 2023, 158, 124111.
     DOI: 10.1063/5.0137838
   
   with help from (in alphabetical order)
   P. Atkinson, C. Bannwarth, F. Bohle, G. Brandenburg, E. Caldeweyher
   M. Checinski, S. Dohm, S. Ehlert, S. Ehrlich, I. Gerasimov, C. Hölzer
   A. Katbashev, J. Kohn, J. Koopman, C. Lavigne, S. Lehtola, F. März, M. Müller,
   F. Musil, H. Neugebauer, J. Pisarek, C. Plett, P. Pracht, F. Pultar,
   J. Seibert, P. Shushkov, S. Spicher, M. Stahn, M. Steiner, T. Strunk,
   J. Stückrath, T. Rose, and J. Unsleber
   
 * started run on 2026/10/03 at 17:03:54.187     
   ID    Z sym.   atoms
    1    1 H      1, 3, 6, 11, 12, 17, 19, 22, 24, 26-30, 39, 40, 42, 43, 45,
                  46, 48, 49, 52, 56, 57, 61, 62, 64, 65, 67, 68, 70, 71, 74,
                  78, 79, 82, 84, 87, 92, 93, 98, 100, 103, 105, 107-111,
                  120, 121, 123, 124, 126, 127, 129, 130, 133, 137, 138, 141,
                  143, 146, 151, 152, 157, 159, 162, 164, 166-170, 179, 180,
                  184, 186-188, 191, 193, 194, 199, 200, 205, 208-210, 218,
                  219, 221, 222, 224, 225, 228, 231, 233, 235, 238, 239, 243,
                  245-247, 250, 252, 253, 258, 259, 264, 267-269, 277, 278,
                  280, 281, 283, 284, 287, 290, 292, 294, 296, 298, 301, 306,
                  307, 312, 314, 317, 319, 321-325, 334, 335, 337, 338, 340,
                  341, 343, 344, 347, 351, 352, 355, 357, 360, 365, 366, 371,
                  373, 376, 378, 380-384, 393, 394, 396, 397, 399, 400, 402,
                  403, 406, 410, 411
    2    6 C      2, 4, 5, 7-10, 13-16, 18, 20, 21, 23, 25, 38, 41, 44, 47,
                  50, 51, 53-55, 60, 63, 66, 69, 72, 73, 75-77, 83, 85, 86,
                  88-91, 94-97, 99, 101, 102, 104, 106, 119, 122, 125, 128,
                  131, 132, 134-136, 142, 144, 145, 147-150, 153-156, 158,
                  160, 161, 163, 165, 178, 182, 183, 185, 190, 192, 195-198,
                  201-204, 206, 207, 217, 220, 223, 226, 227, 229, 230, 232,
                  234, 237, 241, 242, 244, 249, 251, 254-257, 260-263, 265,
                  266, 276, 279, 282, 285, 286, 288, 289, 291, 293, 297, 299,
                  300, 302-305, 308-311, 313, 315, 316, 318, 320, 333, 336,
                  339, 342, 345, 346, 348-350, 356, 358, 359, 361-364,
                  367-370, 372, 374, 375, 377, 379, 392, 395, 398, 401, 404,
                  405, 407-409
    3    7 N      31-34, 58, 80, 112-115, 139, 171-174, 211-214, 236,
                  270-273, 295, 326-329, 353, 385-388, 412
    4    8 O      35-37, 59, 81, 116-118, 140, 175-177, 181, 189, 215, 216,
                  240, 248, 274, 275, 330-332, 354, 389-391, 413

           -------------------------------------------------
          |                Calculation Setup                |
           -------------------------------------------------

          program call               : "C:\ORCA_6.1.1\xtb-6.7.1pre\xtb.exe"  "Stage06a_D6a_D6b_direct.xyz" --grad -c 0 -u 0 -P 1 --namespace Stage06a_D6a_D6b --acc 1.000000 
          calculation namespace      : Stage06a_D6a_D6b
          coordinate file            : Stage06a_D6a_D6b_direct.xyz
          omp threads                :                     1


molecular fragmentation (1/2 indicates fragments):
111111111111111111111111111111111111111111111111111111111112222222222222
222222222222222222222222222222222222222222222222222222222222222222222222
222222222222222222222222222222222222222222222222222222222222222222222222
222222222222222222222222222222222222222222222222222222222222222222222222
222222222222222222222222222222222222222222222222222222222222222222222222
22222222222222222222222222222222222222222222222222222
# atoms in fragment 1/2:    59   354
 fragment masses (1/2) :      459.50     2756.99
CMA distance (Bohr)    :   4.111
constraining FC (au)   :  0.0500

           -------------------------------------------------
          |                 G F N 2 - x T B                 |
           -------------------------------------------------

        Reference                      10.1021/acs.jctc.8b01176
      * Hamiltonian:
        H0-scaling (s, p, d)           1.850000    2.230000    2.230000
        zeta-weighting                 0.500000
      * Dispersion:
        s8                             2.700000
        a1                             0.520000
        a2                             5.000000
        s9                             5.000000
      * Repulsion:
        kExp                           1.500000    1.000000
        rExp                           1.000000
      * Coulomb:
        alpha                          2.000000
        third order                    shell-resolved
        anisotropic                    true
        a3                             3.000000
        a5                             4.000000
        cn-shift                       1.200000
        cn-exp                         4.000000
        max-rad                        5.000000


          ...................................................
          :                      SETUP                      :
          :.................................................:
          :  # basis functions                1127          :
          :  # atomic orbitals                1127          :
          :  # shells                          651          :
          :  # electrons                      1218          :
          :  max. iterations                   250          :
          :  Hamiltonian                  GFN2-xTB          :
          :  restarted?                      false          :
          :  GBSA solvation                  false          :
          :  PC potential                    false          :
          :  electronic temp.          300.0000000     K    :
          :  accuracy                    1.0000000          :
          :  -> integral cutoff          0.2500000E+02      :
          :  -> integral neglect         0.1000000E-07      :
          :  -> SCF convergence          0.1000000E-05 Eh   :
          :  -> wf. convergence          0.1000000E-03 e    :
          :  Broyden damping             0.4000000          :
          :  net charge                          0          :
          :  unpaired electrons                  0          :
          ...................................................

 iter      E             dE          RMSdq      gap      omega  full diag
   1   -691.3216381 -0.691322E+03  0.412E+00    2.82       0.0  T
   2   -693.1099473 -0.178831E+01  0.242E+00    2.28       1.0  T
   3   -693.2801729 -0.170226E+00  0.129E+00    2.71       1.0  T
   4   -693.3057962 -0.256233E-01  0.432E-01    2.52       1.0  T
   5   -693.3593655 -0.535693E-01  0.937E-02    2.54       1.0  T
   6   -693.3601756 -0.810068E-03  0.533E-02    2.55       1.0  T
   7   -693.3607229 -0.547331E-03  0.222E-02    2.56       1.0  T
   8   -693.3607498 -0.268472E-04  0.881E-03    2.56       1.0  T
   9   -693.3607631 -0.133816E-04  0.393E-03    2.56       1.3  T
  10   -693.3607643 -0.119381E-05  0.163E-03    2.56       3.0  T
  11   -693.3607649 -0.534912E-06  0.533E-04    2.56       9.2  T
  12   -693.3607649 -0.316323E-07  0.269E-04    2.56      18.3  T

   *** convergence criteria satisfied after 12 iterations ***

         #    Occupation            Energy/Eh            Energy/eV
      -------------------------------------------------------------
         1        2.0000           -0.7219796             -19.6461
       ...           ...                  ...                  ...
       603        2.0000           -0.3743416             -10.1864
       604        2.0000           -0.3722577             -10.1296
       605        2.0000           -0.3711941             -10.1007
       606        2.0000           -0.3699691             -10.0674
       607        2.0000           -0.3695953             -10.0572
       608        2.0000           -0.3667305              -9.9792
       609        2.0000           -0.3630412              -9.8789 (HOMO)
       610                         -0.2689604              -7.3188 (LUMO)
       611                         -0.2689516              -7.3185
       612                         -0.2667654              -7.2591
       613                         -0.2654600              -7.2235
       614                         -0.2611419              -7.1060
       ...                                ...                  ...
      1127                          0.8977985              24.4303
      -------------------------------------------------------------
                  HL-Gap            0.0940808 Eh            2.5601 eV
             Fermi-level           -0.3160008 Eh           -8.5988 eV

 SCC (total)                   0 d,  0 h,  0 min,  8.188 sec
 SCC setup                      ...        0 min,  0.012 sec (  0.147%)
 Dispersion                     ...        0 min,  0.031 sec (  0.379%)
 classical contributions        ...        0 min,  0.004 sec (  0.049%)
 integral evaluation            ...        0 min,  0.284 sec (  3.468%)
 iterations                     ...        0 min,  5.510 sec ( 67.294%)
 molecular gradient             ...        0 min,  2.261 sec ( 27.614%)
 printout                       ...        0 min,  0.086 sec (  1.050%)

         :::::::::::::::::::::::::::::::::::::::::::::::::::::
         ::                     SUMMARY                     ::
         :::::::::::::::::::::::::::::::::::::::::::::::::::::
         :: total energy            -677.989763169625 Eh    ::
         :: gradient norm              2.467866781800 Eh/a0 ::
         :: HOMO-LUMO gap              2.560069588332 eV    ::
         ::.................................................::
         :: SCC energy              -693.329643081020 Eh    ::
         :: -> isotropic ES            1.026484215314 Eh    ::
         :: -> anisotropic ES         -0.003755918335 Eh    ::
         :: -> anisotropic XC          0.129033804371 Eh    ::
         :: -> dispersion             -0.624816450632 Eh    ::
         :: repulsion energy          15.339879911395 Eh    ::
         :: add. restraining           0.000000000000 Eh    ::
         :: total charge              -0.000000000000 e     ::
         :::::::::::::::::::::::::::::::::::::::::::::::::::::

           -------------------------------------------------
          |                Property Printout                |
           -------------------------------------------------

    * Orbital Energies and Occupations

         #    Occupation            Energy/Eh            Energy/eV
      -------------------------------------------------------------
         1        2.0000           -0.7219796             -19.6461
       ...           ...                  ...                  ...
       597        2.0000           -0.3780573             -10.2875
       598        2.0000           -0.3777429             -10.2789
       599        2.0000           -0.3767624             -10.2522
       600        2.0000           -0.3764293             -10.2432
       601        2.0000           -0.3757950             -10.2259
       602        2.0000           -0.3755433             -10.2191
       603        2.0000           -0.3743416             -10.1864
       604        2.0000           -0.3722577             -10.1296
       605        2.0000           -0.3711941             -10.1007
       606        2.0000           -0.3699691             -10.0674
       607        2.0000           -0.3695953             -10.0572
       608        2.0000           -0.3667305              -9.9792
       609        2.0000           -0.3630412              -9.8789 (HOMO)
       610                         -0.2689604              -7.3188 (LUMO)
       611                         -0.2689516              -7.3185
       612                         -0.2667654              -7.2591
       613                         -0.2654600              -7.2235
       614                         -0.2611419              -7.1060
       615                         -0.2608412              -7.0979
       616                         -0.2529838              -6.8840
       617                         -0.2439821              -6.6391
       618                         -0.2434414              -6.6244
       619                         -0.2424356              -6.5970
       620                         -0.2419685              -6.5843
       ...                                ...                  ...
      1127                          0.8977985              24.4303
      -------------------------------------------------------------
                  HL-Gap            0.0940808 Eh            2.5601 eV
             Fermi-level           -0.3160008 Eh           -8.5988 eV

     #   Z          covCN         q      C6AA      α(0)
     1   1 H        0.930     0.071     2.079     2.255
     2   6 C        2.936    -0.045    29.113     8.849
     3   1 H        0.930     0.095     1.830     2.115
     4   6 C        2.928     0.069    26.447     8.434
     5   6 C        3.764    -0.015    20.880     6.513
     6   1 H        0.930     0.064     2.146     2.291
     7   6 C        2.767     0.276    22.335     7.740
     8   6 C        3.096    -0.002    27.964     8.667
     9   6 C        3.070    -0.021    28.453     8.746
    10   6 C        3.821    -0.084    22.079     6.687
    11   1 H        0.930     0.073     2.053     2.241
    12   1 H        0.930     0.080     1.983     2.202
    13   6 C        3.172     0.020    27.183     8.517
    14   6 C        2.748     0.276    22.332     7.738
    15   6 C        2.920     0.039    27.119     8.540
    16   6 C        2.934    -0.044    29.098     8.847
    17   1 H        0.930     0.094     1.841     2.122
    18   6 C        2.932    -0.071    29.762     8.947
    19   1 H        0.930     0.079     1.984     2.202
    20   6 C        2.878     0.147    24.795     8.163
    21   6 C        2.936    -0.073    29.822     8.956
    22   1 H        0.930     0.071     2.070     2.250
    23   6 C        2.932    -0.054    29.354     8.885
    24   1 H        0.930     0.073     2.055     2.242
    25   6 C        3.664     0.013    20.626     6.514
    26   1 H        0.930     0.065     2.145     2.290
    27   1 H        0.930     0.053     2.279     2.361
    28   1 H        0.930     0.076     2.020     2.222
    29   1 H        0.862     0.229     0.971     1.544
    30   1 H        0.863     0.206     1.074     1.623
    31   7 N        2.745    -0.111    23.432     7.189
    32   7 N        3.019     0.089    19.705     6.593
    33   7 N        1.991    -0.258    27.514     7.779
    34   7 N        2.645    -0.286    27.388     7.772
    35   8 O        0.858    -0.442    22.543     6.366
    36   8 O        0.860    -0.466    23.054     6.438
    37   8 O        1.705    -0.286    18.756     5.847
    38   6 C        3.762    -0.009    20.782     6.498
    39   1 H        0.930     0.056     2.244     2.342
    40   1 H        0.930     0.071     2.076     2.253
    41   6 C        3.827    -0.083    22.069     6.685
    42   1 H        0.930     0.060     2.199     2.319
    43   1 H        0.930     0.063     2.168     2.302
    44   6 C        3.825    -0.082    22.042     6.681
    45   1 H        0.930     0.055     2.262     2.352
    46   1 H        0.930     0.049     2.333     2.388
    47   6 C        3.826    -0.106    22.499     6.750
    48   1 H        0.930     0.074     2.045     2.236
    49   1 H        0.930     0.075     2.034     2.230
    50   6 C        2.766     0.265    22.522     7.772
    51   6 C        2.935    -0.057    29.418     8.895
    52   1 H        0.930     0.070     2.083     2.257
    53   6 C        2.930     0.061    26.640     8.465
    54   6 C        2.938    -0.048    29.201     8.863
    55   6 C        2.935    -0.057    29.410     8.894
    56   1 H        0.930     0.080     1.976     2.198
    57   1 H        0.930     0.072     2.066     2.248
    58   7 N        2.739    -0.113    23.467     7.195
    59   8 O        0.859    -0.492    23.619     6.516
    60   6 C        3.762    -0.008    20.760     6.495
    61   1 H        0.930     0.054     2.267     2.354
    62   1 H        0.930     0.066     2.131     2.282
    63   6 C        3.827    -0.083    22.065     6.684
    64   1 H        0.930     0.058     2.224     2.332
    65   1 H        0.930     0.066     2.129     2.282
    66   6 C        3.825    -0.080    22.015     6.677
    67   1 H        0.930     0.053     2.283     2.363
    68   1 H        0.930     0.049     2.326     2.385
    69   6 C        3.826    -0.107    22.516     6.752
    70   1 H        0.930     0.073     2.054     2.241
    71   1 H        0.930     0.074     2.042     2.234
    72   6 C        2.766     0.268    22.476     7.764
    73   6 C        2.935    -0.053    29.305     8.878
    74   1 H        0.930     0.067     2.123     2.278
    75   6 C        2.930     0.071    26.421     8.430
    76   6 C        2.938    -0.044    29.093     8.846
    77   6 C        2.935    -0.055    29.362     8.887
    78   1 H        0.930     0.080     1.980     2.200
    79   1 H        0.930     0.074     2.041     2.234
    80   7 N        2.739    -0.113    23.471     7.195
    81   8 O        0.859    -0.473    23.191     6.457
    82   1 H        0.930     0.075     2.035     2.231
    83   6 C        2.936    -0.047    29.156     8.855
    84   1 H        0.930     0.070     2.088     2.259
    85   6 C        2.928     0.066    26.524     8.446
    86   6 C        3.764    -0.014    20.859     6.510
    87   1 H        0.930     0.059     2.211     2.325
    88   6 C        2.767     0.268    22.479     7.765
    89   6 C        3.096    -0.008    28.113     8.690
    90   6 C        3.070    -0.019    28.407     8.739
    91   6 C        3.821    -0.084    22.078     6.687
    92   1 H        0.930     0.076     2.024     2.225
    93   1 H        0.930     0.084     1.940     2.178
    94   6 C        3.172     0.020    27.174     8.515
    95   6 C        2.748     0.275    22.353     7.742
    96   6 C        2.920     0.044    27.007     8.522
    97   6 C        2.934    -0.043    29.063     8.841
    98   1 H        0.930     0.070     2.081     2.256
    99   6 C        2.932    -0.079    29.985     8.980
   100   1 H        0.930     0.069     2.091     2.261
   101   6 C        2.878     0.146    24.825     8.168
   102   6 C        2.936    -0.065    29.619     8.926
   103   1 H        0.930     0.084     1.935     2.175
   104   6 C        2.932    -0.045    29.108     8.848
   105   1 H        0.930     0.078     2.001     2.212
   106   6 C        3.664     0.012    20.631     6.515
   107   1 H        0.930     0.075     2.034     2.230
   108   1 H        0.930     0.059     2.208     2.323
   109   1 H        0.930     0.057     2.237     2.339
   110   1 H        0.862     0.205     1.080     1.627
   111   1 H        0.863     0.213     1.041     1.598
   112   7 N        2.745    -0.117    23.538     7.206
   113   7 N        3.019     0.091    19.664     6.586
   114   7 N        1.991    -0.247    27.255     7.743
   115   7 N        2.645    -0.287    27.396     7.774
   116   8 O        0.858    -0.447    22.635     6.379
   117   8 O        0.860    -0.455    22.818     6.404
   118   8 O        1.705    -0.277    18.591     5.821
   119   6 C        3.762    -0.012    20.836     6.507
   120   1 H        0.930     0.060     2.199     2.319
   121   1 H        0.930     0.063     2.168     2.302
   122   6 C        3.827    -0.083    22.064     6.684
   123   1 H        0.930     0.055     2.254     2.347
   124   1 H        0.930     0.058     2.221     2.330
   125   6 C        3.825    -0.078    21.970     6.670
   126   1 H        0.930     0.049     2.338     2.391
   127   1 H        0.930     0.052     2.293     2.368
   128   6 C        3.826    -0.105    22.477     6.746
   129   1 H        0.930     0.070     2.088     2.260
   130   1 H        0.930     0.073     2.053     2.241
   131   6 C        2.766     0.268    22.482     7.765
   132   6 C        2.935    -0.058    29.443     8.899
   133   1 H        0.930     0.064     2.149     2.292
   134   6 C        2.930     0.065    26.536     8.448
   135   6 C        2.938    -0.047    29.156     8.856
   136   6 C        2.935    -0.058    29.446     8.899
   137   1 H        0.930     0.068     2.104     2.268
   138   1 H        0.930     0.066     2.129     2.282
   139   7 N        2.739    -0.109    23.391     7.183
   140   8 O        0.859    -0.482    23.384     6.483
   141   1 H        0.930     0.073     2.057     2.242
   142   6 C        2.936    -0.044    29.094     8.846
   143   1 H        0.930     0.094     1.844     2.123
   144   6 C        2.928     0.073    26.360     8.420
   145   6 C        3.764    -0.011    20.806     6.502
   146   1 H        0.930     0.058     2.224     2.332
   147   6 C        2.767     0.276    22.338     7.740
   148   6 C        3.096    -0.002    27.967     8.667
   149   6 C        3.070    -0.019    28.417     8.741
   150   6 C        3.821    -0.083    22.060     6.684
   151   1 H        0.930     0.075     2.032     2.229
   152   1 H        0.930     0.080     1.978     2.199
   153   6 C        3.172     0.022    27.145     8.511
   154   6 C        2.748     0.276    22.323     7.736
   155   6 C        2.920     0.042    27.069     8.532
   156   6 C        2.934    -0.044    29.086     8.845
   157   1 H        0.930     0.089     1.885     2.147
   158   6 C        2.932    -0.080    29.997     8.982
   159   1 H        0.930     0.092     1.858     2.131
   160   6 C        2.878     0.143    24.893     8.179
   161   6 C        2.936    -0.071    29.768     8.948
   162   1 H        0.930     0.074     2.045     2.236
   163   6 C        2.932    -0.051    29.255     8.870
   164   1 H        0.930     0.074     2.037     2.232
   165   6 C        3.664     0.010    20.671     6.521
   166   1 H        0.930     0.067     2.119     2.276
   167   1 H        0.930     0.064     2.146     2.291
   168   1 H        0.930     0.061     2.191     2.315
   169   1 H        0.862     0.203     1.089     1.635
   170   1 H        0.863     0.211     1.053     1.607
   171   7 N        2.745    -0.116    23.524     7.203
   172   7 N        3.019     0.092    19.649     6.584
   173   7 N        1.991    -0.249    27.284     7.747
   174   7 N        2.645    -0.287    27.394     7.773
   175   8 O        0.858    -0.435    22.385     6.343
   176   8 O        0.860    -0.453    22.778     6.399
   177   8 O        1.705    -0.285    18.734     5.844
   178   6 C        3.826    -0.110    22.573     6.761
   179   1 H        0.930     0.079     1.992     2.207
   180   1 H        0.930     0.079     1.993     2.207
   181   8 O        0.859    -0.477    23.285     6.470
   182   6 C        2.878     0.149    24.772     8.159
   183   6 C        2.936    -0.070    29.745     8.945
   184   1 H        0.930     0.075     2.031     2.229
   185   6 C        3.664     0.010    20.673     6.521
   186   1 H        0.930     0.067     2.120     2.277
   187   1 H        0.930     0.057     2.233     2.337
   188   1 H        0.930     0.072     2.061     2.245
   189   8 O        1.705    -0.282    18.676     5.835
   190   6 C        2.928     0.070    26.444     8.433
   191   1 H        0.930     0.069     2.091     2.261
   192   6 C        3.764    -0.017    20.923     6.520
   193   1 H        0.930     0.064     2.150     2.293
   194   1 H        0.930     0.072     2.061     2.245
   195   6 C        2.767     0.268    22.471     7.763
   196   6 C        3.096    -0.010    28.148     8.695
   197   6 C        3.070    -0.016    28.345     8.730
   198   6 C        3.821    -0.084    22.077     6.687
   199   1 H        0.930     0.075     2.028     2.227
   200   1 H        0.930     0.084     1.937     2.176
   201   6 C        3.172     0.027    27.020     8.491
   202   6 C        2.748     0.279    22.277     7.728
   203   6 C        2.920     0.041    27.071     8.532
   204   6 C        2.934    -0.044    29.091     8.846
   205   1 H        0.930     0.071     2.074     2.252
   206   6 C        2.932    -0.072    29.797     8.952
   207   6 C        2.932    -0.051    29.278     8.874
   208   1 H        0.930     0.077     2.012     2.218
   209   1 H        0.862     0.230     0.965     1.539
   210   1 H        0.863     0.205     1.079     1.627
   211   7 N        2.745    -0.120    23.619     7.218
   212   7 N        3.019     0.086    19.741     6.599
   213   7 N        1.991    -0.248    27.262     7.744
   214   7 N        2.645    -0.283    27.297     7.760
   215   8 O        0.858    -0.444    22.571     6.370
   216   8 O        0.860    -0.458    22.874     6.412
   217   6 C        3.762    -0.012    20.842     6.508
   218   1 H        0.930     0.059     2.205     2.322
   219   1 H        0.930     0.063     2.158     2.297
   220   6 C        3.827    -0.085    22.091     6.688
   221   1 H        0.930     0.057     2.229     2.335
   222   1 H        0.930     0.060     2.198     2.318
   223   6 C        3.825    -0.082    22.043     6.681
   224   1 H        0.930     0.056     2.245     2.343
   225   1 H        0.930     0.050     2.314     2.379
   226   6 C        2.766     0.266    22.504     7.769
   227   6 C        2.935    -0.058    29.436     8.898
   228   1 H        0.930     0.074     2.045     2.236
   229   6 C        2.930     0.064    26.567     8.453
   230   6 C        2.938    -0.045    29.126     8.851
   231   1 H        0.930     0.076     2.023     2.224
   232   6 C        2.936    -0.046    29.136     8.853
   233   1 H        0.930     0.075     2.027     2.226
   234   6 C        2.935    -0.058    29.438     8.898
   235   1 H        0.930     0.077     2.009     2.216
   236   7 N        2.739    -0.114    23.479     7.197
   237   6 C        3.826    -0.107    22.524     6.753
   238   1 H        0.930     0.076     2.023     2.224
   239   1 H        0.930     0.081     1.967     2.193
   240   8 O        0.859    -0.475    23.227     6.462
   241   6 C        2.878     0.148    24.792     8.163
   242   6 C        2.936    -0.073    29.826     8.957
   243   1 H        0.930     0.071     2.076     2.253
   244   6 C        3.664     0.012    20.632     6.515
   245   1 H        0.930     0.066     2.132     2.283
   246   1 H        0.930     0.052     2.289     2.366
   247   1 H        0.930     0.076     2.017     2.221
   248   8 O        1.705    -0.286    18.742     5.845
   249   6 C        2.928     0.069    26.452     8.435
   250   1 H        0.930     0.070     2.079     2.255
   251   6 C        3.764    -0.017    20.919     6.519
   252   1 H        0.930     0.065     2.139     2.287
   253   1 H        0.930     0.072     2.063     2.246
   254   6 C        2.767     0.268    22.469     7.763
   255   6 C        3.096    -0.009    28.131     8.693
   256   6 C        3.070    -0.016    28.328     8.727
   257   6 C        3.821    -0.084    22.084     6.688
   258   1 H        0.930     0.075     2.033     2.230
   259   1 H        0.930     0.083     1.953     2.185
   260   6 C        3.172     0.028    26.994     8.487
   261   6 C        2.748     0.282    22.232     7.721
   262   6 C        2.920     0.043    27.030     8.526
   263   6 C        2.934    -0.042    29.055     8.840
   264   1 H        0.930     0.073     2.057     2.243
   265   6 C        2.932    -0.071    29.780     8.950
   266   6 C        2.932    -0.052    29.284     8.875
   267   1 H        0.930     0.076     2.015     2.220
   268   1 H        0.862     0.230     0.965     1.538
   269   1 H        0.863     0.209     1.060     1.613
   270   7 N        2.745    -0.119    23.593     7.214
   271   7 N        3.019     0.087    19.735     6.598
   272   7 N        1.991    -0.245    27.200     7.735
   273   7 N        2.645    -0.281    27.254     7.753
   274   8 O        0.858    -0.445    22.606     6.375
   275   8 O        0.860    -0.466    23.044     6.436
   276   6 C        3.762    -0.011    20.819     6.504
   277   1 H        0.930     0.059     2.212     2.326
   278   1 H        0.930     0.061     2.188     2.313
   279   6 C        3.827    -0.083    22.067     6.684
   280   1 H        0.930     0.055     2.253     2.347
   281   1 H        0.930     0.058     2.219     2.329
   282   6 C        3.825    -0.080    22.013     6.676
   283   1 H        0.930     0.054     2.272     2.357
   284   1 H        0.930     0.053     2.283     2.363
   285   6 C        2.766     0.270    22.446     7.759
   286   6 C        2.935    -0.058    29.439     8.898
   287   1 H        0.930     0.067     2.116     2.275
   288   6 C        2.930     0.066    26.533     8.447
   289   6 C        2.938    -0.045    29.124     8.851
   290   1 H        0.930     0.076     2.021     2.223
   291   6 C        2.936    -0.046    29.133     8.852
   292   1 H        0.930     0.075     2.031     2.228
   293   6 C        2.935    -0.058    29.452     8.900
   294   1 H        0.930     0.078     2.001     2.212
   295   7 N        2.739    -0.112    23.447     7.192
   296   1 H        0.930     0.075     2.029     2.227
   297   6 C        2.936    -0.046    29.146     8.854
   298   1 H        0.930     0.073     2.050     2.239
   299   6 C        2.928     0.069    26.459     8.436
   300   6 C        3.764    -0.017    20.914     6.518
   301   1 H        0.930     0.064     2.155     2.296
   302   6 C        2.767     0.268    22.468     7.763
   303   6 C        3.096    -0.009    28.118     8.691
   304   6 C        3.070    -0.015    28.314     8.725
   305   6 C        3.821    -0.084    22.078     6.687
   306   1 H        0.930     0.078     2.003     2.213
   307   1 H        0.930     0.083     1.948     2.183
   308   6 C        3.172     0.026    27.040     8.494
   309   6 C        2.748     0.281    22.244     7.723
   310   6 C        2.920     0.046    26.969     8.516
   311   6 C        2.934    -0.042    29.041     8.838
   312   1 H        0.930     0.070     2.079     2.255
   313   6 C        2.932    -0.079    29.964     8.977
   314   1 H        0.930     0.069     2.099     2.265
   315   6 C        2.878     0.145    24.852     8.173
   316   6 C        2.936    -0.067    29.661     8.932
   317   1 H        0.930     0.079     1.993     2.208
   318   6 C        2.932    -0.046    29.151     8.855
   319   1 H        0.930     0.080     1.981     2.201
   320   6 C        3.664     0.012    20.630     6.515
   321   1 H        0.930     0.073     2.054     2.241
   322   1 H        0.930     0.059     2.205     2.322
   323   1 H        0.930     0.057     2.237     2.339
   324   1 H        0.862     0.206     1.078     1.626
   325   1 H        0.863     0.213     1.043     1.600
   326   7 N        2.745    -0.119    23.584     7.213
   327   7 N        3.019     0.089    19.690     6.590
   328   7 N        1.991    -0.241    27.090     7.719
   329   7 N        2.645    -0.282    27.271     7.756
   330   8 O        0.858    -0.444    22.571     6.370
   331   8 O        0.860    -0.458    22.868     6.412
   332   8 O        1.705    -0.281    18.659     5.832
   333   6 C        3.762    -0.012    20.840     6.507
   334   1 H        0.930     0.060     2.199     2.319
   335   1 H        0.930     0.063     2.165     2.301
   336   6 C        3.827    -0.084    22.088     6.687
   337   1 H        0.930     0.057     2.236     2.338
   338   1 H        0.930     0.060     2.195     2.317
   339   6 C        3.825    -0.082    22.045     6.681
   340   1 H        0.930     0.056     2.243     2.342
   341   1 H        0.930     0.051     2.304     2.374
   342   6 C        3.826    -0.109    22.569     6.760
   343   1 H        0.930     0.078     1.997     2.210
   344   1 H        0.930     0.079     1.987     2.204
   345   6 C        2.766     0.267    22.502     7.769
   346   6 C        2.935    -0.056    29.402     8.893
   347   1 H        0.930     0.075     2.027     2.226
   348   6 C        2.930     0.065    26.550     8.450
   349   6 C        2.938    -0.046    29.131     8.852
   350   6 C        2.935    -0.057    29.407     8.894
   351   1 H        0.930     0.073     2.056     2.242
   352   1 H        0.930     0.073     2.047     2.237
   353   7 N        2.739    -0.114    23.484     7.197
   354   8 O        0.859    -0.476    23.257     6.466
   355   1 H        0.930     0.076     2.025     2.225
   356   6 C        2.936    -0.044    29.089     8.845
   357   1 H        0.930     0.073     2.048     2.238
   358   6 C        2.928     0.070    26.432     8.431
   359   6 C        3.764    -0.013    20.844     6.508
   360   1 H        0.930     0.057     2.229     2.334
   361   6 C        2.767     0.269    22.465     7.762
   362   6 C        3.096    -0.009    28.131     8.693
   363   6 C        3.070    -0.017    28.365     8.733
   364   6 C        3.821    -0.083    22.062     6.684
   365   1 H        0.930     0.077     2.010     2.217
   366   1 H        0.930     0.083     1.944     2.180
   367   6 C        3.172     0.025    27.060     8.497
   368   6 C        2.748     0.276    22.340     7.739
   369   6 C        2.920     0.042    27.051     8.529
   370   6 C        2.934    -0.047    29.159     8.856
   371   1 H        0.930     0.069     2.096     2.264
   372   6 C        2.932    -0.075    29.875     8.964
   373   1 H        0.930     0.074     2.044     2.235
   374   6 C        2.878     0.149    24.771     8.159
   375   6 C        2.936    -0.069    29.721     8.941
   376   1 H        0.930     0.080     1.982     2.201
   377   6 C        2.932    -0.048    29.201     8.862
   378   1 H        0.930     0.077     2.012     2.218
   379   6 C        3.664     0.014    20.608     6.511
   380   1 H        0.930     0.067     2.122     2.278
   381   1 H        0.930     0.052     2.300     2.371
   382   1 H        0.930     0.074     2.039     2.233
   383   1 H        0.862     0.229     0.971     1.544
   384   1 H        0.863     0.204     1.084     1.630
   385   7 N        2.745    -0.120    23.615     7.217
   386   7 N        3.019     0.088    19.719     6.595
   387   7 N        1.991    -0.251    27.331     7.753
   388   7 N        2.645    -0.286    27.378     7.771
   389   8 O        0.858    -0.442    22.546     6.366
   390   8 O        0.860    -0.452    22.750     6.395
   391   8 O        1.705    -0.281    18.660     5.832
   392   6 C        3.762    -0.011    20.814     6.503
   393   1 H        0.930     0.057     2.234     2.337
   394   1 H        0.930     0.060     2.197     2.318
   395   6 C        3.827    -0.083    22.058     6.683
   396   1 H        0.930     0.055     2.257     2.349
   397   1 H        0.930     0.057     2.236     2.338
   398   6 C        3.825    -0.080    21.997     6.674
   399   1 H        0.930     0.052     2.291     2.367
   400   1 H        0.930     0.050     2.315     2.379
   401   6 C        3.826    -0.107    22.519     6.753
   402   1 H        0.930     0.074     2.040     2.233
   403   1 H        0.930     0.076     2.019     2.222
   404   6 C        2.766     0.268    22.478     7.764
   405   6 C        2.935    -0.056    29.399     8.892
   406   1 H        0.930     0.065     2.145     2.290
   407   6 C        2.930     0.069    26.459     8.436
   408   6 C        2.938    -0.042    29.052     8.840
   409   6 C        2.935    -0.057    29.415     8.895
   410   1 H        0.930     0.069     2.096     2.264
   411   1 H        0.930     0.069     2.097     2.264
   412   7 N        2.739    -0.113    23.467     7.195
   413   8 O        0.859    -0.467    23.059     6.438

 Mol. C6AA /au·bohr⁶  :    2051308.514449
 Mol. C8AA /au·bohr⁸  :   49010613.560003
 Mol. α(0) /au        :       2219.836706


Wiberg/Mayer (AO) data.
largest (>0.10) Wiberg bond orders for each atom

 ---------------------------------------------------------------------------
     #   Z sym  total        # sym  WBO       # sym  WBO       # sym  WBO
 ---------------------------------------------------------------------------
     1   1 H    0.995 --    54 C    0.973
     2   6 C    3.988 --    54 C    1.439     4 C    1.403     3 H    0.967
                            51 C    0.110
     3   1 H    0.991 --     2 C    0.967
     4   6 C    3.966 --     2 C    1.403    55 C    1.402    31 N    0.998
     5   6 C    3.967 --    10 C    0.998    57 H    0.973     6 H    0.973
                            31 N    0.962
     6   1 H    0.996 --     5 C    0.973
     7   6 C    3.957 --    35 O    1.656    31 N    1.205     8 C    1.007
     8   6 C    3.955 --     9 C    1.431    32 N    1.226     7 C    1.007
                            33 N    0.134
     9   6 C    3.980 --     8 C    1.431    13 C    1.324    10 C    1.012
    10   6 C    3.990 --     9 C    1.012     5 C    0.998    12 H    0.962
                            11 H    0.961
    11   1 H    0.994 --    10 C    0.961
    12   1 H    0.993 --    10 C    0.962
    13   6 C    3.967 --    33 N    1.420     9 C    1.324    14 C    1.000
    14   6 C    3.952 --    36 O    1.639    34 N    1.273    13 C    1.000
    15   6 C    3.953 --    16 C    1.398    23 C    1.373    32 N    1.003
    16   6 C    3.987 --    18 C    1.439    15 C    1.398    17 H    0.966
                            21 C    0.106
    17   1 H    0.991 --    16 C    0.966
    18   6 C    3.991 --    16 C    1.439    20 C    1.378    19 H    0.969
                            23 C    0.101
    19   1 H    0.993 --    18 C    0.969
    20   6 C    3.933 --    18 C    1.378    21 C    1.345    37 O    1.071
    21   6 C    3.991 --    23 C    1.473    20 C    1.345    22 H    0.973
                            16 C    0.106
    22   1 H    0.994 --    21 C    0.973
    23   6 C    3.991 --    21 C    1.473    15 C    1.373    24 H    0.973
                            18 C    0.101
    24   1 H    0.994 --    23 C    0.973
    25   6 C    3.932 --    27 H    0.981    26 H    0.977    28 H    0.976
                            37 O    0.964
    26   1 H    0.995 --    25 C    0.977
    27   1 H    0.997 --    25 C    0.981
    28   1 H    0.994 --    25 C    0.976
    29   1 H    0.947 --    34 N    0.920
    30   1 H    0.957 --    34 N    0.943
    31   7 N    3.478 --     7 C    1.205     4 C    0.998     5 C    0.962
                            35 O    0.189
    32   7 N    3.691 --     8 C    1.226    33 N    1.215    15 C    1.003
    33   7 N    2.957 --    13 C    1.420    32 N    1.215     8 C    0.134
    34   7 N    3.384 --    14 C    1.273    30 H    0.943    29 H    0.920
                            36 O    0.197
    35   8 O    2.000 --     7 C    1.656    31 N    0.189
    36   8 O    1.956 --    14 C    1.639    34 N    0.197
    37   8 O    2.204 --    20 C    1.071    25 C    0.964
    38   6 C    3.966 --    41 C    1.007    40 H    0.971    39 H    0.970
                            58 N    0.958
    39   1 H    0.997 --    38 C    0.970
    40   1 H    0.995 --    38 C    0.971
    41   6 C    3.990 --    38 C    1.007    44 C    1.007    42 H    0.979
                            43 H    0.969
    42   1 H    0.996 --    41 C    0.979
    43   1 H    0.996 --    41 C    0.969
    44   6 C    3.994 --    41 C    1.007    47 C    1.001    46 H    0.981
                            45 H    0.976
    45   1 H    0.997 --    44 C    0.976
    46   1 H    0.998 --    44 C    0.981
    47   6 C    3.990 --    44 C    1.001    50 C    0.979    49 H    0.962
                            48 H    0.953
    48   1 H    0.994 --    47 C    0.953
    49   1 H    0.994 --    47 C    0.962
    50   6 C    3.950 --    59 O    1.618    58 N    1.263    47 C    0.979
    51   6 C    3.993 --    55 C    1.440    53 C    1.406    52 H    0.972
                             2 C    0.110
    52   1 H    0.995 --    51 C    0.972
    53   6 C    3.965 --    54 C    1.406    51 C    1.406    58 N    0.985
    54   6 C    3.994 --     2 C    1.439    53 C    1.406     1 H    0.973
                            55 C    0.110
    55   6 C    3.991 --    51 C    1.440     4 C    1.402    56 H    0.971
                            54 C    0.110
    56   1 H    0.993 --    55 C    0.971
    57   1 H    0.995 --     5 C    0.973
    58   7 N    3.498 --    50 C    1.263    53 C    0.985    38 C    0.958
                            59 O    0.190
    59   8 O    1.947 --    50 C    1.618    58 N    0.190
    60   6 C    3.967 --    63 C    1.007    62 H    0.972    61 H    0.971
                            80 N    0.957
    61   1 H    0.997 --    60 C    0.971
    62   1 H    0.996 --    60 C    0.972
    63   6 C    3.990 --    60 C    1.007    66 C    1.007    64 H    0.979
                            65 H    0.969
    64   1 H    0.997 --    63 C    0.979
    65   1 H    0.995 --    63 C    0.969
    66   6 C    3.994 --    63 C    1.007    69 C    1.001    68 H    0.981
                            67 H    0.977
    67   1 H    0.997 --    66 C    0.977
    68   1 H    0.998 --    66 C    0.981
    69   6 C    3.991 --    66 C    1.001    72 C    0.976    71 H    0.964
                            70 H    0.955
    70   1 H    0.994 --    69 C    0.955
    71   1 H    0.994 --    69 C    0.964
    72   6 C    3.950 --    81 O    1.653    80 N    1.241    69 C    0.976
    73   6 C    3.994 --    77 C    1.441    75 C    1.406    74 H    0.974
                            83 C    0.109
    74   1 H    0.995 --    73 C    0.974
    75   6 C    3.970 --    73 C    1.406    76 C    1.404    80 N    0.993
    76   6 C    3.993 --    83 C    1.440    75 C    1.404    82 H    0.973
                            77 C    0.111
    77   6 C    3.991 --    73 C    1.441    85 C    1.402    78 H    0.971
                            76 C    0.111
    78   1 H    0.993 --    77 C    0.971
    79   1 H    0.994 --    86 C    0.973
    80   7 N    3.484 --    72 C    1.241    75 C    0.993    60 C    0.957
                            81 O    0.189
    81   8 O    1.962 --    72 C    1.653    80 N    0.189
    82   1 H    0.994 --    76 C    0.973
    83   6 C    3.992 --    76 C    1.440    85 C    1.404    84 H    0.973
                            73 C    0.109
    84   1 H    0.995 --    83 C    0.973
    85   6 C    3.963 --    83 C    1.404    77 C    1.402   112 N    0.992
    86   6 C    3.968 --    91 C    0.998    87 H    0.974    79 H    0.973
                           112 N    0.962
    87   1 H    0.996 --    86 C    0.974
    88   6 C    3.958 --   116 O    1.648   112 N    1.211    89 C    1.008
    89   6 C    3.953 --    90 C    1.429   113 N    1.224    88 C    1.008
                           114 N    0.133
    90   6 C    3.981 --    89 C    1.429    94 C    1.323    91 C    1.012
    91   6 C    3.990 --    90 C    1.012    86 C    0.998    93 H    0.963
                            92 H    0.960
    92   1 H    0.994 --    91 C    0.960
    93   1 H    0.992 --    91 C    0.963
    94   6 C    3.967 --   114 N    1.419    90 C    1.323    95 C    1.003
    95   6 C    3.951 --   117 O    1.654   115 N    1.252    94 C    1.003
    96   6 C    3.954 --    97 C    1.401   104 C    1.370   113 N    1.004
    97   6 C    3.991 --    99 C    1.435    96 C    1.401    98 H    0.973
                           102 C    0.108
    98   1 H    0.995 --    97 C    0.973
    99   6 C    3.990 --    97 C    1.435   101 C    1.378   100 H    0.971
   100   1 H    0.995 --    99 C    0.971
   101   6 C    3.933 --    99 C    1.378   102 C    1.341   118 O    1.075
   102   6 C    3.991 --   104 C    1.478   101 C    1.341   103 H    0.971
                            97 C    0.108
   103   1 H    0.992 --   102 C    0.971
   104   6 C    3.990 --   102 C    1.478    96 C    1.370   105 H    0.972
   105   1 H    0.993 --   104 C    0.972
   106   6 C    3.936 --   108 H    0.981   109 H    0.981   107 H    0.979
                           118 O    0.967
   107   1 H    0.994 --   106 C    0.979
   108   1 H    0.996 --   106 C    0.981
   109   1 H    0.997 --   106 C    0.981
   110   1 H    0.957 --   115 N    0.942
   111   1 H    0.955 --   115 N    0.941
   112   7 N    3.480 --    88 C    1.211    85 C    0.992    86 C    0.962
                           116 O    0.192
   113   7 N    3.694 --    89 C    1.224   114 N    1.222    96 C    1.004
   114   7 N    2.963 --    94 C    1.419   113 N    1.222    89 C    0.133
   115   7 N    3.368 --    95 C    1.252   110 H    0.942   111 H    0.941
                           117 O    0.191
   116   8 O    1.997 --    88 C    1.648   112 N    0.192
   117   8 O    1.967 --    95 C    1.654   115 N    0.191
   118   8 O    2.213 --   101 C    1.075   106 C    0.967
   119   6 C    3.970 --   122 C    1.007   121 H    0.973   120 H    0.972
                           139 N    0.961
   120   1 H    0.996 --   119 C    0.972
   121   1 H    0.996 --   119 C    0.973
   122   6 C    3.992 --   119 C    1.007   125 C    1.006   123 H    0.978
                           124 H    0.971
   123   1 H    0.997 --   122 C    0.978
   124   1 H    0.996 --   122 C    0.971
   125   6 C    3.994 --   122 C    1.006   128 C    1.002   127 H    0.981
                           126 H    0.976
   126   1 H    0.998 --   125 C    0.976
   127   1 H    0.997 --   125 C    0.981
   128   6 C    3.991 --   125 C    1.002   131 C    0.976   130 H    0.963
                           129 H    0.955
   129   1 H    0.995 --   128 C    0.955
   130   1 H    0.995 --   128 C    0.963
   131   6 C    3.951 --   140 O    1.639   139 N    1.254   128 C    0.976
   132   6 C    3.994 --   136 C    1.441   134 C    1.405   133 H    0.975
                           142 C    0.110
   133   1 H    0.995 --   132 C    0.975
   134   6 C    3.965 --   135 C    1.407   132 C    1.405   139 N    0.986
   135   6 C    3.994 --   142 C    1.440   134 C    1.407   141 H    0.973
                           136 C    0.109
   136   6 C    3.993 --   132 C    1.441   144 C    1.402   137 H    0.974
                           135 C    0.109
   137   1 H    0.995 --   136 C    0.974
   138   1 H    0.995 --   145 C    0.975
   139   7 N    3.492 --   131 C    1.254   134 C    0.986   119 C    0.961
                           140 O    0.191
   140   8 O    1.955 --   131 C    1.639   139 N    0.191
   141   1 H    0.995 --   135 C    0.973
   142   6 C    3.988 --   135 C    1.440   144 C    1.403   143 H    0.966
                           132 C    0.110
   143   1 H    0.991 --   142 C    0.966
   144   6 C    3.967 --   142 C    1.403   136 C    1.402   171 N    0.999
   145   6 C    3.970 --   150 C    0.998   138 H    0.975   146 H    0.974
                           171 N    0.962
   146   1 H    0.997 --   145 C    0.974
   147   6 C    3.957 --   175 O    1.666   171 N    1.196   148 C    1.008
   148   6 C    3.955 --   149 C    1.430   172 N    1.226   147 C    1.008
                           173 N    0.132
   149   6 C    3.980 --   148 C    1.430   153 C    1.323   150 C    1.011
   150   6 C    3.990 --   149 C    1.011   145 C    0.998   152 H    0.964
                           151 H    0.961
   151   1 H    0.994 --   150 C    0.961
   152   1 H    0.993 --   150 C    0.964
   153   6 C    3.967 --   173 N    1.419   149 C    1.323   154 C    1.003
   154   6 C    3.950 --   176 O    1.657   174 N    1.248   153 C    1.003
   155   6 C    3.953 --   156 C    1.399   163 C    1.372   172 N    1.002
   156   6 C    3.988 --   158 C    1.437   155 C    1.399   157 H    0.967
                           161 C    0.107
   157   1 H    0.992 --   156 C    0.967
   158   6 C    3.988 --   156 C    1.437   160 C    1.380   159 H    0.964
                           163 C    0.101
   159   1 H    0.991 --   158 C    0.964
   160   6 C    3.932 --   158 C    1.380   161 C    1.345   177 O    1.068
   161   6 C    3.991 --   163 C    1.474   160 C    1.345   162 H    0.973
                           156 C    0.107
   162   1 H    0.994 --   161 C    0.973
   163   6 C    3.991 --   161 C    1.474   155 C    1.372   164 H    0.973
                           158 C    0.101
   164   1 H    0.994 --   163 C    0.973
   165   6 C    3.935 --   166 H    0.980   167 H    0.980   168 H    0.980
                           177 O    0.966
   166   1 H    0.995 --   165 C    0.980
   167   1 H    0.996 --   165 C    0.980
   168   1 H    0.996 --   165 C    0.980
   169   1 H    0.958 --   174 N    0.942
   170   1 H    0.956 --   174 N    0.942
   171   7 N    3.468 --   147 C    1.196   144 C    0.999   145 C    0.962
                           175 O    0.187
   172   7 N    3.695 --   148 C    1.226   173 N    1.221   155 C    1.002
   173   7 N    2.962 --   153 C    1.419   172 N    1.221   148 C    0.132
   174   7 N    3.365 --   154 C    1.248   170 H    0.942   169 H    0.942
                           176 O    0.190
   175   8 O    2.009 --   147 C    1.666   171 N    0.187
   176   8 O    1.969 --   154 C    1.657   174 N    0.190
   177   8 O    2.202 --   160 C    1.068   165 C    0.966
   178   6 C    3.990 --   223 C    1.002   226 C    0.978   180 H    0.963
                           179 H    0.953
   179   1 H    0.993 --   178 C    0.953
   180   1 H    0.994 --   178 C    0.963
   181   8 O    1.962 --   226 C    1.638   236 N    0.189
   182   6 C    3.933 --   206 C    1.377   183 C    1.344   189 O    1.074
   183   6 C    3.991 --   207 C    1.475   182 C    1.344   184 H    0.973
                           204 C    0.106
   184   1 H    0.994 --   183 C    0.973
   185   6 C    3.933 --   187 H    0.981   186 H    0.980   188 H    0.977
                           189 O    0.965
   186   1 H    0.995 --   185 C    0.980
   187   1 H    0.997 --   185 C    0.981
   188   1 H    0.995 --   185 C    0.977
   189   8 O    2.209 --   182 C    1.074   185 C    0.965
   190   6 C    3.967 --   232 C    1.402   234 C    1.401   211 N    1.001
   191   1 H    0.995 --   234 C    0.973
   192   6 C    3.965 --   198 C    0.998   193 H    0.973   194 H    0.972
                           211 N    0.959
   193   1 H    0.996 --   192 C    0.973
   194   1 H    0.995 --   192 C    0.972
   195   6 C    3.957 --   215 O    1.657   211 N    1.197   196 C    1.013
   196   6 C    3.952 --   197 C    1.428   212 N    1.219   195 C    1.013
                           213 N    0.134
   197   6 C    3.980 --   196 C    1.428   201 C    1.325   198 C    1.012
   198   6 C    3.989 --   197 C    1.012   192 C    0.998   199 H    0.961
                           200 H    0.961
   199   1 H    0.994 --   198 C    0.961
   200   1 H    0.992 --   198 C    0.961
   201   6 C    3.968 --   213 N    1.428   197 C    1.325   202 C    0.996
   202   6 C    3.954 --   216 O    1.645   214 N    1.275   201 C    0.996
   203   6 C    3.955 --   204 C    1.399   207 C    1.371   212 N    1.005
   204   6 C    3.992 --   206 C    1.438   203 C    1.399   205 H    0.973
                           183 C    0.106
   205   1 H    0.995 --   204 C    0.973
   206   6 C    3.991 --   204 C    1.438   182 C    1.377   235 H    0.969
                           207 C    0.100
   207   6 C    3.991 --   183 C    1.475   203 C    1.371   208 H    0.972
                           206 C    0.100
   208   1 H    0.994 --   207 C    0.972
   209   1 H    0.947 --   214 N    0.920
   210   1 H    0.958 --   214 N    0.944
   211   7 N    3.468 --   195 C    1.197   190 C    1.001   192 C    0.959
                           215 O    0.186
   212   7 N    3.689 --   196 C    1.219   213 N    1.216   203 C    1.005
   213   7 N    2.963 --   201 C    1.428   212 N    1.216   196 C    0.134
   214   7 N    3.388 --   202 C    1.275   210 H    0.944   209 H    0.920
                           216 O    0.199
   215   8 O    2.001 --   195 C    1.657   211 N    0.186
   216   8 O    1.964 --   202 C    1.645   214 N    0.199
   217   6 C    3.969 --   220 C    1.007   219 H    0.973   218 H    0.971
                           236 N    0.959
   218   1 H    0.996 --   217 C    0.971
   219   1 H    0.996 --   217 C    0.973
   220   6 C    3.991 --   217 C    1.007   223 C    1.006   221 H    0.979
                           222 H    0.970
   221   1 H    0.997 --   220 C    0.979
   222   1 H    0.996 --   220 C    0.970
   223   6 C    3.994 --   220 C    1.006   178 C    1.002   225 H    0.980
                           224 H    0.976
   224   1 H    0.997 --   223 C    0.976
   225   1 H    0.997 --   223 C    0.980
   226   6 C    3.950 --   181 O    1.638   236 N    1.247   178 C    0.978
   227   6 C    3.993 --   234 C    1.441   229 C    1.405   228 H    0.972
                           232 C    0.109
   228   1 H    0.994 --   227 C    0.972
   229   6 C    3.967 --   230 C    1.405   227 C    1.405   236 N    0.988
   230   6 C    3.993 --   232 C    1.441   229 C    1.405   231 H    0.973
                           234 C    0.110
   231   1 H    0.994 --   230 C    0.973
   232   6 C    3.992 --   230 C    1.441   190 C    1.402   233 H    0.972
                           227 C    0.109
   233   1 H    0.994 --   232 C    0.972
   234   6 C    3.993 --   227 C    1.441   190 C    1.401   191 H    0.973
                           230 C    0.110
   235   1 H    0.994 --   206 C    0.969
   236   7 N    3.487 --   226 C    1.247   229 C    0.988   217 C    0.959
                           181 O    0.189
   237   6 C    3.990 --   282 C    1.002   285 C    0.979   239 H    0.962
                           238 H    0.953
   238   1 H    0.994 --   237 C    0.953
   239   1 H    0.993 --   237 C    0.962
   240   8 O    1.965 --   285 C    1.644   295 N    0.187
   241   6 C    3.933 --   265 C    1.377   242 C    1.345   248 O    1.072
   242   6 C    3.991 --   266 C    1.474   241 C    1.345   243 H    0.972
                           263 C    0.106
   243   1 H    0.994 --   242 C    0.972
   244   6 C    3.932 --   246 H    0.982   245 H    0.977   247 H    0.976
                           248 O    0.964
   245   1 H    0.995 --   244 C    0.977
   246   1 H    0.997 --   244 C    0.982
   247   1 H    0.994 --   244 C    0.976
   248   8 O    2.205 --   241 C    1.072   244 C    0.964
   249   6 C    3.967 --   291 C    1.403   293 C    1.401   270 N    1.000
   250   1 H    0.995 --   293 C    0.974
   251   6 C    3.965 --   257 C    0.998   252 H    0.973   253 H    0.973
                           270 N    0.960
   252   1 H    0.996 --   251 C    0.973
   253   1 H    0.995 --   251 C    0.973
   254   6 C    3.957 --   274 O    1.655   270 N    1.199   255 C    1.012
   255   6 C    3.953 --   256 C    1.429   271 N    1.219   254 C    1.012
                           272 N    0.135
   256   6 C    3.980 --   255 C    1.429   260 C    1.324   257 C    1.012
   257   6 C    3.989 --   256 C    1.012   251 C    0.998   258 H    0.961
                           259 H    0.961
   258   1 H    0.994 --   257 C    0.961
   259   1 H    0.992 --   257 C    0.961
   260   6 C    3.968 --   272 N    1.429   256 C    1.324   261 C    0.997
   261   6 C    3.953 --   275 O    1.636   273 N    1.280   260 C    0.997
   262   6 C    3.956 --   263 C    1.399   266 C    1.372   271 N    1.005
   263   6 C    3.991 --   265 C    1.438   262 C    1.399   264 H    0.973
                           242 C    0.106
   264   1 H    0.995 --   263 C    0.973
   265   6 C    3.991 --   263 C    1.438   241 C    1.377   294 H    0.969
                           266 C    0.101
   266   6 C    3.991 --   242 C    1.474   262 C    1.372   267 H    0.972
                           265 C    0.101
   267   1 H    0.994 --   266 C    0.972
   268   1 H    0.947 --   273 N    0.919
   269   1 H    0.956 --   273 N    0.942
   270   7 N    3.471 --   254 C    1.199   249 C    1.000   251 C    0.960
                           274 O    0.187
   271   7 N    3.688 --   255 C    1.219   272 N    1.216   262 C    1.005
   272   7 N    2.963 --   260 C    1.429   271 N    1.216   255 C    0.135
   273   7 N    3.392 --   261 C    1.280   269 H    0.942   268 H    0.919
                           275 O    0.198
   274   8 O    1.999 --   254 C    1.655   270 N    0.187
   275   8 O    1.956 --   261 C    1.636   273 N    0.198
   276   6 C    3.970 --   279 C    1.007   278 H    0.974   277 H    0.972
                           295 N    0.959
   277   1 H    0.997 --   276 C    0.972
   278   1 H    0.996 --   276 C    0.974
   279   6 C    3.992 --   276 C    1.007   282 C    1.006   280 H    0.979
                           281 H    0.971
   280   1 H    0.997 --   279 C    0.979
   281   1 H    0.996 --   279 C    0.971
   282   6 C    3.994 --   279 C    1.006   237 C    1.002   284 H    0.981
                           283 H    0.976
   283   1 H    0.997 --   282 C    0.976
   284   1 H    0.997 --   282 C    0.981
   285   6 C    3.949 --   240 O    1.644   295 N    1.244   237 C    0.979
   286   6 C    3.994 --   293 C    1.442   288 C    1.405   287 H    0.974
                           291 C    0.109
   287   1 H    0.995 --   286 C    0.974
   288   6 C    3.968 --   289 C    1.405   286 C    1.405   295 N    0.991
   289   6 C    3.993 --   291 C    1.441   288 C    1.405   290 H    0.973
                           293 C    0.110
   290   1 H    0.994 --   289 C    0.973
   291   6 C    3.992 --   289 C    1.441   249 C    1.403   292 H    0.972
                           286 C    0.109
   292   1 H    0.994 --   291 C    0.972
   293   6 C    3.993 --   286 C    1.442   249 C    1.401   250 H    0.974
                           289 C    0.110
   294   1 H    0.993 --   265 C    0.969
   295   7 N    3.484 --   285 C    1.244   288 C    0.991   276 C    0.959
                           240 O    0.187
   296   1 H    0.994 --   349 C    0.973
   297   6 C    3.992 --   349 C    1.440   299 C    1.403   298 H    0.973
                           346 C    0.109
   298   1 H    0.994 --   297 C    0.973
   299   6 C    3.966 --   297 C    1.403   350 C    1.401   326 N    0.999
   300   6 C    3.965 --   305 C    0.998   301 H    0.973   352 H    0.972
                           326 N    0.960
   301   1 H    0.996 --   300 C    0.973
   302   6 C    3.957 --   330 O    1.655   326 N    1.201   303 C    1.011
   303   6 C    3.952 --   304 C    1.430   327 N    1.219   302 C    1.011
                           328 N    0.134
   304   6 C    3.981 --   303 C    1.430   308 C    1.322   305 C    1.012
   305   6 C    3.989 --   304 C    1.012   300 C    0.998   307 H    0.961
                           306 H    0.960
   306   1 H    0.994 --   305 C    0.960
   307   1 H    0.992 --   305 C    0.961
   308   6 C    3.968 --   328 N    1.425   304 C    1.322   309 C    1.001
   309   6 C    3.951 --   331 O    1.652   329 N    1.257   308 C    1.001
   310   6 C    3.956 --   311 C    1.402   318 C    1.371   327 N    1.005
   311   6 C    3.991 --   313 C    1.435   310 C    1.402   312 H    0.973
                           316 C    0.108
   312   1 H    0.995 --   311 C    0.973
   313   6 C    3.991 --   311 C    1.435   315 C    1.380   314 H    0.971
   314   1 H    0.995 --   313 C    0.971
   315   6 C    3.933 --   313 C    1.380   316 C    1.344   332 O    1.071
   316   6 C    3.991 --   318 C    1.476   315 C    1.344   317 H    0.972
                           311 C    0.108
   317   1 H    0.993 --   316 C    0.972
   318   6 C    3.990 --   316 C    1.476   310 C    1.371   319 H    0.972
   319   1 H    0.993 --   318 C    0.972
   320   6 C    3.936 --   322 H    0.981   323 H    0.981   321 H    0.979
                           332 O    0.967
   321   1 H    0.994 --   320 C    0.979
   322   1 H    0.996 --   320 C    0.981
   323   1 H    0.997 --   320 C    0.981
   324   1 H    0.957 --   329 N    0.941
   325   1 H    0.955 --   329 N    0.941
   326   7 N    3.472 --   302 C    1.201   299 C    0.999   300 C    0.960
                           330 O    0.188
   327   7 N    3.692 --   328 N    1.220   303 C    1.219   310 C    1.005
   328   7 N    2.966 --   308 C    1.425   327 N    1.220   303 C    0.134
   329   7 N    3.372 --   309 C    1.257   325 H    0.941   324 H    0.941
                           331 O    0.191
   330   8 O    2.001 --   302 C    1.655   326 N    0.188
   331   8 O    1.964 --   309 C    1.652   329 N    0.191
   332   8 O    2.207 --   315 C    1.071   320 C    0.967
   333   6 C    3.969 --   336 C    1.007   335 H    0.973   334 H    0.971
                           353 N    0.959
   334   1 H    0.996 --   333 C    0.971
   335   1 H    0.996 --   333 C    0.973
   336   6 C    3.991 --   333 C    1.007   339 C    1.006   337 H    0.979
                           338 H    0.970
   337   1 H    0.997 --   336 C    0.979
   338   1 H    0.996 --   336 C    0.970
   339   6 C    3.993 --   336 C    1.006   342 C    1.002   341 H    0.980
                           340 H    0.976
   340   1 H    0.997 --   339 C    0.976
   341   1 H    0.997 --   339 C    0.980
   342   6 C    3.990 --   339 C    1.002   345 C    0.978   344 H    0.963
                           343 H    0.953
   343   1 H    0.993 --   342 C    0.953
   344   1 H    0.994 --   342 C    0.963
   345   6 C    3.950 --   354 O    1.640   353 N    1.246   342 C    0.978
   346   6 C    3.993 --   350 C    1.441   348 C    1.405   347 H    0.972
                           297 C    0.109
   347   1 H    0.994 --   346 C    0.972
   348   6 C    3.967 --   346 C    1.405   349 C    1.405   353 N    0.989
   349   6 C    3.993 --   297 C    1.440   348 C    1.405   296 H    0.973
                           350 C    0.110
   350   6 C    3.992 --   346 C    1.441   299 C    1.401   351 H    0.973
                           349 C    0.110
   351   1 H    0.994 --   350 C    0.973
   352   1 H    0.994 --   300 C    0.972
   353   7 N    3.486 --   345 C    1.246   348 C    0.989   333 C    0.959
                           354 O    0.189
   354   8 O    1.963 --   345 C    1.640   353 N    0.189
   355   1 H    0.994 --   408 C    0.973
   356   6 C    3.992 --   408 C    1.441   358 C    1.403   357 H    0.973
                           405 C    0.109
   357   1 H    0.994 --   356 C    0.973
   358   6 C    3.966 --   356 C    1.403   409 C    1.401   385 N    0.998
   359   6 C    3.968 --   364 C    0.998   360 H    0.975   411 H    0.974
                           385 N    0.961
   360   1 H    0.997 --   359 C    0.975
   361   6 C    3.957 --   389 O    1.657   385 N    1.199   362 C    1.011
   362   6 C    3.952 --   363 C    1.429   386 N    1.221   361 C    1.011
                           387 N    0.134
   363   6 C    3.980 --   362 C    1.429   367 C    1.325   364 C    1.012
   364   6 C    3.989 --   363 C    1.012   359 C    0.998   366 H    0.963
                           365 H    0.961
   365   1 H    0.994 --   364 C    0.961
   366   1 H    0.992 --   364 C    0.963
   367   6 C    3.967 --   387 N    1.427   363 C    1.325   368 C    0.996
   368   6 C    3.954 --   390 O    1.652   388 N    1.269   367 C    0.996
   369   6 C    3.955 --   370 C    1.400   377 C    1.370   386 N    1.005
   370   6 C    3.992 --   372 C    1.437   369 C    1.400   371 H    0.974
                           375 C    0.107
   371   1 H    0.995 --   370 C    0.974
   372   6 C    3.991 --   370 C    1.437   374 C    1.377   373 H    0.970
   373   1 H    0.994 --   372 C    0.970
   374   6 C    3.933 --   372 C    1.377   375 C    1.342   391 O    1.075
   375   6 C    3.991 --   377 C    1.477   374 C    1.342   376 H    0.972
                           370 C    0.107
   376   1 H    0.993 --   375 C    0.972
   377   6 C    3.991 --   375 C    1.477   369 C    1.370   378 H    0.972
   378   1 H    0.994 --   377 C    0.972
   379   6 C    3.933 --   381 H    0.982   380 H    0.977   382 H    0.976
                           391 O    0.965
   380   1 H    0.995 --   379 C    0.977
   381   1 H    0.997 --   379 C    0.982
   382   1 H    0.994 --   379 C    0.976
   383   1 H    0.947 --   388 N    0.920
   384   1 H    0.958 --   388 N    0.944
   385   7 N    3.470 --   361 C    1.199   358 C    0.998   359 C    0.961
                           389 O    0.188
   386   7 N    3.690 --   362 C    1.221   387 N    1.216   369 C    1.005
   387   7 N    2.961 --   367 C    1.427   386 N    1.216   362 C    0.134
   388   7 N    3.383 --   368 C    1.269   384 H    0.944   383 H    0.920
                           390 O    0.200
   389   8 O    2.002 --   361 C    1.657   385 N    0.188
   390   8 O    1.969 --   368 C    1.652   388 N    0.200
   391   8 O    2.211 --   374 C    1.075   379 C    0.965
   392   6 C    3.971 --   395 C    1.007   394 H    0.974   393 H    0.973
                           412 N    0.961
   393   1 H    0.997 --   392 C    0.973
   394   1 H    0.996 --   392 C    0.974
   395   6 C    3.992 --   392 C    1.007   398 C    1.006   396 H    0.979
                           397 H    0.971
   396   1 H    0.997 --   395 C    0.979
   397   1 H    0.996 --   395 C    0.971
   398   6 C    3.994 --   395 C    1.006   401 C    1.002   400 H    0.981
                           399 H    0.977
   399   1 H    0.997 --   398 C    0.977
   400   1 H    0.997 --   398 C    0.981
   401   6 C    3.990 --   398 C    1.002   404 C    0.976   403 H    0.964
                           402 H    0.955
   402   1 H    0.994 --   401 C    0.955
   403   1 H    0.994 --   401 C    0.964
   404   6 C    3.951 --   413 O    1.659   412 N    1.238   401 C    0.976
   405   6 C    3.994 --   409 C    1.442   407 C    1.406   406 H    0.974
                           356 C    0.109
   406   1 H    0.995 --   405 C    0.974
   407   6 C    3.968 --   405 C    1.406   408 C    1.405   412 N    0.990
   408   6 C    3.993 --   356 C    1.441   407 C    1.405   355 H    0.973
                           409 C    0.110
   409   6 C    3.993 --   405 C    1.442   358 C    1.401   410 H    0.974
                           408 C    0.110
   410   1 H    0.995 --   409 C    0.974
   411   1 H    0.995 --   359 C    0.974
   412   7 N    3.480 --   404 C    1.238   407 C    0.990   392 C    0.961
                           413 O    0.190
   413   8 O    1.969 --   404 C    1.659   412 N    0.190
 ---------------------------------------------------------------------------

Topologies differ in total number of bonds
Writing topology from bond orders to xtbtopo.mol

molecular dipole:
                 x           y           z       tot (Debye)
 q only:       -0.510      -1.664       1.766
   full:       -0.685      -0.849       1.961       5.704
molecular quadrupole (traceless):
                xx          xy          yy          xz          yz          zz
 q only:     -294.366    -214.115    -294.378      70.107     -49.848     588.744
  q+dip:     -386.025    -203.662    -201.980      52.150      69.513     588.006
   full:     -375.330    -203.166    -215.722      69.702      71.484     591.052


           -------------------------------------------------
          | TOTAL ENERGY             -677.989763169625 Eh   |
          | GRADIENT NORM               2.467866781800 Eh/α |
          | HOMO-LUMO GAP               2.560069588332 eV   |
           -------------------------------------------------

------------------------------------------------------------------------
 * finished run on 2026/10/03 at 17:04:02.911     
------------------------------------------------------------------------
 total:
 * wall-time:     0 d,  0 h,  0 min,  8.723 sec
 *  cpu-time:     0 d,  0 h,  0 min,  8.672 sec
 * ratio c/w:     0.994 speedup
 SCF:
 * wall-time:     0 d,  0 h,  0 min,  8.197 sec
 *  cpu-time:     0 d,  0 h,  0 min,  8.188 sec
 * ratio c/w:     0.999 speedup

normal termination of xtb
