      -----------------------------------------------------------      
     |                   =====================                   |     
     |                           x T B                           |     
     |                   =====================                   |     
     |                         S. Grimme                         |     
     |          Mulliken Center for Theoretical Chemistry        |     
     |                    University of Bonn                     |     
      -----------------------------------------------------------      

   * xtb version 6.7.1pre (5071a88) compiled by 'Marcel@Raven' on 2024-07-23

   xtb is free software: you can redistribute it and/or modify it under
   the terms of the GNU Lesser General Public License as published by
   the Free Software Foundation, either version 3 of the License, or
   (at your option) any later version.
   
   xtb is distributed in the hope that it will be useful,
   but WITHOUT ANY WARRANTY; without even the implied warranty of
   MERCHANTABILITY or FITNESS FOR A PARTICULAR PURPOSE.  See the
   GNU Lesser General Public License for more details.
   
   Cite this work as:
   * C. Bannwarth, E. Caldeweyher, S. Ehlert, A. Hansen, P. Pracht,
     J. Seibert, S. Spicher, S. Grimme, WIREs Comput. Mol. Sci., 2020, 11,
     e01493. DOI: 10.1002/wcms.1493
   
   for GFN2-xTB:
   * C. Bannwarth, S. Ehlert and S. Grimme., J. Chem. Theory Comput., 2019,
     15, 1652-1671. DOI: 10.1021/acs.jctc.8b01176
   for GFN1-xTB:
   * S. Grimme, C. Bannwarth, P. Shushkov, J. Chem. Theory Comput., 2017,
     13, 1989-2009. DOI: 10.1021/acs.jctc.7b00118
   for GFN0-xTB:
   * P. Pracht, E. Caldeweyher, S. Ehlert, S. Grimme, ChemRxiv, 2019, preprint.
     DOI: 10.26434/chemrxiv.8326202.v1
   for GFN-FF:
   * S. Spicher and S. Grimme, Angew. Chem. Int. Ed., 2020, 59, 15665-15673.
     DOI: 10.1002/anie.202004239
   
   for ALPB and GBSA implicit solvation:
   * S. Ehlert, M. Stahn, S. Spicher, S. Grimme, J. Chem. Theory Comput.,
     2021, 17, 4250-4261. DOI: 10.1021/acs.jctc.1c00471
   
   for ddCOSMO and CPCM-X implicit solvation:
   * M. Stahn, S. Ehlert, S. Grimme, J. Phys. Chem. A,
     2023, XX, XXXX-XXXX. DOI: 10.1021/acs.jpca.3c04382
   
   for DFT-D4:
   * E. Caldeweyher, C. Bannwarth and S. Grimme, J. Chem. Phys., 2017,
     147, 034112. DOI: 10.1063/1.4993215
   * E. Caldeweyher, S. Ehlert, A. Hansen, H. Neugebauer, S. Spicher,
     C. Bannwarth and S. Grimme, J. Chem. Phys., 2019, 150, 154122.
     DOI: 10.1063/1.5090222
   * E. Caldeweyher, J.-M. Mewes, S. Ehlert and S. Grimme, Phys. Chem. Chem. Phys.
     2020, 22, 8499-8512. DOI: 10.1039/D0CP00502A
   
   for sTDA-xTB:
   * S. Grimme and C. Bannwarth, J. Chem. Phys., 2016, 145, 054103.
     DOI: 10.1063/1.4959605
   
   in the mass-spec context:
   * V. Asgeirsson, C. Bauer and S. Grimme, Chem. Sci., 2017, 8, 4879.
     DOI: 10.1039/c7sc00601b
   * J. Koopman and S. Grimme, ACS Omega 2019, 4, 12, 15120-15133.
     DOI: 10.1021/acsomega.9b02011
   
   for metadynamics refer to:
   * S. Grimme, J. Chem. Theory Comput., 2019, 155, 2847-2862
     DOI: 10.1021/acs.jctc.9b00143
   
   for SPH calculations refer to:
   * S. Spicher and S. Grimme, J. Chem. Theory Comput., 2021, 17, 1701-1714
     DOI: 10.1021/acs.jctc.0c01306
   
   for ONIOM refer to:
   * C. Plett, A. Katbashev, S. Ehlert, S. Grimme, M. Bursch,
     Phys. Chem. Chem. Phys., 2023, 25, 17860-17868. DOI: 10.1039/D3CP02178E
   
   for DIPRO refer to:
   * J. Kohn, N. Gildemeister, S. Grimme, D. Fazzi, A. Hansen,
     J. Chem. Phys., 2023, just accepted.
   
   for PTB refer to:
   * S. Grimme, M. Mueller, A. Hansen, J. Chem. Phys., 2023, 158, 124111.
     DOI: 10.1063/5.0137838
   
   with help from (in alphabetical order)
   P. Atkinson, C. Bannwarth, F. Bohle, G. Brandenburg, E. Caldeweyher
   M. Checinski, S. Dohm, S. Ehlert, S. Ehrlich, I. Gerasimov, C. Hﾃｶlzer
   A. Katbashev, J. Kohn, J. Koopman, C. Lavigne, S. Lehtola, F. Mﾃ､rz, M. Mﾃｼller,
   F. Musil, H. Neugebauer, J. Pisarek, C. Plett, P. Pracht, F. Pultar,
   J. Seibert, P. Shushkov, S. Spicher, M. Stahn, M. Steiner, T. Strunk,
   J. Stﾃｼckrath, T. Rose, and J. Unsleber
   
 * started run on 2026/10/03 at 17:28:13.977     
   ID    Z sym.   atoms
    1    1 H      1, 3, 6, 11, 12, 17, 19, 22, 24, 26-30, 39, 40, 42, 43, 45,
                  46, 48, 49, 52, 56, 57, 61, 62, 64, 65, 67, 68, 70, 71, 74,
                  78, 79, 82, 84, 87, 92, 93, 98, 100, 103, 105, 107-111,
                  120, 121, 123, 124, 126, 127, 129, 130, 133, 137, 138, 141,
                  143, 146, 151, 152, 157, 159, 162, 164, 166-170, 179, 180,
                  184, 186-188, 191, 193, 194, 199, 200, 205, 208-210, 218,
                  219, 221, 222, 224, 225, 228, 231, 233, 235, 238, 239, 243,
                  245-247, 250, 252, 253, 258, 259, 264, 267-269, 277, 278,
                  280, 281, 283, 284, 287, 290, 292, 294, 297, 298, 300, 301,
                  303, 304, 307, 310, 312, 314, 317, 319, 320, 325, 326, 331,
                  334-336, 344-346, 350, 352, 353, 356, 357, 359, 360, 362,
                  363, 366, 369, 371, 373, 376, 378, 379, 384, 385, 390,
                  393-395, 403-405, 409, 411, 412, 415, 416, 420, 422-424,
                  427, 429, 430, 435, 436, 441, 444-446, 454, 455, 457, 458,
                  460, 461, 464, 467, 469, 471, 474, 475, 479, 481-483, 486,
                  488, 489, 494, 495, 500, 503-505, 513, 514, 516, 517, 519,
                  520, 523, 526, 528, 530, 533, 534, 536, 537, 539, 540, 542,
                  543, 546, 550, 551, 554, 556, 559, 564, 565, 570, 572, 575,
                  577, 579-583, 591, 593, 596, 601, 602, 607, 609, 612, 614,
                  616-620, 629, 630, 632, 633, 635, 636, 638, 639, 642, 646,
                  647, 650, 652, 655, 660, 661, 666, 668, 671, 673, 675-679,
                  688, 689, 691, 692, 694, 695, 697, 698, 701, 705, 706, 710,
                  711, 713, 714, 716, 717, 720, 723, 725, 727, 730, 732, 733,
                  738, 739, 744, 747-749, 757-759, 763, 765, 766, 769, 770,
                  772, 773, 775, 776, 779, 782, 784, 786, 789, 791, 792, 797,
                  798, 803, 806-808, 816-818, 822, 824, 825
    2    6 C      2, 4, 5, 7-10, 13-16, 18, 20, 21, 23, 25, 38, 41, 44, 47,
                  50, 51, 53-55, 60, 63, 66, 69, 72, 73, 75-77, 83, 85, 86,
                  88-91, 94-97, 99, 101, 102, 104, 106, 119, 122, 125, 128,
                  131, 132, 134-136, 142, 144, 145, 147-150, 153-156, 158,
                  160, 161, 163, 165, 178, 182, 183, 185, 190, 192, 195-198,
                  201-204, 206, 207, 217, 220, 223, 226, 227, 229, 230, 232,
                  234, 237, 241, 242, 244, 249, 251, 254-257, 260-263, 265,
                  266, 276, 279, 282, 285, 286, 288, 289, 291, 293, 296, 299,
                  302, 305, 306, 308, 309, 311, 313, 316, 318, 321-324,
                  327-330, 332, 333, 343, 348, 349, 351, 355, 358, 361, 364,
                  365, 367, 368, 370, 372, 375, 377, 380-383, 386-389, 391,
                  392, 402, 407, 408, 410, 414, 418, 419, 421, 426, 428,
                  431-434, 437-440, 442, 443, 453, 456, 459, 462, 463, 465,
                  466, 468, 470, 473, 477, 478, 480, 485, 487, 490-493,
                  496-499, 501, 502, 512, 515, 518, 521, 522, 524, 525, 527,
                  529, 532, 535, 538, 541, 544, 545, 547-549, 555, 557, 558,
                  560-563, 566-569, 571, 573, 574, 576, 578, 592, 594, 595,
                  597-600, 603-606, 608, 610, 611, 613, 615, 628, 631, 634,
                  637, 640, 641, 643-645, 651, 653, 654, 656-659, 662-665,
                  667, 669, 670, 672, 674, 687, 690, 693, 696, 699, 700,
                  702-704, 709, 712, 715, 718, 719, 721, 722, 724, 726, 729,
                  731, 734-737, 740-743, 745, 746, 756, 761, 762, 764, 768,
                  771, 774, 777, 778, 780, 781, 783, 785, 788, 790, 793-796,
                  799-802, 804, 805, 815, 820, 821, 823
    3    7 N      31-34, 58, 80, 112-115, 139, 171-174, 211-214, 236,
                  270-273, 295, 315, 337-340, 374, 396-399, 447-450, 472,
                  506-509, 531, 552, 584-587, 621-624, 648, 680-683, 707,
                  728, 750-753, 787, 809-812
    4    8 O      35-37, 59, 81, 116-118, 140, 175-177, 181, 189, 215, 216,
                  240, 248, 274, 275, 341, 342, 347, 354, 400, 401, 406, 413,
                  417, 425, 451, 452, 476, 484, 510, 511, 553, 588-590,
                  625-627, 649, 684-686, 708, 754, 755, 760, 767, 813, 814,
                  819, 826

           -------------------------------------------------
          |                Calculation Setup                |
           -------------------------------------------------

          program call               : .\xtb_bigstack2.exe  "C:\Users\naoki\Downloads\デスクトップ\data\Molecules\Calculations\Apixaban\CrystalFragment\ManyBody\FullShell\Stage08_D2+D3+D1+D5+D7+D4+D6+D8_cluster_XTB2_SP_XTB.xyz" --grad -c 0 -u 0 -P 1 --namespace stage08_big --acc 1.000000 
          calculation namespace      : stage08_big
          coordinate file            : C:\Users\naoki\Downloads\デスクトップ\data\Molecules\Calculations\Apixaban\CrystalFragment\ManyBody\FullShell\Stage08_D2+D3+D1+D5+D7+D4+D6+D8_cluster_XTB2_SP_XTB.xyz
          omp threads                :                     1


molecular fragmentation (1/2 indicates fragments):
111111111111111111111111111111111111111111111111111111111112222222222222
222222222222222222222222222222222222222222222222222222222222222222222222
222222222222222222222222222222222222222222222222222222222222222222222222
222222222222222222222222222222222222222222222222222222222222222222222222
222222222222222222222222222222222222222222222222222222222222222222222222
222222222222222222222222222222222222222222222222222222222222222222222222
222222222222222222222222222222222222222222222222222222222222222222222222
222222222222222222222222222222222222222222222222222222222222222222222222
222222222222222222222222222222222222222222222222222222222222222222222222
222222222222222222222222222222222222222222222222222222222222222222222222
222222222222222222222222222222222222222222222222222222222222222222222222
2222222222222222222222222222222222
# atoms in fragment 1/2:    59   767
 fragment masses (1/2) :      459.50     5973.47
CMA distance (Bohr)    :   2.152
constraining FC (au)   :  0.0500

           -------------------------------------------------
          |                 G F N 2 - x T B                 |
           -------------------------------------------------

        Reference                      10.1021/acs.jctc.8b01176
      * Hamiltonian:
        H0-scaling (s, p, d)           1.850000    2.230000    2.230000
        zeta-weighting                 0.500000
      * Dispersion:
        s8                             2.700000
        a1                             0.520000
        a2                             5.000000
        s9                             5.000000
      * Repulsion:
        kExp                           1.500000    1.000000
        rExp                           1.000000
      * Coulomb:
        alpha                          2.000000
        third order                    shell-resolved
        anisotropic                    true
        a3                             3.000000
        a5                             4.000000
        cn-shift                       1.200000
        cn-exp                         4.000000
        max-rad                        5.000000


          ...................................................
          :                      SETUP                      :
          :.................................................:
          :  # basis functions                2254          :
          :  # atomic orbitals                2254          :
          :  # shells                         1302          :
          :  # electrons                      2436          :
          :  max. iterations                   250          :
          :  Hamiltonian                  GFN2-xTB          :
          :  restarted?                      false          :
          :  GBSA solvation                  false          :
          :  PC potential                    false          :
          :  electronic temp.          300.0000000     K    :
          :  accuracy                    1.0000000          :
          :  -> integral cutoff          0.2500000E+02      :
          :  -> integral neglect         0.1000000E-07      :
          :  -> SCF convergence          0.1000000E-05 Eh   :
          :  -> wf. convergence          0.1000000E-03 e    :
          :  Broyden damping             0.4000000          :
          :  net charge                          0          :
          :  unpaired electrons                  0          :
          ...................................................

 iter      E             dE          RMSdq      gap      omega  full diag
   1  -1382.9442181 -0.138294E+04  0.411E+00    2.77       0.0  T
   2  -1386.4474783 -0.350326E+01  0.242E+00    2.03       1.0  T
   3  -1386.7762426 -0.328764E+00  0.128E+00    2.56       1.0  T
   4  -1386.8317338 -0.554911E-01  0.429E-01    2.27       1.0  T
   5  -1386.9390286 -0.107295E+00  0.940E-02    2.29       1.0  T
   6  -1386.9404595 -0.143093E-02  0.532E-02    2.30       1.0  T
   7  -1386.9415318 -0.107225E-02  0.218E-02    2.31       1.0  T
   8  -1386.9415870 -0.552635E-04  0.874E-03    2.31       1.0  T
   9  -1386.9416138 -0.267515E-04  0.396E-03    2.31       1.0  T
  10  -1386.9416161 -0.228846E-05  0.168E-03    2.31       2.1  T
  11  -1386.9416173 -0.117824E-05  0.536E-04    2.31       6.5  T
  12  -1386.9416173 -0.744717E-07  0.274E-04    2.31      12.7  T
  13  -1386.9416173 -0.143259E-07  0.107E-04    2.31      32.5  T

   *** convergence criteria satisfied after 13 iterations ***

         #    Occupation            Energy/Eh            Energy/eV
      -------------------------------------------------------------
         1        2.0000           -0.7284262             -19.8215
       ...           ...                  ...                  ...
      1212        2.0000           -0.3719112             -10.1202
      1213        2.0000           -0.3718137             -10.1176
      1214        2.0000           -0.3703090             -10.0766
      1215        2.0000           -0.3691834             -10.0460
      1216        2.0000           -0.3675052             -10.0003
      1217        2.0000           -0.3639594              -9.9038
      1218        2.0000           -0.3625251              -9.8648 (HOMO)
      1219                         -0.2777423              -7.5578 (LUMO)
      1220                         -0.2774989              -7.5511
      1221                         -0.2764715              -7.5232
      1222                         -0.2760565              -7.5119
      1223                         -0.2742965              -7.4640
       ...                                ...                  ...
      2254                          0.8977339              24.4286
      -------------------------------------------------------------
                  HL-Gap            0.0847828 Eh            2.3071 eV
             Fermi-level           -0.3201337 Eh           -8.7113 eV

 SCC (total)                   0 d,  0 h,  0 min, 53.433 sec
 SCC setup                      ...        0 min,  0.047 sec (  0.088%)
 Dispersion                     ...        0 min,  0.166 sec (  0.311%)
 classical contributions        ...        0 min,  0.017 sec (  0.032%)
 integral evaluation            ...        0 min,  1.294 sec (  2.422%)
 iterations                     ...        0 min, 41.035 sec ( 76.797%)
 molecular gradient             ...        0 min, 10.362 sec ( 19.393%)
 printout                       ...        0 min,  0.512 sec (  0.958%)

         :::::::::::::::::::::::::::::::::::::::::::::::::::::
         ::                     SUMMARY                     ::
         :::::::::::::::::::::::::::::::::::::::::::::::::::::
         :: total energy           -1356.127537903450 Eh    ::
         :: gradient norm              3.488354772929 Eh/a0 ::
         :: HOMO-LUMO gap              2.307057167299 eV    ::
         ::.................................................::
         :: SCC energy             -1386.807519327356 Eh    ::
         :: -> isotropic ES            2.030631216012 Eh    ::
         :: -> anisotropic ES         -0.010181042670 Eh    ::
         :: -> anisotropic XC          0.257992081180 Eh    ::
         :: -> dispersion             -1.378870218913 Eh    ::
         :: repulsion energy          30.679981423906 Eh    ::
         :: add. restraining           0.000000000000 Eh    ::
         :: total charge               0.000000000000 e     ::
         :::::::::::::::::::::::::::::::::::::::::::::::::::::

           -------------------------------------------------
          |                Property Printout                |
           -------------------------------------------------
#
# Number of atoms
#
       826
#
# The current total energy in Eh
#
  -1356.127537903450
#
# The current gradient in Eh/bohr
#
      -0.125086809490
       0.054896532206
       0.085803935408
       0.061694046479
      -0.117573038658
       0.033777598540
      -0.071260433110
       0.138337383172
      -0.039604295550
       0.006896614917
       0.005467619182
      -0.017038858365
       0.081533540797
       0.075658701717
       0.031548378558
      -0.107863397365
       0.030196001480
      -0.034613969240
      -0.005085127570
      -0.003364446854
      -0.004315381314
      -0.003952310029
       0.019097626667
       0.016390203764
       0.002835546785
      -0.006118952155
      -0.005265962020
      -0.056361277729
       0.073001174377
       0.061250401350
       0.105161210762
      -0.036690560785
       0.027188486363
      -0.033128565938
      -0.037053713549
      -0.102389702089
       0.002310940366
       0.010692914196
      -0.015665729106
       0.000724629907
      -0.019241892362
       0.015463649309
       0.005052792890
      -0.018046542550
      -0.008034649722
       0.085151536282
       0.113723637132
       0.000163888010
      -0.096571830558
      -0.128044349360
       0.001108006548
       0.111925243401
       0.001629112712
      -0.084692963503
      -0.130488183907
      -0.010486588523
       0.095385331322
       0.001363442971
       0.015701771985
       0.008814607912
      -0.080579569374
      -0.113456276360
       0.000539166723
       0.092433934421
       0.132501613242
      -0.000708728795
      -0.112982603683
      -0.010970505427
       0.083645858919
       0.126043801155
       0.006459705117
      -0.098926258173
       0.071869539012
       0.003527651110
      -0.075437192308
       0.009801961573
       0.107348440015
       0.067439607303
       0.023097949986
      -0.108063491545
       0.073390768210
      -0.117565000482
      -0.008453164722
      -0.059937387499
       0.064627151829
      -0.012558951898
      -0.190030450125
      -0.148474837721
       0.273344199993
       0.115722502370
      -0.001286003380
       0.001856085178
       0.005762572770
       0.000483599594
       0.012537657143
      -0.008900372532
      -0.005621883242
      -0.014202956668
       0.022127286054
       0.081959025474
      -0.240880278445
       0.062998761666
       0.001784896223
       0.000394394991
       0.005581397245
       0.002547394089
      -0.007280746723
      -0.004765574531
       0.012945153835
       0.002890486305
      -0.008572470462
      -0.096653642055
      -0.014537158605
      -0.029071989333
       0.081030124964
      -0.075852442607
      -0.039393094765
       0.048060673553
       0.102527873569
       0.026519653493
      -0.026545015663
      -0.016501129254
      -0.070085757484
      -0.054082115700
       0.084896840727
       0.056982837398
       0.080269454823
      -0.044444857386
       0.068674353052
      -0.000620946938
       0.072290543571
      -0.045103719177
      -0.053455871892
      -0.028197028865
       0.096245078708
       0.055645370555
      -0.092936365523
      -0.044690940329
       0.098920630071
       0.025974032859
      -0.015655991364
      -0.076797637108
       0.070803973590
       0.051993732649
      -0.055074508574
      -0.089335487365
      -0.048507898203
       0.003379204326
       0.007033024911
      -0.011968273873
      -0.061641594428
       0.121738791658
      -0.032166430215
       0.072202693329
      -0.138486619458
       0.036295101195
      -0.003469640844
      -0.007273573747
       0.009863591841
       0.106772471864
      -0.048740482132
      -0.072396916193
      -0.113527577576
       0.044483540199
       0.071832118346
       0.128202906535
      -0.052815216626
      -0.081529569118
       0.011319192133
      -0.111570343741
       0.016110484661
      -0.003903143801
       0.001899829351
      -0.002975230319
       0.002417267251
       0.001459679157
       0.001832647803
       0.095896532333
       0.014774131866
       0.029253993583
      -0.081282689410
       0.075898450046
       0.039154417996
      -0.048208582604
      -0.102436030664
      -0.026652342454
       0.026510974260
       0.016574149669
       0.070138629878
       0.054599964818
      -0.084770963131
      -0.056986537763
      -0.080198927049
       0.044485659555
      -0.068906224214
       0.000192626327
      -0.072624999657
       0.044807743081
       0.053393703696
       0.028568618830
      -0.096379304353
      -0.055668075179
       0.092963210711
       0.044449028075
      -0.099882251598
      -0.025284111141
       0.014522624192
       0.076061656524
      -0.070591814590
      -0.051645444921
       0.055272724508
       0.089057568147
       0.048224129429
       0.004210247382
      -0.007455916348
       0.020000814097
       0.061734826292
      -0.122818189499
       0.032315527203
      -0.072219498965
       0.138315856527
      -0.036166577788
       0.004377674620
       0.008731224019
      -0.011308404661
      -0.107679898797
       0.048545431608
       0.072244038470
       0.113517586145
      -0.045118934370
      -0.072181952313
      -0.128214998174
       0.052879618241
       0.081576789040
      -0.012026914816
       0.111483031868
      -0.016975216152
      -0.000725116540
      -0.004828524591
       0.003145751871
      -0.005234255985
      -0.000115227947
      -0.007159989571
       0.125270298642
      -0.054103318817
      -0.085523325511
      -0.062760627220
       0.118833750104
      -0.033335579904
       0.072277777253
      -0.138768418313
       0.038356227971
      -0.007231608836
      -0.003173932336
       0.014248755494
      -0.082097154379
      -0.075734457087
      -0.031183722360
       0.108236959769
      -0.030264925395
       0.034826718455
       0.001873421576
       0.008125583116
       0.007226571212
       0.004312471350
      -0.018114117472
      -0.015628781679
      -0.003073481962
       0.007026018394
       0.004896191414
       0.056114101011
      -0.073160737533
      -0.061263520433
      -0.104982219798
       0.036818564909
      -0.027078730216
       0.032708418976
       0.037036568243
       0.102326730432
      -0.002452217049
      -0.013037545587
       0.015028543675
      -0.001582466355
       0.026655217578
      -0.018700545124
      -0.004566984936
       0.018847138162
       0.008002170402
      -0.086357299030
      -0.112582297062
       0.001394045832
       0.096015819748
       0.127793660711
      -0.000305557163
      -0.112100794196
      -0.002084863691
       0.085015247621
       0.129731227904
       0.009807223513
      -0.095926135104
      -0.003568474715
      -0.015799091790
      -0.009271623037
       0.080040975964
       0.114877695903
      -0.000026051324
      -0.092237227847
      -0.132275875109
       0.000306094279
       0.113221687030
       0.010117870248
      -0.084691139871
      -0.125590991623
      -0.006625571843
       0.098679167250
      -0.073696863182
      -0.003907644413
       0.077080376325
      -0.009944209165
      -0.107369988697
      -0.068794946228
      -0.023967223380
       0.107066941183
      -0.074596873293
       0.118154188670
       0.007827811595
       0.059012509850
      -0.061546313443
       0.014756771724
       0.185862226048
       0.149639737761
      -0.273768059376
      -0.116961192510
       0.001827466111
      -0.004658237996
      -0.004310838485
      -0.000926336370
      -0.014416672253
       0.010263630019
       0.004504644854
       0.015204183063
      -0.023378498880
      -0.084713396687
       0.235956125346
      -0.057176626460
       0.000312223362
      -0.003086892163
      -0.007949239755
      -0.002332335050
       0.002888055356
       0.004018816195
      -0.010008053038
      -0.002056380269
       0.008536186434
       0.096589508769
       0.014177637020
       0.029886358294
      -0.080743917461
       0.076115874608
       0.039601178987
      -0.047718502610
      -0.103492628229
      -0.025707063794
       0.026605640291
       0.016484778505
       0.068877480055
       0.054815118836
      -0.086749676703
      -0.055995234021
      -0.082441362717
       0.045358994570
      -0.068395505333
       0.000281226484
      -0.072043659061
       0.045120780986
       0.055875850347
       0.029578683970
      -0.095938564492
      -0.055134765306
       0.092468155475
       0.045467452211
      -0.098276232208
      -0.025786600462
       0.014912718510
       0.077229642848
      -0.071073901308
      -0.052113166550
       0.054448919603
       0.089607264120
       0.048568564532
      -0.006356524314
      -0.006912851734
       0.013170649741
       0.062561401646
      -0.121442118358
       0.032548616258
      -0.071970401384
       0.138429977370
      -0.037556288042
       0.003178082450
       0.006617894746
      -0.009153430533
      -0.106516185270
       0.049327213599
       0.072705205636
       0.113812111256
      -0.044216357264
      -0.071961911107
      -0.128273078107
       0.052174875495
       0.082112102856
      -0.011506893315
       0.111906938895
      -0.015871491436
       0.005267214131
      -0.000322107297
       0.001820377660
      -0.001386999731
      -0.001700481698
      -0.002255099207
       0.124915328020
      -0.055113123755
      -0.085857519014
      -0.061207882158
       0.118148769975
      -0.033691555541
       0.070946493737
      -0.138467025259
       0.039319366541
      -0.007182693548
      -0.006641425212
       0.018441177010
      -0.081216680089
      -0.075624235374
      -0.031285691380
       0.108013515715
      -0.030469879873
       0.034693087435
       0.003303605509
      -0.001347290147
       0.000044025633
       0.004165485004
      -0.017974172799
      -0.015811683094
      -0.002782519206
       0.005702769630
       0.004995256414
       0.056863673186
      -0.073021179453
      -0.061383163226
      -0.104927294634
       0.036285891193
      -0.026293141663
       0.032664785794
       0.036998519346
       0.102356679894
      -0.001811750687
      -0.012072170963
       0.014550185080
      -0.003713527872
       0.023227406219
      -0.014516314998
      -0.004876107698
       0.018687992498
       0.008384722571
      -0.084601456050
      -0.113766568305
       0.000775702447
       0.096246403132
       0.128375269089
      -0.001248537681
      -0.110930864156
      -0.003041748074
       0.085818674283
       0.129764726685
       0.010908760098
      -0.096346020329
      -0.002325802041
      -0.012535986068
      -0.008030996766
       0.081656205499
       0.113254645254
      -0.001225446664
      -0.092883149119
      -0.132236845132
       0.001411788690
       0.113482177601
       0.011331247884
      -0.083311985610
      -0.126367253858
      -0.006280574735
       0.098671270290
      -0.071449622700
      -0.003433341589
       0.075745608193
      -0.010856480099
      -0.108025190627
      -0.068966891972
      -0.022779258230
       0.107614588627
      -0.073317707087
       0.117408070955
       0.009727769727
       0.060096026435
      -0.066356170170
       0.012372840309
       0.189671860005
       0.147681180572
      -0.273040689978
      -0.116106847433
       0.002497377865
       0.002009158188
      -0.006473753462
       0.000158291870
      -0.012721072102
       0.007796522786
       0.006354667499
       0.014599186086
      -0.020425909328
      -0.079562132567
       0.239212118485
      -0.061694049688
      -0.000551775036
       0.000730729267
      -0.002766042432
      -0.000000509446
       0.004664631813
       0.004762185010
      -0.010739143384
      -0.005767750054
       0.008306268149
      -0.098741305232
       0.025708060535
       0.015357927990
       0.076981467639
       0.070603110177
      -0.051983664821
       0.055163360892
      -0.089627906746
       0.047911634958
      -0.002116208233
       0.000573450171
      -0.002372919372
      -0.002063842373
       0.012850934540
      -0.007790687749
       0.081709539569
      -0.113638469861
      -0.001152758611
      -0.092672021363
       0.132248650606
       0.001319592706
      -0.072125100459
       0.003647035534
       0.076201263276
      -0.010584318141
       0.107750538877
      -0.068918724683
      -0.023848420802
      -0.107345186652
      -0.074101034441
       0.117750988118
      -0.008553214037
       0.060697856185
      -0.010325615168
       0.005597487599
       0.007495860447
      -0.007093632217
       0.006736548246
       0.018895067064
      -0.128019595749
      -0.052137448122
       0.081858535371
      -0.081107522833
       0.075560848412
      -0.031068060874
       0.107814972013
       0.030389938797
       0.034645477395
      -0.011158938889
      -0.111840366791
      -0.016055911525
       0.003999346865
       0.000852989840
       0.001232988540
       0.004198849089
       0.017360094309
      -0.016091044519
      -0.002697128568
      -0.005593499508
       0.004742274397
       0.056819807442
       0.072701680790
      -0.061387589470
      -0.105054179806
      -0.036018784804
      -0.026296781481
       0.032662517175
      -0.036806379362
       0.102549475264
      -0.001428283033
       0.013095302257
       0.013752064072
      -0.004439448574
      -0.024973086513
      -0.012229753522
      -0.004731520738
      -0.019115608924
       0.008674989155
      -0.084817167609
       0.113210477240
       0.000809640783
       0.096408428094
      -0.128931407420
      -0.000750345748
      -0.112044128872
       0.002542420312
       0.085367265238
       0.113633951321
      -0.011199185671
      -0.083619398393
      -0.126300880010
       0.006302580705
       0.098753076236
      -0.066272412369
      -0.012660123912
       0.189868365005
       0.147727481898
       0.273086581219
      -0.115917254866
       0.001757054121
      -0.001952384033
      -0.006848532744
       0.000425955248
       0.013105496574
       0.007019477419
       0.006022188477
      -0.015253746977
      -0.019948181195
      -0.079538814262
      -0.238735347574
      -0.062222695211
      -0.000809816845
      -0.000196426367
      -0.003687319020
       0.000243501017
      -0.002833981862
       0.002853409307
       0.096607909616
      -0.014030316630
       0.029694403973
      -0.081079969028
      -0.076013476749
       0.039689683715
      -0.047719790179
       0.103365756770
      -0.025639721690
       0.026379981423
      -0.016264729294
       0.068861996471
       0.055147288916
       0.086624965412
      -0.056091410241
      -0.082356371176
      -0.045328558636
      -0.068458651082
       0.000175106195
       0.072344320085
       0.044886857701
       0.055917187508
      -0.029790760557
      -0.095662152029
      -0.055010621920
      -0.092740726337
       0.045000804743
      -0.005116913967
       0.008166792625
       0.013066226923
       0.062229476634
       0.120983873196
       0.032180177035
      -0.072017422305
      -0.138591527985
      -0.036944286890
       0.002777013530
      -0.005950457306
      -0.008138306769
      -0.107124991984
      -0.049438658080
       0.072775698823
       0.124963459548
       0.054896616923
      -0.085427483591
      -0.061432819035
      -0.118033792433
      -0.034180892700
       0.072103045698
       0.138926199492
       0.039783749809
       0.114224940838
       0.044221231602
      -0.072119234950
       0.129356801032
      -0.009581208773
      -0.095298021671
       0.004625699435
      -0.000056512847
       0.001649841734
      -0.098961422972
       0.026016714668
       0.015231637121
       0.077147665029
       0.070646917012
      -0.051982209769
       0.054961885836
      -0.089558369700
       0.048075567569
      -0.003251726530
       0.001312174336
      -0.003647519629
      -0.001685805603
       0.013683046883
      -0.007863468109
       0.081937172127
      -0.113778374507
      -0.001192526589
      -0.092199270492
       0.132142383579
       0.000985387767
      -0.072013335707
       0.003514239513
       0.076021654603
      -0.009768835513
       0.107148749144
      -0.067326559192
      -0.023895261552
      -0.107894693475
      -0.074100445610
       0.117579868363
      -0.007405954455
       0.060208215939
      -0.011349281262
       0.005331373636
       0.006995295094
      -0.006816350271
       0.006407562223
       0.018181751086
      -0.128320154394
      -0.052228641266
       0.082209169125
      -0.080992673590
       0.075776030856
      -0.031207345409
       0.107955828140
       0.030352199320
       0.034569015837
      -0.011335672049
      -0.111821594130
      -0.015921215133
       0.004248092317
      -0.001016209585
       0.001037980331
       0.004163914675
       0.017458043133
      -0.015691997312
      -0.002640784589
      -0.005486349584
       0.004431678304
       0.056717123882
       0.073036840427
      -0.061230754081
      -0.105068895557
      -0.036308724053
      -0.026455254419
       0.032843826253
      -0.036934695917
       0.102381029999
      -0.001834743008
       0.012912043999
       0.014398186493
      -0.003736539117
      -0.022225120962
      -0.013481258897
      -0.004972616691
      -0.019306706760
       0.008924428093
      -0.084780444142
       0.113373933707
       0.000811870514
       0.096313133419
      -0.129127197190
      -0.000690908344
      -0.112023598396
       0.002612257503
       0.085615152836
       0.113350691007
      -0.011010981574
      -0.083458483049
      -0.126219873030
       0.006139358462
       0.098978220296
      -0.065235373575
      -0.012978680628
       0.189734211137
       0.148188758195
       0.273028160917
      -0.115848970759
       0.001718829772
      -0.000724790191
      -0.006306225741
       0.000378774140
       0.013135508626
       0.007275445502
       0.005497558362
      -0.014865552966
      -0.019849778656
      -0.080634507565
      -0.239929397990
      -0.062521655584
      -0.000889045327
       0.000608854087
      -0.003759960264
      -0.000136667494
      -0.004889507326
       0.003822689325
       0.096544414435
      -0.014176734759
       0.029989417975
      -0.080865763489
      -0.076209295280
       0.039628413304
      -0.047761786426
       0.103566385795
      -0.025704521006
       0.026359171288
      -0.016325465473
       0.068885639239
       0.055242431802
       0.086719949730
      -0.056054591679
      -0.082448465814
      -0.045387330300
      -0.068493459288
       0.000173168410
       0.072420245986
       0.044966096732
       0.055980590966
      -0.029858075841
      -0.095739558808
      -0.055006368492
      -0.092570904343
       0.045351780361
      -0.003450917072
       0.006502926053
       0.014444715223
       0.062638251012
       0.121619043642
       0.032594663906
      -0.071976189283
      -0.138453868251
      -0.037641481958
       0.003358805386
      -0.006757882430
      -0.009312740187
      -0.107278861870
      -0.049419684900
       0.072922177999
       0.124980874773
       0.054771784164
      -0.085341946121
      -0.061497819473
      -0.118030384462
      -0.034031822508
       0.072226341058
       0.138833391968
       0.039799365313
       0.113862134449
       0.044447017166
      -0.071882166445
       0.129141425125
      -0.009381929048
      -0.095583953835
       0.003557508902
       0.000861677938
       0.001904952719
      -0.096369642456
       0.014877707032
      -0.029773540024
       0.080941144845
       0.076188940926
      -0.039623877096
       0.047906494811
      -0.103648258702
       0.025555634036
      -0.026377232796
       0.016241588118
      -0.069601729716
      -0.054991240275
      -0.084948953094
       0.056906536233
       0.080247317351
       0.045552259475
       0.069017328036
      -0.000804532851
      -0.072237889923
      -0.045019216810
      -0.053525031803
       0.028313170335
       0.096361311851
       0.055658743200
       0.092729211174
      -0.044987365550
       0.000370748790
      -0.006366996775
      -0.017745376705
      -0.062574742082
      -0.122519201324
      -0.032515419406
       0.071779718786
       0.138455897375
       0.037452276918
      -0.003995738247
       0.007728645468
       0.010019084940
       0.107334437175
       0.049016133283
      -0.072545510394
      -0.125132474964
      -0.054746095433
       0.085758234960
       0.062016619640
       0.118066090336
       0.033885332612
      -0.071216454447
      -0.138246778256
      -0.039677015546
      -0.113677443003
      -0.044888985185
       0.072354468939
      -0.129942409819
       0.011357178003
       0.096730450842
      -0.001842216885
      -0.003315483245
      -0.002207604138
       0.006445871975
      -0.005416459502
      -0.016452281395
       0.128217223721
       0.052313488856
      -0.082351396128
       0.081504949144
      -0.076079901549
       0.031593640052
      -0.108553749636
      -0.031094559987
      -0.034171081355
       0.012056515771
       0.111937675635
       0.016731564261
      -0.003910411133
       0.002394240863
      -0.003078720922
      -0.004102515343
      -0.018130215241
       0.015943552029
       0.002887619681
       0.006013127813
      -0.004667535857
      -0.056858399861
      -0.073179679706
       0.061378089490
       0.104898101633
       0.036406128726
       0.026131402464
      -0.032099353012
       0.037163151744
      -0.102478957014
       0.001980886839
      -0.012828904021
      -0.015144172541
       0.004688063155
       0.031040185783
       0.020049950635
       0.004587592099
       0.018507797523
      -0.007930855294
       0.085298875923
      -0.113105742495
      -0.001059484276
      -0.096365874089
       0.128504420789
       0.001189826019
       0.111313197410
      -0.003185350206
      -0.085768942783
      -0.113241109573
       0.011153309304
       0.083984014967
       0.125977289533
      -0.006518777731
      -0.098784928585
       0.063341339521
       0.014506949987
      -0.185509502469
      -0.148415618312
      -0.273493460932
       0.117589132722
      -0.001928963663
      -0.000710540525
       0.005567986835
       0.000367823527
      -0.013263931428
      -0.009510685653
      -0.006011256891
       0.014832140171
       0.022220323098
       0.081808045778
       0.233456224821
       0.054666429972
       0.000892610531
      -0.000414669546
       0.004562955964
      -0.000312380556
       0.000661493016
      -0.004647601802
       0.072833192510
      -0.003587833396
      -0.076268453157
       0.009400483341
      -0.107217580738
       0.067202735907
       0.023017439537
       0.108004288944
       0.073633278041
      -0.117620914063
       0.008159220479
      -0.058153901534
       0.010942542599
      -0.005156583913
      -0.006798781396
       0.003092961972
      -0.012701276399
       0.007495987614
      -0.080966789447
       0.114182119291
       0.001469997715
       0.092667809933
      -0.132143428415
      -0.001581627102
       0.098927590730
      -0.025660682718
      -0.014647150917
      -0.076828052063
      -0.070915619986
       0.052116689596
      -0.054744508932
       0.089419648353
      -0.048391048481
       0.002555791862
      -0.001528860368
       0.006172779331
      -0.096256407421
       0.014040931147
      -0.030184063841
       0.081096759809
       0.076338027601
      -0.039098577329
       0.048051206941
      -0.102711640647
       0.027128207735
      -0.026677285888
       0.016726028153
      -0.069416819469
      -0.054498805837
      -0.086688038619
       0.055861289503
       0.082679551671
       0.044409071919
       0.068166516087
       0.000150063384
      -0.072267624859
      -0.044711459564
      -0.055912294303
       0.029824884639
       0.096089539327
       0.055386874017
       0.092580714776
      -0.045438097456
      -0.003486563718
      -0.007328914229
      -0.023417896925
      -0.062280483527
      -0.123158993976
      -0.032461468570
       0.072154872966
       0.138471851863
       0.036992836809
      -0.004139727370
       0.008416215060
       0.011151555415
       0.107665414254
       0.048916423400
      -0.072582965732
      -0.125101078389
      -0.054185939246
       0.085472675619
       0.062531134260
       0.119249435785
       0.033241927853
      -0.072077367926
      -0.138805164346
      -0.038087569272
      -0.113565818473
      -0.045161653109
       0.072133476104
      -0.129465867010
       0.009031493757
       0.095054350199
       0.000601772142
      -0.003843789706
      -0.001787127784
       0.007226560517
      -0.003890227814
      -0.014948522813
       0.128378833479
       0.052636985119
      -0.081858142518
       0.082067138576
      -0.075703363732
       0.031011551493
      -0.108242214616
      -0.030273037138
      -0.034845751690
       0.011950556609
       0.111521136898
       0.016914616864
      -0.001749763529
       0.004934287586
      -0.004573944090
      -0.004343459773
      -0.018249670250
       0.015714963095
       0.003131504442
       0.006214008464
      -0.005064591778
      -0.056217889924
      -0.073173216261
       0.061308853122
       0.105020880034
       0.036736386733
       0.026962362902
      -0.032528900502
       0.036920869329
      -0.102528636647
       0.001981289536
      -0.012625909329
      -0.013847465373
       0.002805287064
       0.024228044667
       0.012515976963
       0.004947032333
       0.018778068760
      -0.008323626232
       0.085711211613
      -0.113681076943
      -0.000566374859
      -0.095931304821
       0.127570506510
       0.000441568573
       0.112027895770
      -0.001446163126
      -0.084717953119
      -0.113414087078
       0.010511675044
       0.084138435432
       0.125886769181
      -0.006329458223
      -0.098698595701
       0.064634325199
       0.013284099522
      -0.190308204002
      -0.148760988950
      -0.273463127764
       0.115569875050
      -0.001816036646
      -0.002294253192
       0.004570345356
       0.000414481429
      -0.013903427962
      -0.008278519137
      -0.004855336446
       0.014999903923
       0.021640292554
       0.082101888535
       0.238443689100
       0.063093529495
      -0.000189862416
      -0.002093566234
       0.006447417825
       0.002117391265
       0.003063946963
      -0.001321895775
       0.072394798400
      -0.003511176988
      -0.076070019741
       0.009716244100
      -0.107190088682
       0.067350303746
       0.024034440875
       0.107987763102
       0.074188227601
      -0.117833528298
       0.007182931293
      -0.060366546211
       0.011968790654
      -0.002118181817
      -0.008690645381
       0.001611734287
      -0.016677970279
       0.009410674722
      -0.080937369018
       0.114016904205
       0.000241358783
       0.092345607736
      -0.132336008771
      -0.000462430135
       0.099226487862
      -0.025001736252
      -0.013561954700
      -0.076563039934
      -0.070851584409
       0.051595437281
      -0.054867114586
       0.089126027211
      -0.048471540102
       0.005782554337
      -0.000186242814
       0.009615697782
      -0.099150211226
       0.024953507509
       0.013922762908
       0.076316067311
       0.070949458265
      -0.051593585387
       0.054930281267
      -0.088933742881
       0.048913908959
      -0.004782565326
       0.000483711994
      -0.007721102354
      -0.003114035019
       0.013968395517
      -0.008439279633
       0.080553262457
      -0.114508308406
      -0.001043458703
      -0.092585252717
       0.132168865517
       0.001520450196
      -0.072642918999
       0.003660496338
       0.076403155520
      -0.010146478874
       0.107772546993
      -0.068656379692
      -0.023103154517
      -0.107453236081
      -0.073694005988
       0.117782876018
      -0.009035000762
       0.058773398242
      -0.010505034022
       0.003536564787
       0.008264762990
      -0.007586692903
       0.003241910277
       0.014360069868
      -0.128321231880
      -0.053103541888
       0.081963675253
      -0.082372444642
       0.075730392834
      -0.031320904372
       0.108485380815
       0.030454562678
       0.034870488514
      -0.012368840471
      -0.111596865529
      -0.016907663799
       0.001326078812
      -0.007681526563
       0.007326653292
       0.004403780703
       0.017786166772
      -0.015702627992
      -0.003128034748
      -0.007264389290
       0.005072701349
       0.056468716040
       0.073636162853
      -0.061507295369
      -0.104856485299
      -0.036913588500
      -0.026795377579
       0.032333423167
      -0.037050027665
       0.102280895474
      -0.002188168730
       0.012758930210
       0.014761693937
      -0.002514768865
      -0.030105528916
      -0.019145362186
      -0.004432513371
      -0.018585218772
       0.008017582589
      -0.085979243426
       0.113523650025
       0.000712206146
       0.095976347141
      -0.127197095831
      -0.000793264459
      -0.111357393570
       0.002113556895
       0.085301087755
       0.113393421123
      -0.011054419385
      -0.084354981503
      -0.125921707179
       0.006651718827
       0.098827472097
      -0.062399914073
      -0.014619354151
       0.185958297625
       0.149325463555
       0.273405989966
      -0.117258296635
       0.002752927951
       0.004492738119
      -0.004487143878
      -0.001014836327
       0.014380346672
       0.010099091202
       0.004921916146
      -0.014912104840
      -0.022946462340
      -0.084043752835
      -0.233759883338
      -0.055987390531
       0.000281492697
       0.002797875866
      -0.007797178262
      -0.001481860140
      -0.000831020374
       0.004011581951
       0.095953535247
      -0.014709424191
       0.029152608930
      -0.081198686825
      -0.075843079314
       0.039109471443
      -0.048163882627
       0.102326361979
      -0.026855834497
       0.026622140037
      -0.016593142110
       0.070152350023
       0.053919036451
       0.084732608578
      -0.056918266360
      -0.080237175116
      -0.044254120424
      -0.068966141947
       0.000519583536
       0.072096320696
       0.044842801252
       0.053195873635
      -0.028186330010
      -0.096518233604
      -0.055830436543
      -0.092858896921
       0.044643788431
       0.003412814643
       0.007659237231
       0.020857034963
       0.061759464731
       0.122889278078
       0.032268979831
      -0.072140140772
      -0.138343942092
      -0.036055762461
       0.004322137252
      -0.008495513542
      -0.011081004243
      -0.107138042672
      -0.048505738736
       0.072063942364
       0.125253518718
       0.054388620548
      -0.086041655926
      -0.062520657382
      -0.119002464459
      -0.033069153637
       0.071102533606
       0.138467070361
       0.038044342176
       0.113395656699
       0.045062809477
      -0.072408930009
       0.130238208948
      -0.011121861274
      -0.096412090846
       0.000068546011
       0.004853332854
       0.002727380034
      -0.099889860624
       0.025773560527
       0.014305458034
       0.076428899074
       0.070668860877
      -0.051626098570
       0.054884846748
      -0.088954898727
       0.048305765780
      -0.005502979094
       0.001108482820
      -0.007664455714
      -0.003139205636
       0.015401443162
      -0.008880048856
       0.079868145629
      -0.114373386698
      -0.000517281661
      -0.092788762130
       0.132506155478
       0.001006832239
      -0.073154721508
       0.003648965280
       0.076228596988
      -0.009380057456
       0.107204098834
      -0.067269731488
      -0.023199271150
      -0.107990371280
      -0.073718086587
       0.117782117011
      -0.007957712499
       0.058300321717
      -0.011392247812
       0.002302141677
       0.008253567489
      -0.007549200351
       0.003684192638
       0.014813796734
      -0.128447136526
      -0.052946124677
       0.082151967690
      -0.082227878816
       0.075789336243
      -0.031275973935
       0.108433132300
       0.030434607190
       0.034908138154
      -0.012318905957
      -0.111631700085
      -0.016825934864
       0.001138670257
      -0.005859126073
       0.007297370635
       0.004363625934
       0.018353286653
      -0.016021111475
      -0.003151728406
      -0.007141416339
       0.005437886238
       0.056443245654
       0.073517408148
      -0.061405214720
      -0.104868317062
      -0.037026745741
      -0.026785128105
       0.032381816736
      -0.037060584085
       0.102242505918
      -0.002348360467
       0.012298959947
       0.015064274294
      -0.001973275966
      -0.029523848090
      -0.019397357284
      -0.004732150651
      -0.018401849735
       0.007750712872
      -0.086198845520
       0.113464624617
       0.000641550975
       0.096080546614
      -0.127178020207
      -0.000695727349
      -0.111539133220
       0.002081574536
       0.084955801679
       0.113349029725
      -0.010608246306
      -0.084711927723
      -0.125635299058
       0.006644452473
       0.098595188268
      -0.062244072246
      -0.014625281266
       0.186005655875
       0.149395336283
       0.273407082298
      -0.117274235601
       0.002631894197
       0.003451046871
      -0.004764688730
      -0.001188483005
       0.014525079179
       0.010548643059
       0.005108783770
      -0.015094956912
      -0.024051432921
      -0.084304562789
      -0.233846479863
      -0.056083003808
       0.000375493288
       0.001932383736
      -0.007746440204
      -0.001965927887
      -0.001322284527
       0.004111290418
       0.096013598446
      -0.014613851597
       0.029629931462
      -0.081037795271
      -0.076149124778
       0.039164046958
      -0.048248607596
       0.102687568674
      -0.026724592435
       0.026688579882
      -0.016537657886
       0.070150917405
       0.054162165689
       0.084892471797
      -0.056866660216
      -0.080346765823
      -0.044502360832
      -0.068630659053
       0.000257843571
       0.072631244016
       0.044780541586
       0.053730653127
      -0.028722324162
      -0.096424874290
      -0.055617462459
      -0.092781711699
       0.044857172780
       0.004501616850
       0.005824189836
       0.020703592854
       0.062047395093
       0.123405167832
       0.032657161299
      -0.072094059551
      -0.138315742140
      -0.036861060280
       0.004587918617
      -0.009241083030
      -0.012137111609
      -0.107205272056
      -0.048339206212
       0.072224651813
       0.125258880571
       0.054273409010
      -0.086021934316
      -0.062505631104
      -0.119061752685
      -0.033115934455
       0.071087477071
       0.138448653304
       0.038089349880
       0.113217056937
       0.045113109058
      -0.072298333016
       0.130364983242
      -0.010940981203
      -0.096258532447
      -0.000829636400
       0.005539337899
       0.002819107030
       0.095991211290
       0.014165923235
       0.030157754330
      -0.081079362417
       0.076226705968
       0.038991612344
      -0.048183441245
      -0.102619307049
      -0.027117852228
       0.026746620127
       0.016806334833
       0.069402990640
       0.054552388445
      -0.086685742693
      -0.055921167649
      -0.082673727397
       0.044428383485
      -0.068063051413
      -0.000265450454
      -0.072287563957
       0.044704395948
       0.055908639108
       0.029850523610
      -0.096041735571
      -0.055342745240
       0.092526681320
       0.045379013729
      -0.099323483653
      -0.025009841331
       0.013677065901
       0.076632060633
      -0.070814326798
      -0.051594920137
       0.054833191641
       0.089045169670
       0.048442031344
       0.003904059806
      -0.006748955217
       0.023434704553
       0.062176733194
      -0.123298653928
       0.032431182308
      -0.072124525764
       0.138347630363
      -0.036857440073
       0.004247092654
       0.008840407472
      -0.011465548207
      -0.107749030502
       0.048700890429
       0.072269636756
       0.113302328239
      -0.045236780695
      -0.072242011518
      -0.128518204507
       0.052997396161
       0.082071620599
      -0.012242638703
       0.111622262497
      -0.016875925996
      -0.000572536541
      -0.004531279756
       0.001877947667
      -0.005873183882
      -0.000520016962
      -0.009608252505
       0.125272143985
      -0.054116684139
      -0.085521984241
      -0.062731223673
       0.118899114279
      -0.033406079418
       0.072242080063
      -0.138826637810
       0.038354486614
      -0.007373376659
      -0.003553879021
       0.014633979600
      -0.082098012560
      -0.075850227198
      -0.031313155261
       0.108407158689
      -0.030402242177
       0.034819067444
       0.001523528817
       0.006964310263
       0.006976626877
       0.004310228245
      -0.018206046736
      -0.015757746211
      -0.003047927488
       0.006904262300
       0.004983102998
       0.056230631567
      -0.073431166454
      -0.061254455620
      -0.104998874974
       0.036992168011
      -0.027043632767
       0.032688895406
       0.037059807492
       0.102224408533
      -0.002533618384
      -0.012856390117
       0.015208910362
      -0.001570840616
       0.025626577577
      -0.019199910284
      -0.004702622739
       0.018604271946
       0.007919068574
      -0.086310747481
      -0.112618382583
       0.001265862868
       0.096022886026
       0.127740627702
      -0.000289992531
      -0.112227544481
      -0.002115112966
       0.084914342053
       0.129778602399
       0.009701710659
      -0.095841901861
      -0.003235956067
      -0.016133607910
      -0.009293168035
       0.080116418030
       0.114735429987
       0.000065177627
      -0.092326308766
      -0.132103612748
       0.000307262531
       0.113271449120
       0.010084198277
      -0.084648471857
      -0.125613557854
      -0.006626186438
       0.098625900657
      -0.073785446497
      -0.003813682171
       0.076911448620
      -0.009184768724
      -0.106889449529
      -0.067324325649
      -0.024136623582
       0.107687903514
      -0.074595030920
       0.118074019916
       0.006822232845
       0.058615041667
      -0.061710299874
       0.014602606079
       0.185803545332
       0.149424481555
      -0.273857573208
      -0.117088832259
       0.002200796473
      -0.003949669322
      -0.004557110548
      -0.001069817964
      -0.014475638304
       0.010606639551
       0.004718522187
       0.015360640248
      -0.023794530582
      -0.084436297320
       0.236477181160
      -0.057136196853
       0.000507650324
      -0.002523426041
      -0.007530504258
      -0.002171830349
       0.003795727992
       0.004658079464
      -0.010605812769
      -0.001956838385
       0.008118894522
      -0.125064517414
       0.054350552118
       0.085634735152
       0.062136668007
      -0.119005017171
       0.033039792194
      -0.071965912755
       0.138758434314
      -0.037995743181
       0.007520278633
       0.004056815550
      -0.015623308957
       0.081838842465
       0.075427099344
       0.030784678565
      -0.107775865034
       0.029411500460
      -0.035297824345
      -0.002044033182
      -0.006838003921
      -0.005324821033
      -0.004395385235
       0.017375854978
       0.014996571983
       0.002936892392
      -0.007616336268
      -0.004983518475
      -0.056420298206
       0.073318869977
       0.061546025500
       0.105099545951
      -0.036642827477
       0.026970997531
      -0.033138490700
      -0.036989596687
      -0.102342228256
       0.002104554950
       0.012853618776
      -0.014965832632
       0.000462997999
      -0.028269305508
       0.018756890845
       0.004331823961
      -0.018906957066
      -0.008246890029
       0.085763608067
       0.112968138493
      -0.001189371454
      -0.095892137745
      -0.127790332835
       0.000407489457
       0.111823478295
       0.002167041835
      -0.085799321912
      -0.129542726725
      -0.009962664558
       0.096053811190
       0.003161999246
       0.014307791739
       0.008780954011
      -0.080660239843
      -0.114803462633
       0.000830024608
       0.092430764614
       0.132138623441
      -0.001308113358
      -0.113634503904
      -0.010921182369
       0.084619255944
       0.125922114594
       0.006653638526
      -0.098808798467
       0.073105010126
       0.003711102665
      -0.076783502880
       0.010066463003
       0.107592150667
       0.068548841570
       0.023939447325
      -0.107344614019
       0.074432297657
      -0.118138560778
      -0.007941193241
      -0.059203570895
       0.061671309396
      -0.014491809551
      -0.186034987797
      -0.149812729196
       0.272954878404
       0.117005896188
      -0.001850511979
       0.003462441963
       0.004900662766
       0.000620348718
       0.014317012611
      -0.009495385540
      -0.004394919086
      -0.014970865418
       0.022242165670
       0.085301434255
      -0.234949513414
       0.056937418379
       0.000016085595
       0.002893415533
       0.007222098228
       0.002814631865
      -0.001826727436
      -0.004849753682
       0.009856997694
       0.003545905029
      -0.008143363216
      -0.096256304505
      -0.014596181402
      -0.029419903873
       0.081087836602
      -0.076093452940
      -0.039328164084
       0.048064323724
       0.102654409915
       0.026615249617
      -0.026562444815
      -0.016626670825
      -0.070063170655
      -0.054646686905
       0.085050707526
       0.056950784949
       0.080366650121
      -0.044546072763
       0.068662543666
      -0.000477625441
       0.072057839786
      -0.045089051758
      -0.053327438026
      -0.028232268958
       0.096342890722
       0.055711375779
      -0.092842516715
      -0.044720363129
       0.099454202184
       0.025457507904
      -0.014751141863
      -0.076251450293
       0.070851638284
       0.051644307437
      -0.054785264741
      -0.088852681842
      -0.048998202016
      -0.002669129449
       0.006391703505
      -0.016939314138
      -0.061531338200
       0.122217117779
      -0.032339127747
       0.072090727086
      -0.138486267491
       0.036230855742
      -0.004034040817
      -0.008228963952
       0.011215684748
       0.107125314620
      -0.048762590688
      -0.072456249438
      -0.113603484183
       0.044749447320
       0.071985702056
       0.128153361275
      -0.052708198046
      -0.081651743161
       0.011216720210
      -0.111391018545
       0.016059951663
      -0.000201554230
       0.003777212532
      -0.003013573269
       0.006119367168
       0.000848263361
       0.005223925747
      -0.125192465514
       0.054428136912
       0.085989834722
       0.062411848874
      -0.119428293445
       0.033328518327
      -0.070858535664
       0.138364192530
      -0.037930980637
       0.007601352935
       0.004594173130
      -0.016067086784
       0.081988929913
       0.075605559147
       0.031049543524
      -0.108430446737
       0.030447733753
      -0.034897543140
       0.000363081992
      -0.001776100172
      -0.005451117607
      -0.004650766857
       0.017874002839
       0.016616608556
       0.003188994574
      -0.005646947812
      -0.005483230352
      -0.056546490836
       0.073121734013
       0.061221371945
       0.104932081479
      -0.036419764395
       0.026284156610
      -0.032344852571
      -0.036977505178
      -0.102321676604
       0.002137298221
       0.012944889638
      -0.013754756125
       0.005245808655
      -0.022341746065
       0.012880258152
       0.005366779498
      -0.019142212757
      -0.008643054012
       0.085769064835
       0.114267616806
      -0.000471676951
      -0.095828297753
      -0.127237313958
       0.000732839836
       0.111279981062
       0.001884842238
      -0.084695027437
      -0.130072648485
      -0.010092125649
       0.096072495968
       0.001708470595
       0.016340733072
       0.009318081324
      -0.080819499263
      -0.113923816741
       0.000401329598
       0.092376904275
       0.132441900132
      -0.000613489124
      -0.113298220416
      -0.010464490096
       0.083964751075
       0.125815735106
       0.006044961337
      -0.098861678796
       0.071891343198
       0.003541685033
      -0.075639545706
       0.009832696951
       0.107204010352
       0.067453471666
       0.023076900517
      -0.107951356252
       0.073527973750
      -0.117513302316
      -0.008325272677
      -0.059756194026
       0.065851099069
      -0.012828084605
      -0.189747986908
      -0.147743323357
       0.273811625775
       0.115916398346
      -0.003193632358
       0.000594886907
       0.005690787417
       0.000616270673
       0.014510645749
      -0.008903599771
      -0.005958840272
      -0.016083033548
       0.022098306808
       0.079572030750
      -0.240145238842
       0.062685192809
      -0.001544926947
       0.000996438828
       0.005923407916
      -0.000520705069
      -0.004996135857
      -0.003054762420
       0.012371498167
       0.002160224279
      -0.009008426682
      -0.095925769279
      -0.014176474725
      -0.030214408955
       0.081127217045
      -0.076379401496
      -0.039307729126
       0.047870542357
       0.103533926721
       0.026072297066
      -0.026655443378
      -0.016323750434
      -0.068948389012
      -0.054822936050
       0.086536605807
       0.055871954806
       0.082470673009
      -0.045351315454
       0.068511467011
      -0.000020411963
       0.072375188566
      -0.044622849576
      -0.055889686333
      -0.029857452437
       0.096022183316
       0.055264525499
      -0.092624804975
      -0.045214370447
       0.099441689661
       0.025406148820
      -0.013685942696
      -0.076811357870
       0.070816269402
       0.051468077746
      -0.054782732104
      -0.088998521880
      -0.048302894272
      -0.005251512528
       0.006419658610
      -0.023245197272
      -0.062503901100
       0.122853052551
      -0.032729980550
       0.071768661532
      -0.138358641605
       0.037389157151
      -0.004274729466
      -0.008086538654
       0.010944457715
       0.107208229601
      -0.048640378808
      -0.072246790080
      -0.113845445530
       0.044969654505
       0.072630448196
       0.128120253529
      -0.052159286265
      -0.082397271684
       0.011979753751
      -0.111792051603
       0.016718437851
       0.001089231301
       0.004822276137
      -0.001698779308
       0.006552160634
       0.000632586672
       0.009780046779
      -0.096629026799
       0.014668780909
      -0.029547499709
       0.081178630556
       0.075983461603
      -0.039705943057
       0.047895762372
      -0.103484652192
       0.025323915437
      -0.026360632682
       0.016253823726
      -0.069654060968
      -0.054948895732
      -0.084960972482
       0.056949720214
       0.080189368844
       0.045592240052
       0.069027611999
      -0.000816100806
      -0.072193396064
      -0.044938323034
      -0.053464262888
       0.028369915062
       0.096313422916
       0.055615728033
       0.092860334251
      -0.044606461901
       0.002270236579
      -0.008303106146
      -0.017020079884
      -0.062375975995
      -0.121890265255
      -0.032113772741
       0.071909031289
       0.138611739540
       0.036676940390
      -0.003247418613
       0.006489759743
       0.008337600731
       0.107119225478
       0.049303591493
      -0.072604706205
      -0.125132376963
      -0.054940770830
       0.085775844104
       0.061674939161
       0.118266555187
       0.033716273808
      -0.071086311167
      -0.138423043078
      -0.039440353983
      -0.113933173931
      -0.044671112872
       0.072503176033
      -0.130025297370
       0.011670293696
       0.096434965511
      -0.003041513378
      -0.002011604427
      -0.001559922709
       0.006464293896
      -0.005369801794
      -0.016644606997
       0.128113260414
       0.052489768252
      -0.082164206761
       0.081523168408
      -0.076029438782
       0.031833071862
      -0.108613662253
      -0.031164344002
      -0.034292042846
       0.012087221639
       0.112048697508
       0.016778260302
      -0.003719003075
       0.000234213206
       0.000213053417
      -0.004017659570
      -0.018658336703
       0.015320807371
       0.002942900223
       0.005875493311
      -0.004778080337
      -0.056847224841
      -0.073122435266
       0.061325504337
       0.104867373355
       0.036405455557
       0.026249585547
      -0.032144193374
       0.037178722995
      -0.102554141323
       0.002128754624
      -0.012222138664
      -0.015649273898
       0.004286383420
       0.030963470936
       0.021424157645
       0.004599061184
       0.018080033581
      -0.007745478267
       0.085260220816
      -0.113249886289
      -0.000962902154
      -0.096482655644
       0.128311576328
       0.001363075532
       0.111413997019
      -0.003167585822
      -0.086027190880
      -0.113365945980
       0.011392085937
       0.083793757817
       0.126127524661
      -0.006533347024
      -0.098805256945
       0.063324006293
       0.014491800273
      -0.185527519902
      -0.148474119176
      -0.273426173866
       0.117741177898
      -0.002138930283
       0.000892125443
       0.005159253790
       0.000438368081
      -0.012688444937
      -0.009764320751
      -0.006036816658
       0.014279572202
       0.022226972794
       0.081944513077
       0.233164121026
       0.054147346933
       0.000718308068
       0.000434779257
       0.002799562724
      -0.000101274551
       0.001015152577
      -0.005253653283
       0.072717528294
      -0.003432933389
      -0.076322364696
       0.010376458533
      -0.108077748459
       0.068615077503
       0.022937417561
       0.107832842902
       0.073471993197
      -0.117791472544
       0.009280942898
      -0.058888311178
       0.010189280527
      -0.006174781158
      -0.007083761280
       0.003416396166
      -0.011292526739
       0.007168833370
      -0.081020376398
       0.113999390641
       0.001431365551
       0.092776857628
      -0.132207120614
      -0.001466915942
       0.098655365457
      -0.025368838294
      -0.014634843692
      -0.076746984905
      -0.070879250672
       0.052122260146
      -0.054889191303
       0.089585032397
      -0.048187764290
       0.001447010507
      -0.000684866755
       0.005560701695
      -0.096160982223
       0.014054522356
      -0.029687832589
       0.081183109168
       0.076064310600
      -0.039152861549
       0.048010219621
      -0.102528486738
       0.027080996639
      -0.026706226327
       0.016604858476
      -0.069395118521
      -0.054373310834
      -0.086603415668
       0.055946919721
       0.082589209340
       0.044279737755
       0.068071421660
       0.000193219797
      -0.072189879657
      -0.044811122676
      -0.055832900277
       0.029729864089
       0.095848461798
       0.055260581470
       0.092727670254
      -0.045032453440
      -0.001558278010
      -0.007369143801
      -0.017928864638
      -0.061806995333
      -0.122092708806
      -0.032193596513
       0.072284076150
       0.138454369759
       0.036257322741
      -0.003585781671
       0.007683454491
       0.010552594935
       0.106986482250
       0.048878394376
      -0.072391122274
      -0.124999269013
      -0.054386759240
       0.085610897683
       0.062235856810
       0.119087233432
       0.032991270452
      -0.071991972345
      -0.138773552115
      -0.037958055237
      -0.113595517888
      -0.044697132690
       0.071904807830
      -0.129453424947
       0.009886055114
       0.096019577053
      -0.000928223083
      -0.002738980137
      -0.002380988197
       0.007505591251
      -0.004227409522
      -0.015742754615
       0.128149501032
       0.052720994013
      -0.081557261267
       0.081798084954
      -0.075414720583
       0.030626826877
      -0.107701615357
      -0.029364558304
      -0.035300969630
       0.011178028083
       0.111365312522
       0.016010047547
      -0.002072092239
       0.006665009846
      -0.005351287401
      -0.004499702632
      -0.017102776744
       0.014990484496
       0.002859949648
       0.007427785146
      -0.004802763113
      -0.056285089589
      -0.073233072164
       0.061446548108
       0.105131787587
       0.036643608586
       0.027075117296
      -0.033300818532
       0.036977644134
      -0.102392744025
       0.002222611296
      -0.013435721425
      -0.014978847978
       0.000668780033
       0.027319566882
       0.017613183490
       0.004541936463
       0.019064434504
      -0.008571674026
       0.085907647717
      -0.113205455015
      -0.001146317017
      -0.095860382611
       0.127742600151
       0.000372886961
       0.112013310289
      -0.002170743731
      -0.085896077424
      -0.113394713638
       0.010769214310
       0.084346198721
       0.125858277488
      -0.006499736128
      -0.099089869525
       0.060926446662
       0.014971469511
      -0.185766551974
      -0.150118431756
      -0.273172169234
       0.116719516047
      -0.001890470032
      -0.003286686109
       0.005113524959
       0.000670385676
      -0.014730256123
      -0.009378615879
      -0.003898788266
       0.015341118489
       0.022102471587
       0.085739183462
       0.235923323770
       0.057675290146
      -0.000057631057
      -0.003045153153
       0.007113095917
       0.002873002790
       0.002011824121
      -0.003834214332
       0.073044395091
      -0.003718196718
      -0.076759550055
       0.010058329388
      -0.107578999174
       0.068551118880
       0.023956622757
       0.107337726077
       0.074393918198
      -0.118079769914
       0.007948697907
      -0.059207872830
       0.010047092524
      -0.004153457933
      -0.008001984874
       0.003178689007
      -0.013967878451
       0.008432902374
      -0.080943497757
       0.114882382548
       0.000732047180
       0.092019488555
      -0.132028826744
      -0.000879437915
       0.099329592144
      -0.025410931478
      -0.014580376124
      -0.076537784890
      -0.070698940659
       0.051477757726
      -0.055073904161
       0.089043878451
      -0.048518389465
       0.005997453659
      -0.000458168364
       0.005854870137
#
# The atomic numbers and current coordinates in Bohr
#
   1    43.1604586   78.2515582   70.4834824
   6    40.9351014   77.4668192   73.4514114
   1    41.7179003   75.9522729   73.8786291
   6    38.9098143   78.3135525   74.8371188
   6    38.5105083   78.1422179   79.5038103
   1    40.2053923   77.7467094   80.0772988
   6    37.6370641   74.4034597   76.8150444
   6    37.2368841   73.1829289   79.2814312
   6    36.6134102   74.4489745   81.4421953
   6    36.6226606   77.2620023   81.4728170
   1    34.9508353   77.9036572   81.0791941
   1    37.1057468   77.8748834   83.1305524
   6    36.0792887   72.5608925   83.2039850
   6    35.1891918   72.8889134   85.8347778
   6    37.6461960   68.5464293   78.2078870
   6    39.7229025   68.6366743   76.6438006
   1    40.7705083   70.0484197   76.6553953
   6    40.2505162   66.6355898   75.0621736
   1    41.6497094   66.6975842   74.0034944
   6    38.7077731   64.5479224   75.0526601
   6    36.6681156   64.4359663   76.6854224
   1    35.6584754   62.9988476   76.7208009
   6    36.1250986   66.4255413   78.2509953
   1    34.7426214   66.3496832   79.3340530
   6    40.9217217   62.7181726   71.6203511
   1    40.8886785   61.2410323   70.5667259
   1    40.6240250   64.1916509   70.6053747
   1    42.5458029   62.8523630   72.4188944
   1    34.7622314   70.9037852   88.8475988
   1    35.9698693   69.5618815   86.7605647
   7    38.0788104   76.9428751   77.0261262
   7    37.0677592   70.6579004   79.7862437
   7    36.3856213   70.2561140   82.2104141
   7    35.2648507   70.8365593   87.2826205
   8    37.4232773   73.3254898   74.8011457
   8    34.3898587   74.9365590   86.5242125
   8    39.0181325   62.5230342   73.4930332
   6    40.0031552   83.0659320   66.6183071
   1    38.6913632   84.2312694   67.1537414
   1    39.1889076   81.4925303   66.1488731
   6    41.2647939   84.1161744   64.3817320
   1    42.0952652   82.7533443   63.4761613
   1    39.9986925   84.8329027   63.2680525
   6    43.1479586   86.0754061   64.9861394
   1    44.0126330   86.5776391   63.4494045
   1    42.2907910   87.5507154   65.6583309
   6    45.0428286   85.1630162   66.8650647
   1    46.2779685   84.1344849   65.9853590
   1    45.9258289   86.6168760   67.5461751
   6    44.0044486   83.6555326   69.0264234
   6    38.6438562   81.9521257   72.1739206
   1    37.8654845   83.4700726   71.7470002
   6    40.6982403   81.1171634   70.8084295
   6    41.8089041   78.8508372   71.4339451
   6    37.7380442   80.5416882   74.1714679
   1    36.3338648   81.0975450   75.0707953
   1    38.3859465   79.9622892   79.3221611
   7    41.6991226   82.5880259   68.7609360
   8    45.2417766   83.3881981   70.9710516
   6    29.6544240   73.8818698   82.0308459
   1    30.9662160   72.7165324   81.4954117
   1    30.4686716   75.4552715   82.5002799
   6    28.3927852   72.8316274   84.2674211
   1    27.5623139   74.1944575   85.1729917
   1    29.6588866   72.1148991   85.3811005
   6    26.5096205   70.8723957   83.6630136
   1    25.6449462   70.3701627   85.1997486
   1    27.3667881   69.3970864   82.9908222
   6    24.6147505   71.7847856   81.7840883
   1    23.3796107   72.8133168   82.6637940
   1    23.7317502   70.3309258   81.1029779
   6    25.6531306   73.2922692   79.6227296
   6    31.0137230   74.9956760   76.4752325
   1    31.7920947   73.4777292   76.9021529
   6    28.9593388   75.8306383   77.8407236
   6    27.8486750   78.0969646   77.2152080
   6    31.9195350   76.4061136   74.4776852
   1    33.3237144   75.8502568   73.5783578
   1    31.2716326   76.9855126   69.3269920
   7    27.9584566   74.3597758   79.8882170
   8    24.4158025   73.5596036   77.6781014
   1    26.4971206   78.6962436   78.1656706
   6    28.7224777   79.4809826   75.1977417
   1    27.9396789   80.9955289   74.7705240
   6    30.7477649   78.6342492   73.8120343
   6    31.1470708   78.8055839   69.1453427
   1    29.4521869   79.2010924   68.5718543
   6    32.0205151   82.5443421   71.8341086
   6    32.4206950   83.7648729   69.3677219
   6    33.0441690   82.4988273   67.2069578
   6    33.0349185   79.6857995   67.1763361
   1    34.7067438   79.0441446   67.5699590
   1    32.5518323   79.0729183   65.5186007
   6    33.5782904   84.3869093   65.4451680
   6    34.4683873   84.0588884   62.8143753
   6    32.0113831   88.4013725   70.4412660
   6    29.9346766   88.3111275   72.0053525
   1    28.8870709   86.8993820   71.9937578
   6    29.4070629   90.3122120   73.5869794
   1    28.0078697   90.2502176   74.6456587
   6    30.9498061   92.3998793   73.5964930
   6    32.9894635   92.5118354   71.9637307
   1    33.9991037   93.9489541   71.9283522
   6    33.5324806   90.5222605   70.3981578
   1    34.9149578   90.5981186   69.3151001
   6    28.7358575   94.2296291   77.0288019
   1    28.7689007   95.7067695   78.0824271
   1    29.0335542   92.7561508   78.0437783
   1    27.1117762   94.0954388   76.2302587
   1    34.8953477   86.0440165   59.8015543
   1    33.6877099   87.3859202   61.8885884
   7    31.5787687   80.0049267   71.6230268
   7    32.5898199   86.2899014   68.8629093
   7    33.2719579   86.6916878   66.4387390
   7    34.3927284   86.1112425   61.3665326
   8    32.2343019   83.6223119   73.8480073
   8    35.2677204   82.0112428   62.1249405
   8    30.6394466   94.4247676   75.1561199
   6    48.9689368   73.8818698   82.0308459
   1    50.2807288   72.7165324   81.4954117
   1    49.7831843   75.4552715   82.5002799
   6    47.7072980   72.8316274   84.2674211
   1    46.8768267   74.1944575   85.1729917
   1    48.9733994   72.1148991   85.3811005
   6    45.8241333   70.8723957   83.6630136
   1    44.9594590   70.3701627   85.1997486
   1    46.6813009   69.3970864   82.9908222
   6    43.9292633   71.7847856   81.7840883
   1    42.6941234   72.8133168   82.6637940
   1    43.0462630   70.3309258   81.1029779
   6    44.9676434   73.2922692   79.6227296
   6    50.3282357   74.9956760   76.4752325
   1    51.1066075   73.4777292   76.9021529
   6    48.2738516   75.8306383   77.8407236
   6    47.1631878   78.0969646   77.2152080
   6    51.2340477   76.4061136   74.4776852
   1    52.6382271   75.8502568   73.5783578
   1    50.5861454   76.9855126   69.3269920
   7    47.2729693   74.3597758   79.8882170
   8    43.7303153   73.5596036   77.6781014
   1    45.8116334   78.6962436   78.1656706
   6    48.0369905   79.4809826   75.1977417
   1    47.2541916   80.9955289   74.7705240
   6    50.0622776   78.6342492   73.8120343
   6    50.4615836   78.8055839   69.1453427
   1    48.7666997   79.2010924   68.5718543
   6    51.3350279   82.5443421   71.8341086
   6    51.7352078   83.7648729   69.3677219
   6    52.3586817   82.4988273   67.2069578
   6    52.3494313   79.6857995   67.1763361
   1    54.0212566   79.0441446   67.5699590
   1    51.8663451   79.0729183   65.5186007
   6    52.8928032   84.3869093   65.4451680
   6    53.7829001   84.0588884   62.8143753
   6    51.3258959   88.4013725   70.4412660
   6    49.2491894   88.3111275   72.0053525
   1    48.2015836   86.8993820   71.9937578
   6    48.7215757   90.3122120   73.5869794
   1    47.3223825   90.2502176   74.6456587
   6    50.2643189   92.3998793   73.5964930
   6    52.3039763   92.5118354   71.9637307
   1    53.3136165   93.9489541   71.9283522
   6    52.8469933   90.5222605   70.3981578
   1    54.2294705   90.5981186   69.3151001
   6    48.0503703   94.2296291   77.0288019
   1    48.0834134   95.7067695   78.0824271
   1    48.3480669   92.7561508   78.0437783
   1    46.4262890   94.0954388   76.2302587
   1    54.2098605   86.0440165   59.8015543
   1    53.0022227   87.3859202   61.8885884
   7    50.8932815   80.0049267   71.6230268
   7    51.9043327   86.2899014   68.8629093
   7    52.5864706   86.6916878   66.4387390
   7    53.7072412   86.1112425   61.3665326
   8    51.5488147   83.6223119   73.8480073
   8    54.5822332   82.0112428   62.1249405
   8    49.9539594   94.4247676   75.1561199
   6    33.5119597   72.0840327   96.6490036
   1    32.2768199   71.0555015   97.5287093
   1    32.6289594   73.5378925   95.9678932
   8    33.3130117   70.3092147   92.5430167
   6    39.8470153   51.4689389   88.4614083
   6    41.8866727   51.3569829   86.8286460
   1    42.8963129   49.9198642   86.7932675
   6    37.6330667   49.6391892   91.8937172
   1    37.6661099   48.1620488   92.9473424
   1    37.9307634   51.1126674   92.9086936
   1    36.0089854   49.7733795   91.0951740
   8    39.5366558   49.4440507   90.0210352
   6    39.6449741   65.2345691   88.6769496
   1    42.2209236   68.0185615   88.4432731
   6    40.0442800   65.0632344   84.0102580
   1    38.3493961   64.6677259   83.4367696
   1    40.1688418   66.8833057   84.1919073
   6    40.9177243   61.3244762   86.6990239
   6    41.3179042   60.1039454   84.2326372
   6    41.9413782   61.3699910   82.0718731
   6    41.9321277   64.1830188   82.0412514
   1    43.6039530   64.8246737   82.4348743
   1    41.4490415   64.7959000   80.3835160
   6    42.4754996   59.4819090   80.3100833
   6    43.3655965   59.8099299   77.6792906
   6    40.9085923   55.4674458   85.3061814
   6    38.8318858   55.5576908   86.8702678
   1    37.7842801   56.9694362   86.8586731
   6    38.3042721   53.5566063   88.4518947
   6    42.4296897   53.3465578   85.2630731
   1    43.8121670   53.2706997   84.1800154
   1    43.7925569   57.8248018   74.6664696
   1    42.5849191   56.4828981   76.7535037
   7    40.4759779   63.8638916   86.4879421
   7    41.4870291   57.5789169   83.7278247
   7    42.1691670   57.1771305   81.3036543
   7    43.2899376   57.7575758   76.2314479
   8    41.1315111   60.2465064   88.7129227
   8    44.1649296   61.8575755   76.9898558
   6    38.5516332   69.9869485   96.8957612
   1    39.8634252   71.1522859   96.3603270
   1    39.3658807   68.4135468   97.3651953
   6    37.2899944   71.0371909   99.1323364
   1    36.4595231   69.6743608  100.0379070
   1    38.5560958   71.7539192  100.2460158
   6    35.4068297   72.9964226   98.5279289
   1    34.5421554   73.4986556  100.0646639
   1    36.2639973   74.4717319   97.8557375
   6    34.5503398   70.5765491   94.4876450
   6    39.9109322   68.8731423   91.3401478
   1    40.6893039   70.3910891   91.7670682
   6    37.8565480   68.0381800   92.7056389
   6    36.7458842   65.7718537   92.0801233
   1    35.3943298   65.1725747   93.0305859
   6    37.6196869   64.3878357   90.0626570
   1    36.8368881   62.8732894   89.6354393
   6    40.8167442   67.4627047   89.3426005
   1    36.9050789   53.6186007   89.5105740
   7    36.8556657   69.5090425   94.7531323
   6    33.5119597   98.2419997   96.6490036
   1    32.2768199   97.2134684   97.5287093
   1    32.6289594   99.6958595   95.9678932
   8    33.3130117   96.4671816   92.5430167
   6    39.8470153   77.6269059   88.4614083
   6    41.8866727   77.5149498   86.8286460
   1    42.8963129   76.0778311   86.7932675
   6    37.6330667   75.7971561   91.8937172
   1    37.6661099   74.3200157   92.9473424
   1    37.9307634   77.2706344   92.9086936
   1    36.0089854   75.9313465   91.0951740
   8    39.5366558   75.6020177   90.0210352
   6    39.6449741   91.3925360   88.6769496
   1    42.2209236   94.1765285   88.4432731
   6    40.0442800   91.2212013   84.0102580
   1    38.3493961   90.8256929   83.4367696
   1    40.1688418   93.0412727   84.1919073
   6    40.9177243   87.4824431   86.6990239
   6    41.3179042   86.2619124   84.2326372
   6    41.9413782   87.5279580   82.0718731
   6    41.9321277   90.3409858   82.0412514
   1    43.6039530   90.9826407   82.4348743
   1    41.4490415   90.9538669   80.3835160
   6    42.4754996   85.6398759   80.3100833
   6    43.3655965   85.9678968   77.6792906
   6    40.9085923   81.6254128   85.3061814
   6    38.8318858   81.7156577   86.8702678
   1    37.7842801   83.1274032   86.8586731
   6    38.3042721   79.7145733   88.4518947
   6    42.4296897   79.5045248   85.2630731
   1    43.8121670   79.4286667   84.1800154
   1    43.7925569   83.9827687   74.6664696
   1    42.5849191   82.6408650   76.7535037
   7    40.4759779   90.0218586   86.4879421
   7    41.4870291   83.7368838   83.7278247
   7    42.1691670   83.3350975   81.3036543
   7    43.2899376   83.9155428   76.2314479
   8    41.1315111   86.4044733   88.7129227
   8    44.1649296   88.0155425   76.9898558
   6    38.5516332   96.1449155   96.8957612
   1    39.8634252   97.3102529   96.3603270
   1    39.3658807   94.5715138   97.3651953
   6    37.2899944   97.1951578   99.1323364
   1    36.4595231   95.8323278  100.0379070
   1    38.5560958   97.9118861  100.2460158
   6    35.4068297   99.1543896   98.5279289
   1    34.5421554   99.6566225  100.0646639
   1    36.2639973  100.6296989   97.8557375
   6    34.5503398   96.7345160   94.4876450
   6    39.9109322   95.0311092   91.3401478
   1    40.6893039   96.5490561   91.7670682
   6    37.8565480   94.1961469   92.7056389
   6    36.7458842   91.9298207   92.0801233
   1    35.3943298   91.3305416   93.0305859
   6    37.6196869   90.5458026   90.0626570
   1    36.8368881   89.0312564   89.6354393
   6    40.8167442   93.6206717   89.3426005
   1    36.9050789   79.7765676   89.5105740
   7    36.8556657   95.6670094   94.7531323
   6    29.5858516   60.8028863   81.4832224
   1    28.2740596   59.6375489   82.0186567
   1    28.7716040   62.3762880   81.0137884
   6    30.8474903   59.7526439   79.2466473
   1    31.6779616   61.1154740   78.3410766
   1    29.5813889   59.0359156   78.1329678
   6    32.7306550   57.7934122   79.8510547
   1    33.5953294   57.2911792   78.3143198
   1    31.8734874   56.3181029   80.5232462
   6    33.5871450   60.2132857   83.8913387
   6    28.2265526   61.9166925   87.0388359
   1    27.4481809   60.3987457   86.6119155
   6    30.2809367   62.7516548   85.6733448
   6    31.3916005   65.0179811   86.2988604
   1    32.7431550   65.6172601   85.3483977
   6    30.5177979   66.4019991   88.3163267
   1    31.3005967   67.9165454   88.7435444
   6    27.3207406   63.3271301   89.0363832
   1    31.2324059   77.1712341   88.8684097
   7    31.2818190   61.2807924   83.6258513
   6    28.4925107   65.5552658   89.7020341
   1    25.9165612   62.7712733   89.9357106
   6    28.0932047   65.7266004   94.3687256
   1    29.7880887   66.1221089   94.9422141
   1    27.9686430   63.9065291   94.1870764
   6    27.2197605   69.4653586   91.6799598
   6    26.8195805   70.6858894   94.1463465
   6    26.1961066   69.4198438   96.3071106
   6    26.2053570   66.6068160   96.3377323
   1    24.5335318   65.9651611   95.9441094
   1    26.6884432   65.9939348   97.9954677
   6    25.6619852   71.3079258   98.0689003
   6    24.7718883   70.9799049  100.6996931
   6    27.2288924   75.3223890   93.0728023
   6    29.3055989   75.2321440   91.5087159
   1    30.3532047   73.8203986   91.5203106
   6    29.8332126   77.2332285   89.9270889
   6    25.7077950   77.4432770   93.1159106
   1    24.3253178   77.5191351   94.1989683
   1    24.3449278   72.9650330  103.7125141
   1    25.5525657   74.3069367  101.6254800
   7    27.6615068   66.9259432   91.8910415
   7    26.6504556   73.2109179   94.6511590
   7    25.9683177   73.6127043   97.0753294
   7    24.8475471   73.0322590  102.1475358
   8    27.0059737   70.5433285   89.6660610
   8    23.9725551   68.9322593  101.3891278
   6    30.5044181   81.1506457   86.4852664
   1    30.4713749   82.6277860   85.4316413
   1    30.2067214   79.6771674   85.4702900
   1    32.1284993   81.0164553   87.2838097
   8    28.6008289   81.3457841   88.3579485
   6    28.2904695   79.3208959   89.9175754
   6    26.2508121   79.4328520   91.5503377
   1    25.2411719   80.8699707   91.5857162
   6    34.6255250   58.7058021   81.7299800
   1    35.8606649   59.7343334   80.8502743
   1    35.5085253   57.2519423   82.4110905
   8    34.8244730   60.4806202   85.8359669
   6    50.4204587   60.8028863   51.7533918
   1    49.1086667   59.6375489   52.2888261
   1    49.6062112   62.3762880   51.2839578
   6    51.6820975   59.7526439   49.5168167
   1    52.5125688   61.1154740   48.6112460
   1    50.4159961   59.0359156   48.4031372
   6    53.5652622   57.7934122   50.1212241
   1    54.4299365   57.2911792   48.5844892
   1    52.7080946   56.3181029   50.7934156
   6    54.4217521   60.2132857   54.1615081
   6    49.0611598   61.9166925   57.3090053
   1    48.2827881   60.3987457   56.8820849
   6    51.1155439   62.7516548   55.9435142
   6    52.2262077   65.0179811   56.5690298
   1    53.5777621   65.6172601   55.6185671
   6    51.3524050   66.4019991   58.5864961
   1    52.1352039   67.9165454   59.0137138
   6    48.1553477   63.3271301   59.3065526
   1    52.0670130   77.1712341   59.1385791
   7    52.1164262   61.2807924   53.8960207
   6    49.3271179   65.5552658   59.9722035
   1    46.7511684   62.7712733   60.2058800
   6    48.9278119   65.7266004   64.6388950
   1    50.6226958   66.1221089   65.2123834
   1    48.8032501   63.9065291   64.4572458
   6    48.0543676   69.4653586   61.9501291
   6    47.6541877   70.6858894   64.4165159
   6    47.0307138   69.4198438   66.5772800
   6    47.0399642   66.6068160   66.6079017
   1    45.3681389   65.9651611   66.2142787
   1    47.5230504   65.9939348   68.2656371
   6    46.4965923   71.3079258   68.3390697
   6    45.6064954   70.9799049   70.9698625
   6    48.0634996   75.3223890   63.3429717
   6    50.1402061   75.2321440   61.7788853
   1    51.1878119   73.8203986   61.7904799
   6    50.6678198   77.2332285   60.1972583
   6    46.5424022   77.4432770   63.3860800
   1    45.1599250   77.5191351   64.4691377
   1    45.1795350   72.9650330   73.9826835
   1    46.3871728   74.3069367   71.8956494
   7    48.4961140   66.9259432   62.1612109
   7    47.4850628   73.2109179   64.9213284
   7    46.8029249   73.6127043   67.3454988
   7    45.6821543   73.0322590   72.4177052
   8    47.8405808   70.5433285   59.9362304
   8    44.8071623   68.9322593   71.6592972
   6    51.3390252   81.1506457   56.7554358
   1    51.3059821   82.6277860   55.7018106
   1    51.0413286   79.6771674   55.7404594
   1    52.9631065   81.0164553   57.5539791
   8    49.4354361   81.3457841   58.6281179
   6    49.1250767   79.3208959   60.1877448
   6    47.0854192   79.4328520   61.8205071
   1    46.0757790   80.8699707   61.8558856
   6    55.4601322   58.7058021   52.0001494
   1    56.6952721   59.7343334   51.1204437
   1    56.3431325   57.2519423   52.6812598
   8    55.6590802   60.4806202   56.1061363
   6    35.0320541   72.0840327   66.9191730
   1    33.7969142   71.0555015   67.7988787
   1    34.1490538   73.5378925   66.2380626
   8    34.8331061   70.3092147   62.8131861
   6    41.3671097   51.4689389   58.7315777
   6    43.4067671   51.3569829   57.0988154
   1    44.4164073   49.9198642   57.0634369
   6    39.1531611   49.6391892   62.1638866
   1    39.1862042   48.1620488   63.2175118
   1    39.4508577   51.1126674   63.1788630
   1    37.5290798   49.7733795   61.3653434
   8    41.0567502   49.4440507   60.2912046
   6    41.1650685   65.2345691   58.9471189
   1    43.7410179   68.0185615   58.7134425
   6    41.5643744   65.0632344   54.2804274
   1    39.8694905   64.6677259   53.7069390
   1    41.6889362   66.8833057   54.4620767
   6    42.4378187   61.3244762   56.9691933
   6    42.8379986   60.1039454   54.5028066
   6    43.4614726   61.3699910   52.3420425
   6    43.4522221   64.1830188   52.3114207
   1    45.1240474   64.8246737   52.7050437
   1    42.9691359   64.7959000   50.6536854
   6    43.9955940   59.4819090   50.5802527
   6    44.8856909   59.8099299   47.9494600
   6    42.4286867   55.4674458   55.5763507
   6    40.3519802   55.5576908   57.1404371
   1    39.3043745   56.9694362   57.1288425
   6    39.8243665   53.5566063   58.7220641
   6    43.9497841   53.3465578   55.5332425
   1    45.3322613   53.2706997   54.4501848
   1    45.3126513   57.8248018   44.9366390
   1    44.1050135   56.4828981   47.0236731
   7    41.9960723   63.8638916   56.7581115
   7    43.0071235   57.5789169   53.9979940
   7    43.6892614   57.1771305   51.5738237
   7    44.8100320   57.7575758   46.5016173
   8    42.6516055   60.2465064   58.9830920
   8    45.6850240   61.8575755   47.2600252
   6    40.0717276   69.9869485   67.1659306
   1    41.3835196   71.1522859   66.6304964
   1    40.8859751   68.4135468   67.6353646
   6    38.8100888   71.0371909   69.4025058
   1    37.9796175   69.6743608   70.3080764
   1    40.0761902   71.7539192   70.5161852
   6    36.9269241   72.9964226   68.7980983
   1    36.0622498   73.4986556   70.3348333
   1    37.7840917   74.4717319   68.1259069
   6    36.0704342   70.5765491   64.7578143
   6    41.4310265   68.8731423   61.6103172
   1    42.2093983   70.3910891   62.0372375
   6    39.3766424   68.0381800   62.9758083
   6    38.2659786   65.7718537   62.3502927
   1    36.9144242   65.1725747   63.3007553
   6    39.1397813   64.3878357   60.3328263
   1    38.3569824   62.8732894   59.9056087
   6    42.3368386   67.4627047   59.6127699
   1    38.4251733   53.6186007   59.7807434
   7    38.3757601   69.5090425   65.0233017
   6    35.0320541   98.2419997   66.9191730
   1    33.7969142   97.2134684   67.7988787
   1    34.1490538   99.6958595   66.2380626
   8    34.8331061   96.4671816   62.8131861
   6    41.3671097   77.6269059   58.7315777
   6    43.4067671   77.5149498   57.0988154
   1    44.4164073   76.0778311   57.0634369
   6    39.1531611   75.7971561   62.1638866
   1    39.1862042   74.3200157   63.2175118
   1    39.4508577   77.2706344   63.1788630
   1    37.5290798   75.9313465   61.3653434
   8    41.0567502   75.6020177   60.2912046
   6    41.1650685   91.3925360   58.9471189
   1    43.7410179   94.1765285   58.7134425
   6    41.5643744   91.2212013   54.2804274
   1    39.8694905   90.8256929   53.7069390
   1    41.6889362   93.0412727   54.4620767
   6    42.4378187   87.4824431   56.9691933
   6    42.8379986   86.2619124   54.5028066
   6    43.4614726   87.5279580   52.3420425
   6    43.4522221   90.3409858   52.3114207
   1    45.1240474   90.9826407   52.7050437
   1    42.9691359   90.9538669   50.6536854
   6    43.9955940   85.6398759   50.5802527
   6    44.8856909   85.9678968   47.9494600
   6    42.4286867   81.6254128   55.5763507
   6    40.3519802   81.7156577   57.1404371
   1    39.3043745   83.1274032   57.1288425
   6    39.8243665   79.7145733   58.7220641
   6    43.9497841   79.5045248   55.5332425
   1    45.3322613   79.4286667   54.4501848
   1    45.3126513   83.9827687   44.9366390
   1    44.1050135   82.6408650   47.0236731
   7    41.9960723   90.0218586   56.7581115
   7    43.0071235   83.7368838   53.9979940
   7    43.6892614   83.3350975   51.5738237
   7    44.8100320   83.9155428   46.5016173
   8    42.6516055   86.4044733   58.9830920
   8    45.6850240   88.0155425   47.2600252
   6    40.0717276   96.1449155   67.1659306
   1    41.3835196   97.3102529   66.6304964
   1    40.8859751   94.5715138   67.6353646
   6    38.8100888   97.1951578   69.4025058
   1    37.9796175   95.8323278   70.3080764
   1    40.0761902   97.9118861   70.5161852
   6    36.9269241   99.1543896   68.7980983
   1    36.0622498   99.6566225   70.3348333
   1    37.7840917  100.6296989   68.1259069
   6    36.0704342   96.7345160   64.7578143
   6    41.4310265   95.0311092   61.6103172
   1    42.2093983   96.5490561   62.0372375
   6    39.3766424   94.1961469   62.9758083
   6    38.2659786   91.9298207   62.3502927
   1    36.9144242   91.3305416   63.3007553
   6    39.1397813   90.5458026   60.3328263
   1    38.3569824   89.0312564   59.9056087
   6    42.3368386   93.6206717   59.6127699
   1    38.4251733   79.7765676   59.7807434
   7    38.3757601   95.6670094   65.0233017
   6    29.6544240   47.7239028   82.0308459
   1    30.9662160   46.5585654   81.4954117
   1    30.4686716   49.2973045   82.5002799
   6    28.3927852   46.6736605   84.2674211
   1    27.5623139   48.0364905   85.1729917
   1    29.6588866   45.9569322   85.3811005
   6    26.5096205   44.7144287   83.6630136
   1    25.6449462   44.2121958   85.1997486
   1    27.3667881   43.2391194   82.9908222
   6    24.6147505   45.6268186   81.7840883
   1    23.3796107   46.6553499   82.6637940
   1    23.7317502   44.1729588   81.1029779
   6    25.6531306   47.1343022   79.6227296
   6    31.0137230   48.8377091   76.4752325
   1    31.7920947   47.3197622   76.9021529
   6    28.9593388   49.6726714   77.8407236
   6    27.8486750   51.9389976   77.2152080
   6    31.9195350   50.2481466   74.4776852
   1    33.3237144   49.6922898   73.5783578
   1    31.2716326   50.8275456   69.3269920
   7    27.9584566   48.2018089   79.8882170
   8    24.4158025   47.4016367   77.6781014
   1    26.4971206   52.5382766   78.1656706
   6    28.7224777   53.3230157   75.1977417
   1    27.9396789   54.8375619   74.7705240
   6    30.7477649   52.4762823   73.8120343
   6    31.1470708   52.6476170   69.1453427
   1    29.4521869   53.0431254   68.5718543
   6    32.0205151   56.3863752   71.8341086
   6    32.4206950   57.6069059   69.3677219
   6    33.0441690   56.3408603   67.2069578
   6    33.0349185   53.5278325   67.1763361
   1    34.7067438   52.8861776   67.5699590
   1    32.5518323   52.9149514   65.5186007
   6    33.5782904   58.2289424   65.4451680
   6    34.4683873   57.9009214   62.8143753
   6    32.0113831   62.2434055   70.4412660
   6    29.9346766   62.1531606   72.0053525
   1    28.8870709   60.7414151   71.9937578
   6    29.4070629   64.1542450   73.5869794
   1    28.0078697   64.0922507   74.6456587
   6    30.9498061   66.2419124   73.5964930
   6    32.9894635   66.3538685   71.9637307
   1    33.9991037   67.7909872   71.9283522
   6    33.5324806   64.3642935   70.3981578
   1    34.9149578   64.4401516   69.3151001
   6    28.7358575   68.0716622   77.0288019
   1    28.7689007   69.5488026   78.0824271
   1    29.0335542   66.5981839   78.0437783
   1    27.1117762   67.9374718   76.2302587
   1    34.8953477   59.8860496   59.8015543
   1    33.6877099   61.2279533   61.8885884
   7    31.5787687   53.8469597   71.6230268
   7    32.5898199   60.1319345   68.8629093
   7    33.2719579   60.5337208   66.4387390
   7    34.3927284   59.9532755   61.3665326
   8    32.2343019   57.4643450   73.8480073
   8    35.2677204   55.8532758   62.1249405
   8    30.6394466   68.2668006   75.1561199
   1    43.1604586   52.0935912   70.4834824
   6    40.9351014   51.3088522   73.4514114
   1    41.7179003   49.7943059   73.8786291
   6    38.9098143   52.1555856   74.8371188
   6    38.5105083   51.9842509   79.5038103
   1    40.2053923   51.5887424   80.0772988
   6    37.6370641   48.2454927   76.8150444
   6    37.2368841   47.0249620   79.2814312
   6    36.6134102   48.2910076   81.4421953
   6    36.6226606   51.1040353   81.4728170
   1    34.9508353   51.7456902   81.0791941
   1    37.1057468   51.7169165   83.1305524
   6    36.0792887   46.4029255   83.2039850
   6    35.1891918   46.7309464   85.8347778
   6    37.6461960   42.3884623   78.2078870
   6    39.7229025   42.4787073   76.6438006
   1    40.7705083   43.8904528   76.6553953
   6    40.2505162   40.4776228   75.0621736
   1    41.6497094   40.5396172   74.0034944
   6    38.7077731   38.3899555   75.0526601
   6    36.6681156   38.2779994   76.6854224
   1    35.6584754   36.8408807   76.7208009
   6    36.1250986   40.2675743   78.2509953
   1    34.7426214   40.1917162   79.3340530
   6    40.9217217   36.5602057   71.6203511
   1    40.8886785   35.0830653   70.5667259
   1    40.6240250   38.0336840   70.6053747
   1    42.5458029   36.6943961   72.4188944
   1    34.7622314   44.7458183   88.8475988
   1    35.9698693   43.4039146   86.7605647
   7    38.0788104   50.7849081   77.0261262
   7    37.0677592   44.4999334   79.7862437
   7    36.3856213   44.0981470   82.2104141
   7    35.2648507   44.6785923   87.2826205
   8    37.4232773   47.1675229   74.8011457
   8    34.3898587   48.7785920   86.5242125
   8    39.0181325   36.3650672   73.4930332
   6    40.0031552   56.9079650   66.6183071
   1    38.6913632   58.0733025   67.1537414
   1    39.1889076   55.3345633   66.1488731
   6    41.2647939   57.9582074   64.3817320
   1    42.0952652   56.5953773   63.4761613
   1    39.9986925   58.6749357   63.2680525
   6    43.1479586   59.9174391   64.9861394
   1    44.0126330   60.4196721   63.4494045
   1    42.2907910   61.3927485   65.6583309
   6    45.0428286   59.0050492   66.8650647
   1    46.2779685   57.9765180   65.9853590
   1    45.9258289   60.4589090   67.5461751
   6    44.0044486   57.4975656   69.0264234
   6    38.6438562   55.7941588   72.1739206
   1    37.8654845   57.3121056   71.7470002
   6    40.6982403   54.9591965   70.8084295
   6    41.8089041   52.6928702   71.4339451
   6    37.7380442   54.3837212   74.1714679
   1    36.3338648   54.9395780   75.0707953
   1    38.3859465   53.8043222   79.3221611
   7    41.6991226   56.4300590   68.7609360
   8    45.2417766   57.2302312   70.9710516
   1    43.1604586  104.4095251   70.4834824
   6    40.9351014  103.6247861   73.4514114
   1    41.7179003  102.1102398   73.8786291
   6    38.9098143  104.4715195   74.8371188
   6    38.5105083  104.3001848   79.5038103
   1    40.2053923  103.9046764   80.0772988
   6    37.6370641  100.5614266   76.8150444
   6    37.2368841   99.3408959   79.2814312
   6    36.6134102  100.6069415   81.4421953
   6    36.6226606  103.4199692   81.4728170
   1    34.9508353  104.0616242   81.0791941
   1    37.1057468  104.0328504   83.1305524
   6    36.0792887   98.7188594   83.2039850
   6    35.1891918   99.0468803   85.8347778
   6    37.6461960   94.7043962   78.2078870
   6    39.7229025   94.7946412   76.6438006
   1    40.7705083   96.2063867   76.6553953
   6    40.2505162   92.7935567   75.0621736
   1    41.6497094   92.8555511   74.0034944
   6    38.7077731   90.7058894   75.0526601
   6    36.6681156   90.5939333   76.6854224
   1    35.6584754   89.1568146   76.7208009
   6    36.1250986   92.5835083   78.2509953
   1    34.7426214   92.5076502   79.3340530
   6    40.9217217   88.8761396   71.6203511
   1    40.8886785   87.3989992   70.5667259
   1    40.6240250   90.3496179   70.6053747
   1    42.5458029   89.0103300   72.4188944
   1    34.7622314   97.0617522   88.8475988
   1    35.9698693   95.7198485   86.7605647
   7    38.0788104  103.1008420   77.0261262
   7    37.0677592   96.8158673   79.7862437
   7    36.3856213   96.4140810   82.2104141
   7    35.2648507   96.9945262   87.2826205
   8    37.4232773   99.4834568   74.8011457
   8    34.3898587  101.0945260   86.5242125
   8    39.0181325   88.6810012   73.4930332
   6    40.0031552  109.2238989   66.6183071
   1    38.6913632  110.3892364   67.1537414
   1    39.1889076  107.6504972   66.1488731
   6    41.2647939  110.2741413   64.3817320
   1    42.0952652  108.9113112   63.4761613
   1    39.9986925  110.9908696   63.2680525
   6    43.1479586  112.2333730   64.9861394
   1    44.0126330  112.7356060   63.4494045
   1    42.2907910  113.7086824   65.6583309
   6    45.0428286  111.3209832   66.8650647
   1    46.2779685  110.2924519   65.9853590
   1    45.9258289  112.7748430   67.5461751
   6    44.0044486  109.8134995   69.0264234
   6    38.6438562  108.1100927   72.1739206
   1    37.8654845  109.6280395   71.7470002
   6    40.6982403  107.2751304   70.8084295
   6    41.8089041  105.0088041   71.4339451
   6    37.7380442  106.6996551   74.1714679
   1    36.3338648  107.2555119   75.0707953
   1    38.3859465  106.1202562   79.3221611
   7    41.6991226  108.7459929   68.7609360
   8    45.2417766  109.5461651   70.9710516
   6    29.5858516   86.9608533   81.4832224
   1    28.2740596   85.7955158   82.0186567
   1    28.7716040   88.5342550   81.0137884
   6    30.8474903   85.9106109   79.2466473
   1    31.6779616   87.2734410   78.3410766
   1    29.5813889   85.1938826   78.1329678
   6    32.7306550   83.9513792   79.8510547
   1    33.5953294   83.4491462   78.3143198
   1    31.8734874   82.4760698   80.5232462
   6    33.5871450   86.3712527   83.8913387
   6    28.2265526   88.0746595   87.0388359
   1    27.4481809   86.5567127   86.6119155
   6    30.2809367   88.9096218   85.6733448
   6    31.3916005   91.1759481   86.2988604
   1    32.7431550   91.7752271   85.3483977
   6    30.5177979   92.5599661   88.3163267
   1    31.3005967   94.0745124   88.7435444
   6    27.3207406   89.4850971   89.0363832
   1    31.2324059  103.3292011   88.8684097
   7    31.2818190   87.4387593   83.6258513
   6    28.4925107   91.7132327   89.7020341
   1    25.9165612   88.9292403   89.9357106
   6    28.0932047   91.8845674   94.3687256
   1    29.7880887   92.2800758   94.9422141
   1    27.9686430   90.0644960   94.1870764
   6    27.2197605   95.6233256   91.6799598
   6    26.8195805   96.8438563   94.1463465
   6    26.1961066   95.5778107   96.3071106
   6    26.2053570   92.7647830   96.3377323
   1    24.5335318   92.1231280   95.9441094
   1    26.6884432   92.1519018   97.9954677
   6    25.6619852   97.4658928   98.0689003
   6    24.7718883   97.1378719  100.6996931
   6    27.2288924  101.4803560   93.0728023
   6    29.3055989  101.3901110   91.5087159
   1    30.3532047   99.9783655   91.5203106
   6    29.8332126  103.3911955   89.9270889
   6    25.7077950  103.6012440   93.1159106
   1    24.3253178  103.6771021   94.1989683
   1    24.3449278   99.1230000  103.7125141
   1    25.5525657  100.4649037  101.6254800
   7    27.6615068   93.0839102   91.8910415
   7    26.6504556   99.3688849   94.6511590
   7    25.9683177   99.7706713   97.0753294
   7    24.8475471   99.1902260  102.1475358
   8    27.0059737   96.7012954   89.6660610
   8    23.9725551   95.0902262  101.3891278
   6    30.5044181  107.3086126   86.4852664
   1    30.4713749  108.7857530   85.4316413
   1    30.2067214  105.8351343   85.4702900
   1    32.1284993  107.1744222   87.2838097
   8    28.6008289  107.5037510   88.3579485
   6    28.2904695  105.4788628   89.9175754
   6    26.2508121  105.5908189   91.5503377
   1    25.2411719  107.0279376   91.5857162
   6    34.6255250   84.8637691   81.7299800
   1    35.8606649   85.8923003   80.8502743
   1    35.5085253   83.4099093   82.4110905
   8    34.8244730   86.6385871   85.8359669
   6    50.4204587   86.9608533   51.7533918
   1    49.1086667   85.7955158   52.2888261
   1    49.6062112   88.5342550   51.2839578
   6    51.6820975   85.9106109   49.5168167
   1    52.5125688   87.2734410   48.6112460
   1    50.4159961   85.1938826   48.4031372
   6    53.5652622   83.9513792   50.1212241
   1    54.4299365   83.4491462   48.5844892
   1    52.7080946   82.4760698   50.7934156
   6    54.4217521   86.3712527   54.1615081
   6    49.0611598   88.0746595   57.3090053
   1    48.2827881   86.5567127   56.8820849
   6    51.1155439   88.9096218   55.9435142
   6    52.2262077   91.1759481   56.5690298
   1    53.5777621   91.7752271   55.6185671
   6    51.3524050   92.5599661   58.5864961
   1    52.1352039   94.0745124   59.0137138
   6    48.1553477   89.4850971   59.3065526
   1    52.0670130  103.3292011   59.1385791
   7    52.1164262   87.4387593   53.8960207
   6    49.3271179   91.7132327   59.9722035
   1    46.7511684   88.9292403   60.2058800
   6    48.9278119   91.8845674   64.6388950
   1    50.6226958   92.2800758   65.2123834
   1    48.8032501   90.0644960   64.4572458
   6    48.0543676   95.6233256   61.9501291
   6    47.6541877   96.8438563   64.4165159
   6    47.0307138   95.5778107   66.5772800
   6    47.0399642   92.7647830   66.6079017
   1    45.3681389   92.1231280   66.2142787
   1    47.5230504   92.1519018   68.2656371
   6    46.4965923   97.4658928   68.3390697
   6    45.6064954   97.1378719   70.9698625
   6    48.0634996  101.4803560   63.3429717
   6    50.1402061  101.3901110   61.7788853
   1    51.1878119   99.9783655   61.7904799
   6    50.6678198  103.3911955   60.1972583
   6    46.5424022  103.6012440   63.3860800
   1    45.1599250  103.6771021   64.4691377
   1    45.1795350   99.1230000   73.9826835
   1    46.3871728  100.4649037   71.8956494
   7    48.4961140   93.0839102   62.1612109
   7    47.4850628   99.3688849   64.9213284
   7    46.8029249   99.7706713   67.3454988
   7    45.6821543   99.1902260   72.4177052
   8    47.8405808   96.7012954   59.9362304
   8    44.8071623   95.0902262   71.6592972
   6    51.3390252  107.3086126   56.7554358
   1    51.3059821  108.7857530   55.7018106
   1    51.0413286  105.8351343   55.7404594
   1    52.9631065  107.1744222   57.5539791
   8    49.4354361  107.5037510   58.6281179
   6    49.1250767  105.4788628   60.1877448
   6    47.0854192  105.5908189   61.8205071
   1    46.0757790  107.0279376   61.8558856
   6    55.4601322   84.8637691   52.0001494
   1    56.6952721   85.8923003   51.1204437
   1    56.3431325   83.4099093   52.6812598
   8    55.6590802   86.6385871   56.1061363

    * Orbital Energies and Occupations

         #    Occupation            Energy/Eh            Energy/eV
      -------------------------------------------------------------
         1        2.0000           -0.7284262             -19.8215
       ...           ...                  ...                  ...
      1206        2.0000           -0.3740286             -10.1778
      1207        2.0000           -0.3738307             -10.1725
      1208        2.0000           -0.3735731             -10.1654
      1209        2.0000           -0.3731422             -10.1537
      1210        2.0000           -0.3728179             -10.1449
      1211        2.0000           -0.3721291             -10.1261
      1212        2.0000           -0.3719112             -10.1202
      1213        2.0000           -0.3718137             -10.1176
      1214        2.0000           -0.3703090             -10.0766
      1215        2.0000           -0.3691834             -10.0460
      1216        2.0000           -0.3675052             -10.0003
      1217        2.0000           -0.3639594              -9.9038
      1218        2.0000           -0.3625251              -9.8648 (HOMO)
      1219                         -0.2777423              -7.5578 (LUMO)
      1220                         -0.2774989              -7.5511
      1221                         -0.2764715              -7.5232
      1222                         -0.2760565              -7.5119
      1223                         -0.2742965              -7.4640
      1224                         -0.2738215              -7.4511
      1225                         -0.2695271              -7.3342
      1226                         -0.2664665              -7.2509
      1227                         -0.2647137              -7.2032
      1228                         -0.2633244              -7.1654
      1229                         -0.2610232              -7.1028
       ...                                ...                  ...
      2254                          0.8977339              24.4286
      -------------------------------------------------------------
                  HL-Gap            0.0847828 Eh            2.3071 eV
             Fermi-level           -0.3201337 Eh           -8.7113 eV

     #   Z          covCN         q      C6AA      ﾎｱ(0)
     1   1 H        0.930     0.074     2.037     2.232
     2   6 C        2.936    -0.051    29.261     8.872
     3   1 H        0.930     0.094     1.841     2.122
     4   6 C        2.928     0.068    26.486     8.440
     5   6 C        3.764    -0.017    20.915     6.519
     6   1 H        0.930     0.066     2.125     2.279
     7   6 C        2.767     0.275    22.355     7.743
     8   6 C        3.096    -0.004    28.007     8.673
     9   6 C        3.070    -0.023    28.498     8.753
    10   6 C        3.821    -0.085    22.102     6.690
    11   1 H        0.930     0.069     2.099     2.265
    12   1 H        0.930     0.079     1.988     2.205
    13   6 C        3.172     0.019    27.217     8.522
    14   6 C        2.748     0.277    22.313     7.735
    15   6 C        2.920     0.036    27.192     8.551
    16   6 C        2.934    -0.046    29.131     8.852
    17   1 H        0.930     0.093     1.854     2.129
    18   6 C        2.932    -0.073    29.831     8.957
    19   1 H        0.930     0.105     1.737     2.061
    20   6 C        2.878     0.147    24.801     8.164
    21   6 C        2.936    -0.076    29.891     8.966
    22   1 H        0.930     0.071     2.075     2.252
    23   6 C        2.932    -0.054    29.350     8.885
    24   1 H        0.930     0.069     2.094     2.263
    25   6 C        3.664     0.009    20.685     6.523
    26   1 H        0.930     0.064     2.149     2.292
    27   1 H        0.930     0.054     2.270     2.356
    28   1 H        0.930     0.084     1.941     2.178
    29   1 H        0.862     0.228     0.972     1.544
    30   1 H        0.863     0.210     1.056     1.609
    31   7 N        2.745    -0.113    23.457     7.193
    32   7 N        3.019     0.093    19.638     6.582
    33   7 N        1.991    -0.255    27.453     7.771
    34   7 N        2.645    -0.286    27.376     7.771
    35   8 O        0.858    -0.446    22.611     6.375
    36   8 O        0.860    -0.474    23.212     6.460
    37   8 O        1.705    -0.285    18.738     5.844
    38   6 C        3.762    -0.010    20.795     6.500
    39   1 H        0.930     0.055     2.261     2.351
    40   1 H        0.930     0.062     2.171     2.304
    41   6 C        3.827    -0.084    22.076     6.686
    42   1 H        0.930     0.064     2.156     2.296
    43   1 H        0.930     0.072     2.066     2.247
    44   6 C        3.825    -0.084    22.079     6.686
    45   1 H        0.930     0.073     2.057     2.242
    46   1 H        0.930     0.044     2.394     2.419
    47   6 C        3.826    -0.109    22.567     6.760
    48   1 H        0.930     0.077     2.005     2.214
    49   1 H        0.930     0.072     2.058     2.243
    50   6 C        2.766     0.266    22.507     7.770
    51   6 C        2.935    -0.058    29.437     8.898
    52   1 H        0.930     0.072     2.067     2.248
    53   6 C        2.930     0.062    26.620     8.461
    54   6 C        2.938    -0.053    29.307     8.879
    55   6 C        2.935    -0.059    29.464     8.902
    56   1 H        0.930     0.077     2.010     2.217
    57   1 H        0.930     0.072     2.063     2.246
    58   7 N        2.739    -0.114    23.489     7.198
    59   8 O        0.859    -0.494    23.642     6.519
    60   6 C        3.762    -0.009    20.781     6.498
    61   1 H        0.930     0.053     2.281     2.362
    62   1 H        0.930     0.060     2.200     2.320
    63   6 C        3.827    -0.085    22.092     6.688
    64   1 H        0.930     0.063     2.161     2.299
    65   1 H        0.930     0.076     2.025     2.225
    66   6 C        3.825    -0.085    22.105     6.690
    67   1 H        0.930     0.076     2.019     2.222
    68   1 H        0.930     0.042     2.425     2.435
    69   6 C        3.826    -0.111    22.596     6.764
    70   1 H        0.930     0.079     1.992     2.207
    71   1 H        0.930     0.070     2.081     2.256
    72   6 C        2.766     0.265    22.532     7.774
    73   6 C        2.935    -0.053    29.309     8.879
    74   1 H        0.930     0.074     2.037     2.232
    75   6 C        2.930     0.070    26.435     8.432
    76   6 C        2.938    -0.046    29.150     8.855
    77   6 C        2.935    -0.055    29.376     8.889
    78   1 H        0.930     0.079     1.985     2.203
    79   1 H        0.930     0.076     2.023     2.224
    80   7 N        2.739    -0.118    23.564     7.210
    81   8 O        0.859    -0.475    23.248     6.465
    82   1 H        0.930     0.074     2.036     2.231
    83   6 C        2.936    -0.050    29.230     8.867
    84   1 H        0.930     0.068     2.108     2.270
    85   6 C        2.928     0.064    26.560     8.452
    86   6 C        3.764    -0.016    20.895     6.515
    87   1 H        0.930     0.061     2.183     2.311
    88   6 C        2.767     0.267    22.492     7.767
    89   6 C        3.096    -0.010    28.140     8.694
    90   6 C        3.070    -0.019    28.409     8.740
    91   6 C        3.821    -0.085    22.106     6.691
    92   1 H        0.930     0.074     2.042     2.234
    93   1 H        0.930     0.084     1.934     2.174
    94   6 C        3.172     0.021    27.152     8.512
    95   6 C        2.748     0.276    22.322     7.736
    96   6 C        2.920     0.045    26.992     8.520
    97   6 C        2.934    -0.044    29.102     8.847
    98   1 H        0.930     0.070     2.082     2.256
    99   6 C        2.932    -0.082    30.051     8.990
   100   1 H        0.930     0.069     2.100     2.266
   101   6 C        2.878     0.145    24.836     8.170
   102   6 C        2.936    -0.066    29.642     8.929
   103   1 H        0.930     0.084     1.936     2.176
   104   6 C        2.932    -0.044    29.083     8.844
   105   1 H        0.930     0.081     1.969     2.194
   106   6 C        3.664     0.012    20.642     6.517
   107   1 H        0.930     0.077     2.008     2.216
   108   1 H        0.930     0.056     2.244     2.342
   109   1 H        0.930     0.058     2.221     2.331
   110   1 H        0.862     0.206     1.076     1.625
   111   1 H        0.863     0.217     1.021     1.582
   112   7 N        2.745    -0.116    23.517     7.202
   113   7 N        3.019     0.092    19.646     6.583
   114   7 N        1.991    -0.242    27.124     7.724
   115   7 N        2.645    -0.284    27.328     7.764
   116   8 O        0.858    -0.454    22.782     6.399
   117   8 O        0.860    -0.461    22.928     6.420
   118   8 O        1.705    -0.276    18.583     5.820
   119   6 C        3.762    -0.013    20.851     6.509
   120   1 H        0.930     0.062     2.176     2.307
   121   1 H        0.930     0.064     2.150     2.293
   122   6 C        3.827    -0.084    22.085     6.687
   123   1 H        0.930     0.057     2.238     2.339
   124   1 H        0.930     0.060     2.201     2.320
   125   6 C        3.825    -0.080    21.998     6.674
   126   1 H        0.930     0.051     2.302     2.372
   127   1 H        0.930     0.055     2.260     2.351
   128   6 C        3.826    -0.106    22.497     6.749
   129   1 H        0.930     0.072     2.059     2.244
   130   1 H        0.930     0.078     2.001     2.212
   131   6 C        2.766     0.269    22.458     7.761
   132   6 C        2.935    -0.061    29.509     8.909
   133   1 H        0.930     0.066     2.126     2.280
   134   6 C        2.930     0.061    26.633     8.463
   135   6 C        2.938    -0.050    29.247     8.869
   136   6 C        2.935    -0.060    29.496     8.907
   137   1 H        0.930     0.070     2.084     2.257
   138   1 H        0.930     0.068     2.112     2.272
   139   7 N        2.739    -0.107    23.349     7.177
   140   8 O        0.859    -0.494    23.654     6.521
   141   1 H        0.930     0.074     2.037     2.232
   142   6 C        2.936    -0.047    29.163     8.857
   143   1 H        0.930     0.096     1.817     2.108
   144   6 C        2.928     0.072    26.383     8.423
   145   6 C        3.764    -0.015    20.883     6.514
   146   1 H        0.930     0.063     2.163     2.300
   147   6 C        2.767     0.275    22.343     7.741
   148   6 C        3.096    -0.003    27.989     8.671
   149   6 C        3.070    -0.019    28.411     8.740
   150   6 C        3.821    -0.084    22.082     6.687
   151   1 H        0.930     0.075     2.033     2.229
   152   1 H        0.930     0.080     1.981     2.201
   153   6 C        3.172     0.024    27.096     8.503
   154   6 C        2.748     0.278    22.291     7.731
   155   6 C        2.920     0.038    27.146     8.544
   156   6 C        2.934    -0.046    29.152     8.855
   157   1 H        0.930     0.091     1.869     2.138
   158   6 C        2.932    -0.075    29.879     8.964
   159   1 H        0.930     0.099     1.792     2.093
   160   6 C        2.878     0.145    24.841     8.171
   161   6 C        2.936    -0.075    29.867     8.963
   162   1 H        0.930     0.070     2.085     2.258
   163   6 C        2.932    -0.056    29.383     8.890
   164   1 H        0.930     0.072     2.060     2.244
   165   6 C        3.664     0.007    20.726     6.530
   166   1 H        0.930     0.061     2.186     2.312
   167   1 H        0.930     0.064     2.156     2.296
   168   1 H        0.930     0.074     2.044     2.236
   169   1 H        0.862     0.228     0.973     1.545
   170   1 H        0.863     0.205     1.082     1.629
   171   7 N        2.745    -0.116    23.522     7.203
   172   7 N        3.019     0.089    19.699     6.592
   173   7 N        1.991    -0.255    27.434     7.768
   174   7 N        2.645    -0.285    27.352     7.767
   175   8 O        0.858    -0.435    22.387     6.344
   176   8 O        0.860    -0.463    22.972     6.426
   177   8 O        1.705    -0.287    18.775     5.850
   178   6 C        3.826    -0.107    22.512     6.752
   179   1 H        0.930     0.074     2.039     2.233
   180   1 H        0.930     0.076     2.016     2.220
   181   8 O        0.859    -0.492    23.602     6.514
   182   6 C        2.878     0.145    24.837     8.170
   183   6 C        2.936    -0.073    29.824     8.956
   184   1 H        0.930     0.072     2.066     2.248
   185   6 C        3.664     0.010    20.666     6.520
   186   1 H        0.930     0.065     2.145     2.290
   187   1 H        0.930     0.057     2.228     2.334
   188   1 H        0.930     0.070     2.089     2.260
   189   8 O        1.705    -0.286    18.756     5.847
   190   6 C        2.928     0.073    26.373     8.422
   191   1 H        0.930     0.068     2.108     2.270
   192   6 C        3.764    -0.016    20.894     6.515
   193   1 H        0.930     0.065     2.135     2.285
   194   1 H        0.930     0.068     2.110     2.271
   195   6 C        2.767     0.276    22.327     7.738
   196   6 C        3.096    -0.003    27.983     8.670
   197   6 C        3.070    -0.018    28.392     8.737
   198   6 C        3.821    -0.085    22.095     6.689
   199   1 H        0.930     0.073     2.052     2.240
   200   1 H        0.930     0.084     1.943     2.179
   201   6 C        3.172     0.026    27.054     8.496
   202   6 C        2.748     0.277    22.305     7.733
   203   6 C        2.920     0.041    27.080     8.534
   204   6 C        2.934    -0.046    29.133     8.852
   205   1 H        0.930     0.093     1.850     2.127
   206   6 C        2.932    -0.073    29.832     8.957
   207   6 C        2.932    -0.054    29.337     8.883
   208   1 H        0.930     0.075     2.033     2.229
   209   1 H        0.862     0.230     0.965     1.539
   210   1 H        0.863     0.204     1.084     1.631
   211   7 N        2.745    -0.115    23.512     7.202
   212   7 N        3.019     0.088    19.711     6.594
   213   7 N        1.991    -0.253    27.396     7.763
   214   7 N        2.645    -0.285    27.347     7.767
   215   8 O        0.858    -0.439    22.473     6.356
   216   8 O        0.860    -0.455    22.803     6.402
   217   6 C        3.762    -0.013    20.851     6.509
   218   1 H        0.930     0.061     2.188     2.313
   219   1 H        0.930     0.065     2.139     2.287
   220   6 C        3.827    -0.085    22.100     6.689
   221   1 H        0.930     0.057     2.228     2.334
   222   1 H        0.930     0.061     2.189     2.314
   223   6 C        3.825    -0.082    22.044     6.681
   224   1 H        0.930     0.056     2.242     2.341
   225   1 H        0.930     0.051     2.304     2.374
   226   6 C        2.766     0.266    22.521     7.772
   227   6 C        2.935    -0.061    29.515     8.910
   228   1 H        0.930     0.071     2.073     2.252
   229   6 C        2.930     0.060    26.663     8.468
   230   6 C        2.938    -0.047    29.178     8.859
   231   1 H        0.930     0.070     2.080     2.255
   232   6 C        2.936    -0.043    29.066     8.842
   233   1 H        0.930     0.097     1.809     2.103
   234   6 C        2.935    -0.060    29.495     8.907
   235   1 H        0.930     0.076     2.018     2.221
   236   7 N        2.739    -0.112    23.440     7.191
   237   6 C        3.826    -0.104    22.466     6.745
   238   1 H        0.930     0.072     2.058     2.243
   239   1 H        0.930     0.079     1.994     2.208
   240   8 O        0.859    -0.489    23.531     6.504
   241   6 C        2.878     0.146    24.830     8.169
   242   6 C        2.936    -0.075    29.883     8.965
   243   1 H        0.930     0.069     2.093     2.262
   244   6 C        3.664     0.013    20.628     6.514
   245   1 H        0.930     0.065     2.142     2.288
   246   1 H        0.930     0.053     2.286     2.364
   247   1 H        0.930     0.074     2.043     2.235
   248   8 O        1.705    -0.287    18.769     5.849
   249   6 C        2.928     0.072    26.388     8.424
   250   1 H        0.930     0.069     2.101     2.266
   251   6 C        3.764    -0.015    20.889     6.515
   252   1 H        0.930     0.066     2.126     2.280
   253   1 H        0.930     0.068     2.110     2.271
   254   6 C        2.767     0.276    22.329     7.739
   255   6 C        3.096    -0.002    27.958     8.666
   256   6 C        3.070    -0.018    28.385     8.736
   257   6 C        3.821    -0.085    22.102     6.690
   258   1 H        0.930     0.073     2.054     2.241
   259   1 H        0.930     0.081     1.967     2.193
   260   6 C        3.172     0.025    27.060     8.497
   261   6 C        2.748     0.280    22.266     7.727
   262   6 C        2.920     0.042    27.049     8.529
   263   6 C        2.934    -0.046    29.137     8.853
   264   1 H        0.930     0.093     1.845     2.124
   265   6 C        2.932    -0.074    29.844     8.959
   266   6 C        2.932    -0.054    29.339     8.883
   267   1 H        0.930     0.075     2.035     2.231
   268   1 H        0.862     0.230     0.967     1.540
   269   1 H        0.863     0.208     1.066     1.617
   270   7 N        2.745    -0.114    23.479     7.197
   271   7 N        3.019     0.089    19.701     6.592
   272   7 N        1.991    -0.252    27.373     7.759
   273   7 N        2.645    -0.285    27.347     7.767
   274   8 O        0.858    -0.439    22.483     6.357
   275   8 O        0.860    -0.463    22.979     6.427
   276   6 C        3.762    -0.012    20.828     6.505
   277   1 H        0.930     0.060     2.201     2.320
   278   1 H        0.930     0.063     2.166     2.301
   279   6 C        3.827    -0.084    22.079     6.686
   280   1 H        0.930     0.056     2.245     2.343
   281   1 H        0.930     0.059     2.209     2.324
   282   6 C        3.825    -0.080    22.011     6.676
   283   1 H        0.930     0.054     2.264     2.353
   284   1 H        0.930     0.053     2.283     2.362
   285   6 C        2.766     0.269    22.463     7.762
   286   6 C        2.935    -0.061    29.524     8.911
   287   1 H        0.930     0.064     2.152     2.294
   288   6 C        2.930     0.061    26.622     8.462
   289   6 C        2.938    -0.047    29.160     8.856
   290   1 H        0.930     0.072     2.063     2.246
   291   6 C        2.936    -0.042    29.055     8.840
   292   1 H        0.930     0.098     1.806     2.101
   293   6 C        2.935    -0.061    29.513     8.910
   294   1 H        0.930     0.075     2.032     2.229
   295   7 N        2.739    -0.110    23.413     7.186
   296   6 C        3.762    -0.012    20.826     6.505
   297   1 H        0.930     0.057     2.230     2.335
   298   1 H        0.930     0.054     2.269     2.355
   299   6 C        3.827    -0.083    22.069     6.685
   300   1 H        0.930     0.060     2.193     2.316
   301   1 H        0.930     0.067     2.116     2.275
   302   6 C        3.825    -0.081    22.029     6.679
   303   1 H        0.930     0.071     2.079     2.254
   304   1 H        0.930     0.046     2.374     2.409
   305   6 C        2.766     0.268    22.468     7.763
   306   6 C        2.935    -0.058    29.448     8.900
   307   1 H        0.930     0.065     2.141     2.288
   308   6 C        2.930     0.066    26.513     8.444
   309   6 C        2.938    -0.049    29.214     8.864
   310   1 H        0.930     0.074     2.043     2.235
   311   6 C        2.936    -0.047    29.179     8.859
   312   1 H        0.930     0.091     1.866     2.136
   313   6 C        2.935    -0.059    29.466     8.903
   314   1 H        0.930     0.092     1.854     2.129
   315   7 N        2.739    -0.112    23.438     7.190
   316   6 C        2.928     0.071    26.412     8.428
   317   1 H        0.930     0.068     2.105     2.269
   318   6 C        3.764    -0.011    20.812     6.503
   319   1 H        0.930     0.058     2.223     2.331
   320   1 H        0.930     0.067     2.119     2.276
   321   6 C        2.767     0.275    22.347     7.742
   322   6 C        3.096    -0.004    28.000     8.672
   323   6 C        3.070    -0.019    28.408     8.739
   324   6 C        3.821    -0.083    22.070     6.685
   325   1 H        0.930     0.076     2.022     2.223
   326   1 H        0.930     0.081     1.971     2.195
   327   6 C        3.172     0.022    27.129     8.508
   328   6 C        2.748     0.276    22.326     7.737
   329   6 C        2.920     0.041    27.073     8.533
   330   6 C        2.934    -0.046    29.144     8.854
   331   1 H        0.930     0.089     1.888     2.149
   332   6 C        2.932    -0.083    30.069     8.993
   333   6 C        2.932    -0.050    29.252     8.870
   334   1 H        0.930     0.076     2.021     2.223
   335   1 H        0.862     0.205     1.082     1.630
   336   1 H        0.863     0.211     1.050     1.605
   337   7 N        2.745    -0.115    23.503     7.200
   338   7 N        3.019     0.091    19.660     6.585
   339   7 N        1.991    -0.247    27.235     7.740
   340   7 N        2.645    -0.286    27.373     7.770
   341   8 O        0.858    -0.443    22.569     6.369
   342   8 O        0.860    -0.452    22.747     6.395
   343   6 C        3.664     0.013    20.627     6.514
   344   1 H        0.930     0.070     2.082     2.256
   345   1 H        0.930     0.057     2.231     2.335
   346   1 H        0.930     0.065     2.143     2.289
   347   8 O        1.705    -0.286    18.752     5.847
   348   6 C        2.878     0.142    24.906     8.181
   349   6 C        2.936    -0.071    29.781     8.950
   350   1 H        0.930     0.074     2.039     2.233
   351   6 C        3.826    -0.107    22.517     6.752
   352   1 H        0.930     0.074     2.038     2.232
   353   1 H        0.930     0.071     2.075     2.253
   354   8 O        0.859    -0.485    23.453     6.493
   355   6 C        3.762    -0.008    20.755     6.494
   356   1 H        0.930     0.053     2.284     2.363
   357   1 H        0.930     0.066     2.132     2.283
   358   6 C        3.827    -0.082    22.038     6.680
   359   1 H        0.930     0.058     2.223     2.331
   360   1 H        0.930     0.059     2.209     2.324
   361   6 C        3.825    -0.080    22.009     6.676
   362   1 H        0.930     0.051     2.303     2.373
   363   1 H        0.930     0.049     2.329     2.386
   364   6 C        2.766     0.268    22.476     7.764
   365   6 C        2.935    -0.054    29.347     8.885
   366   1 H        0.930     0.064     2.150     2.293
   367   6 C        2.930     0.070    26.436     8.432
   368   6 C        2.938    -0.043    29.072     8.843
   369   1 H        0.930     0.076     2.023     2.224
   370   6 C        2.936    -0.045    29.128     8.851
   371   1 H        0.930     0.073     2.054     2.241
   372   6 C        2.935    -0.057    29.412     8.894
   373   1 H        0.930     0.079     1.987     2.204
   374   7 N        2.739    -0.114    23.481     7.197
   375   6 C        2.928     0.067    26.509     8.444
   376   1 H        0.930     0.075     2.028     2.227
   377   6 C        3.764    -0.015    20.882     6.514
   378   1 H        0.930     0.061     2.185     2.312
   379   1 H        0.930     0.072     2.058     2.243
   380   6 C        2.767     0.268    22.484     7.766
   381   6 C        3.096    -0.010    28.141     8.694
   382   6 C        3.070    -0.020    28.434     8.743
   383   6 C        3.821    -0.085    22.108     6.691
   384   1 H        0.930     0.071     2.069     2.249
   385   1 H        0.930     0.087     1.910     2.161
   386   6 C        3.172     0.022    27.146     8.511
   387   6 C        2.748     0.274    22.372     7.745
   388   6 C        2.920     0.041    27.083     8.534
   389   6 C        2.934    -0.043    29.077     8.843
   390   1 H        0.930     0.072     2.062     2.245
   391   6 C        2.932    -0.071    29.776     8.949
   392   6 C        2.932    -0.050    29.243     8.869
   393   1 H        0.930     0.075     2.031     2.229
   394   1 H        0.862     0.230     0.966     1.539
   395   1 H        0.863     0.209     1.061     1.614
   396   7 N        2.745    -0.118    23.573     7.211
   397   7 N        3.019     0.089    19.702     6.592
   398   7 N        1.991    -0.252    27.376     7.760
   399   7 N        2.645    -0.288    27.437     7.779
   400   8 O        0.858    -0.447    22.638     6.379
   401   8 O        0.860    -0.457    22.846     6.408
   402   6 C        3.664     0.012    20.632     6.515
   403   1 H        0.930     0.066     2.124     2.279
   404   1 H        0.930     0.052     2.292     2.367
   405   1 H        0.930     0.077     2.005     2.214
   406   8 O        1.705    -0.281    18.665     5.833
   407   6 C        2.878     0.150    24.746     8.155
   408   6 C        2.936    -0.071    29.777     8.949
   409   1 H        0.930     0.077     2.013     2.218
   410   6 C        3.826    -0.107    22.518     6.752
   411   1 H        0.930     0.074     2.045     2.236
   412   1 H        0.930     0.075     2.029     2.228
   413   8 O        0.859    -0.469    23.109     6.445
   414   6 C        3.826    -0.113    22.629     6.769
   415   1 H        0.930     0.078     2.000     2.212
   416   1 H        0.930     0.069     2.091     2.261
   417   8 O        0.859    -0.476    23.249     6.465
   418   6 C        2.878     0.145    24.853     8.173
   419   6 C        2.936    -0.068    29.704     8.938
   420   1 H        0.930     0.077     2.007     2.215
   421   6 C        3.664     0.009    20.697     6.525
   422   1 H        0.930     0.072     2.065     2.247
   423   1 H        0.930     0.061     2.181     2.310
   424   1 H        0.930     0.064     2.154     2.295
   425   8 O        1.705    -0.281    18.663     5.833
   426   6 C        2.928     0.065    26.544     8.449
   427   1 H        0.930     0.082     1.959     2.189
   428   6 C        3.764    -0.014    20.870     6.512
   429   1 H        0.930     0.058     2.219     2.329
   430   1 H        0.930     0.075     2.027     2.226
   431   6 C        2.767     0.267    22.501     7.769
   432   6 C        3.096    -0.011    28.165     8.698
   433   6 C        3.070    -0.018    28.391     8.737
   434   6 C        3.821    -0.084    22.085     6.688
   435   1 H        0.930     0.077     2.011     2.217
   436   1 H        0.930     0.084     1.933     2.174
   437   6 C        3.172     0.022    27.142     8.510
   438   6 C        2.748     0.275    22.345     7.740
   439   6 C        2.920     0.041    27.074     8.533
   440   6 C        2.934    -0.042    29.040     8.838
   441   1 H        0.930     0.070     2.090     2.261
   442   6 C        2.932    -0.080    29.998     8.982
   443   6 C        2.932    -0.049    29.225     8.866
   444   1 H        0.930     0.076     2.018     2.221
   445   1 H        0.862     0.206     1.076     1.625
   446   1 H        0.863     0.213     1.041     1.598
   447   7 N        2.745    -0.117    23.539     7.206
   448   7 N        3.019     0.089    19.704     6.593
   449   7 N        1.991    -0.245    27.202     7.735
   450   7 N        2.645    -0.286    27.373     7.770
   451   8 O        0.858    -0.453    22.769     6.398
   452   8 O        0.860    -0.454    22.782     6.399
   453   6 C        3.762    -0.010    20.807     6.502
   454   1 H        0.930     0.054     2.270     2.356
   455   1 H        0.930     0.062     2.175     2.306
   456   6 C        3.827    -0.086    22.111     6.691
   457   1 H        0.930     0.063     2.161     2.299
   458   1 H        0.930     0.078     2.004     2.213
   459   6 C        3.825    -0.085    22.091     6.688
   460   1 H        0.930     0.072     2.065     2.247
   461   1 H        0.930     0.042     2.420     2.432
   462   6 C        2.766     0.265    22.530     7.774
   463   6 C        2.935    -0.051    29.273     8.873
   464   1 H        0.930     0.075     2.031     2.229
   465   6 C        2.930     0.070    26.441     8.433
   466   6 C        2.938    -0.049    29.224     8.866
   467   1 H        0.930     0.076     2.023     2.224
   468   6 C        2.936    -0.053    29.316     8.880
   469   1 H        0.930     0.066     2.125     2.280
   470   6 C        2.935    -0.053    29.322     8.881
   471   1 H        0.930     0.095     1.832     2.116
   472   7 N        2.739    -0.116    23.529     7.204
   473   6 C        3.826    -0.110    22.572     6.760
   474   1 H        0.930     0.078     2.004     2.214
   475   1 H        0.930     0.073     2.049     2.238
   476   8 O        0.859    -0.475    23.246     6.464
   477   6 C        2.878     0.145    24.835     8.170
   478   6 C        2.936    -0.067    29.678     8.934
   479   1 H        0.930     0.082     1.959     2.188
   480   6 C        3.664     0.012    20.646     6.517
   481   1 H        0.930     0.073     2.053     2.241
   482   1 H        0.930     0.056     2.246     2.343
   483   1 H        0.930     0.068     2.111     2.272
   484   8 O        1.705    -0.280    18.647     5.830
   485   6 C        2.928     0.065    26.539     8.448
   486   1 H        0.930     0.080     1.983     2.202
   487   6 C        3.764    -0.014    20.863     6.510
   488   1 H        0.930     0.059     2.215     2.327
   489   1 H        0.930     0.073     2.048     2.238
   490   6 C        2.767     0.267    22.496     7.768
   491   6 C        3.096    -0.011    28.175     8.699
   492   6 C        3.070    -0.020    28.425     8.742
   493   6 C        3.821    -0.084    22.083     6.687
   494   1 H        0.930     0.075     2.031     2.228
   495   1 H        0.930     0.084     1.934     2.174
   496   6 C        3.172     0.020    27.177     8.516
   497   6 C        2.748     0.275    22.355     7.742
   498   6 C        2.920     0.041    27.086     8.535
   499   6 C        2.934    -0.043    29.077     8.844
   500   1 H        0.930     0.068     2.107     2.270
   501   6 C        2.932    -0.081    30.027     8.987
   502   6 C        2.932    -0.047    29.155     8.855
   503   1 H        0.930     0.076     2.017     2.221
   504   1 H        0.862     0.206     1.076     1.625
   505   1 H        0.863     0.214     1.038     1.596
   506   7 N        2.745    -0.118    23.572     7.211
   507   7 N        3.019     0.092    19.648     6.583
   508   7 N        1.991    -0.244    27.183     7.732
   509   7 N        2.645    -0.286    27.379     7.771
   510   8 O        0.858    -0.452    22.741     6.394
   511   8 O        0.860    -0.456    22.827     6.406
   512   6 C        3.762    -0.008    20.770     6.496
   513   1 H        0.930     0.052     2.296     2.369
   514   1 H        0.930     0.059     2.215     2.327
   515   6 C        3.827    -0.082    22.050     6.682
   516   1 H        0.930     0.061     2.187     2.312
   517   1 H        0.930     0.069     2.095     2.264
   518   6 C        3.825    -0.084    22.075     6.686
   519   1 H        0.930     0.074     2.043     2.235
   520   1 H        0.930     0.044     2.394     2.420
   521   6 C        2.766     0.268    22.474     7.764
   522   6 C        2.935    -0.053    29.315     8.880
   523   1 H        0.930     0.066     2.127     2.281
   524   6 C        2.930     0.070    26.429     8.431
   525   6 C        2.938    -0.049    29.213     8.864
   526   1 H        0.930     0.077     2.012     2.218
   527   6 C        2.936    -0.052    29.302     8.878
   528   1 H        0.930     0.068     2.105     2.269
   529   6 C        2.935    -0.055    29.373     8.888
   530   1 H        0.930     0.095     1.828     2.114
   531   7 N        2.739    -0.115    23.506     7.201
   532   6 C        3.762    -0.008    20.761     6.495
   533   1 H        0.930     0.054     2.272     2.357
   534   1 H        0.930     0.065     2.135     2.285
   535   6 C        3.827    -0.082    22.042     6.680
   536   1 H        0.930     0.058     2.224     2.332
   537   1 H        0.930     0.060     2.199     2.319
   538   6 C        3.825    -0.081    22.016     6.677
   539   1 H        0.930     0.052     2.292     2.367
   540   1 H        0.930     0.050     2.319     2.381
   541   6 C        3.826    -0.107    22.522     6.753
   542   1 H        0.930     0.074     2.040     2.233
   543   1 H        0.930     0.076     2.021     2.223
   544   6 C        2.766     0.268    22.473     7.764
   545   6 C        2.935    -0.052    29.298     8.877
   546   1 H        0.930     0.066     2.124     2.279
   547   6 C        2.930     0.070    26.426     8.430
   548   6 C        2.938    -0.045    29.126     8.851
   549   6 C        2.935    -0.055    29.360     8.887
   550   1 H        0.930     0.080     1.980     2.200
   551   1 H        0.930     0.074     2.045     2.236
   552   7 N        2.739    -0.114    23.486     7.198
   553   8 O        0.859    -0.469    23.113     6.446
   554   1 H        0.930     0.074     2.037     2.232
   555   6 C        2.936    -0.048    29.197     8.862
   556   1 H        0.930     0.069     2.092     2.262
   557   6 C        2.928     0.066    26.527     8.447
   558   6 C        3.764    -0.014    20.869     6.511
   559   1 H        0.930     0.061     2.192     2.315
   560   6 C        2.767     0.268    22.482     7.765
   561   6 C        3.096    -0.010    28.138     8.694
   562   6 C        3.070    -0.019    28.412     8.740
   563   6 C        3.821    -0.084    22.086     6.688
   564   1 H        0.930     0.073     2.047     2.237
   565   1 H        0.930     0.082     1.953     2.185
   566   6 C        3.172     0.021    27.153     8.512
   567   6 C        2.748     0.277    22.312     7.735
   568   6 C        2.920     0.045    26.999     8.521
   569   6 C        2.934    -0.044    29.102     8.847
   570   1 H        0.930     0.069     2.094     2.263
   571   6 C        2.932    -0.081    30.035     8.988
   572   1 H        0.930     0.069     2.096     2.264
   573   6 C        2.878     0.146    24.823     8.168
   574   6 C        2.936    -0.066    29.643     8.929
   575   1 H        0.930     0.085     1.928     2.171
   576   6 C        2.932    -0.043    29.071     8.842
   577   1 H        0.930     0.082     1.961     2.190
   578   6 C        3.664     0.015    20.588     6.508
   579   1 H        0.930     0.077     2.011     2.217
   580   1 H        0.930     0.052     2.300     2.371
   581   1 H        0.930     0.061     2.181     2.309
   582   1 H        0.862     0.206     1.076     1.625
   583   1 H        0.863     0.218     1.018     1.580
   584   7 N        2.745    -0.116    23.533     7.205
   585   7 N        3.019     0.093    19.631     6.581
   586   7 N        1.991    -0.240    27.086     7.719
   587   7 N        2.645    -0.283    27.309     7.761
   588   8 O        0.858    -0.452    22.744     6.394
   589   8 O        0.860    -0.464    22.993     6.429
   590   8 O        1.705    -0.277    18.599     5.823
   591   1 H        0.930     0.076     2.015     2.220
   592   6 C        2.936    -0.048    29.198     8.862
   593   1 H        0.930     0.072     2.063     2.246
   594   6 C        2.928     0.065    26.549     8.450
   595   6 C        3.764    -0.018    20.946     6.523
   596   1 H        0.930     0.067     2.120     2.277
   597   6 C        2.767     0.267    22.486     7.766
   598   6 C        3.096    -0.009    28.131     8.693
   599   6 C        3.070    -0.017    28.367     8.733
   600   6 C        3.821    -0.085    22.098     6.690
   601   1 H        0.930     0.074     2.045     2.236
   602   1 H        0.930     0.086     1.922     2.168
   603   6 C        3.172     0.023    27.110     8.505
   604   6 C        2.748     0.279    22.284     7.730
   605   6 C        2.920     0.044    27.003     8.522
   606   6 C        2.934    -0.042    29.034     8.837
   607   1 H        0.930     0.072     2.062     2.245
   608   6 C        2.932    -0.078    29.952     8.975
   609   1 H        0.930     0.070     2.080     2.255
   610   6 C        2.878     0.145    24.836     8.170
   611   6 C        2.936    -0.067    29.658     8.932
   612   1 H        0.930     0.079     1.985     2.203
   613   6 C        2.932    -0.048    29.180     8.859
   614   1 H        0.930     0.078     1.996     2.209
   615   6 C        3.664     0.012    20.645     6.517
   616   1 H        0.930     0.074     2.042     2.234
   617   1 H        0.930     0.060     2.197     2.318
   618   1 H        0.930     0.058     2.225     2.332
   619   1 H        0.862     0.207     1.073     1.622
   620   1 H        0.863     0.214     1.037     1.595
   621   7 N        2.745    -0.117    23.537     7.205
   622   7 N        3.019     0.088    19.705     6.593
   623   7 N        1.991    -0.244    27.183     7.732
   624   7 N        2.645    -0.283    27.307     7.761
   625   8 O        0.858    -0.450    22.698     6.388
   626   8 O        0.860    -0.459    22.903     6.416
   627   8 O        1.705    -0.279    18.637     5.829
   628   6 C        3.762    -0.009    20.774     6.497
   629   1 H        0.930     0.053     2.278     2.360
   630   1 H        0.930     0.060     2.203     2.321
   631   6 C        3.827    -0.083    22.061     6.683
   632   1 H        0.930     0.063     2.167     2.302
   633   1 H        0.930     0.070     2.082     2.256
   634   6 C        3.825    -0.084    22.078     6.686
   635   1 H        0.930     0.072     2.063     2.246
   636   1 H        0.930     0.045     2.386     2.415
   637   6 C        3.826    -0.111    22.606     6.766
   638   1 H        0.930     0.079     1.987     2.204
   639   1 H        0.930     0.075     2.027     2.226
   640   6 C        2.766     0.267    22.488     7.766
   641   6 C        2.935    -0.055    29.366     8.887
   642   1 H        0.930     0.074     2.038     2.232
   643   6 C        2.930     0.066    26.525     8.446
   644   6 C        2.938    -0.047    29.170     8.858
   645   6 C        2.935    -0.057    29.412     8.894
   646   1 H        0.930     0.078     2.002     2.212
   647   1 H        0.930     0.078     2.002     2.213
   648   7 N        2.739    -0.116    23.529     7.204
   649   8 O        0.859    -0.479    23.313     6.474
   650   1 H        0.930     0.078     1.999     2.211
   651   6 C        2.936    -0.050    29.235     8.868
   652   1 H        0.930     0.071     2.074     2.252
   653   6 C        2.928     0.069    26.463     8.436
   654   6 C        3.764    -0.014    20.859     6.510
   655   1 H        0.930     0.058     2.227     2.334
   656   6 C        2.767     0.267    22.490     7.767
   657   6 C        3.096    -0.011    28.171     8.699
   658   6 C        3.070    -0.018    28.391     8.737
   659   6 C        3.821    -0.084    22.077     6.687
   660   1 H        0.930     0.075     2.028     2.227
   661   1 H        0.930     0.082     1.961     2.190
   662   6 C        3.172     0.025    27.069     8.499
   663   6 C        2.748     0.277    22.307     7.734
   664   6 C        2.920     0.040    27.114     8.539
   665   6 C        2.934    -0.046    29.146     8.854
   666   1 H        0.930     0.068     2.112     2.272
   667   6 C        2.932    -0.076    29.910     8.969
   668   1 H        0.930     0.100     1.787     2.090
   669   6 C        2.878     0.148    24.787     8.162
   670   6 C        2.936    -0.073    29.825     8.957
   671   1 H        0.930     0.075     2.031     2.228
   672   6 C        2.932    -0.051    29.256     8.871
   673   1 H        0.930     0.075     2.036     2.231
   674   6 C        3.664     0.009    20.687     6.524
   675   1 H        0.930     0.066     2.127     2.280
   676   1 H        0.930     0.054     2.269     2.355
   677   1 H        0.930     0.081     1.964     2.191
   678   1 H        0.862     0.229     0.970     1.543
   679   1 H        0.863     0.208     1.064     1.616
   680   7 N        2.745    -0.121    23.626     7.219
   681   7 N        3.019     0.089    19.694     6.591
   682   7 N        1.991    -0.247    27.244     7.741
   683   7 N        2.645    -0.284    27.339     7.766
   684   8 O        0.858    -0.446    22.619     6.376
   685   8 O        0.860    -0.460    22.926     6.420
   686   8 O        1.705    -0.282    18.685     5.836
   687   6 C        3.762    -0.012    20.828     6.506
   688   1 H        0.930     0.058     2.225     2.333
   689   1 H        0.930     0.061     2.189     2.314
   690   6 C        3.827    -0.084    22.071     6.685
   691   1 H        0.930     0.056     2.244     2.342
   692   1 H        0.930     0.059     2.213     2.326
   693   6 C        3.825    -0.080    22.012     6.676
   694   1 H        0.930     0.055     2.263     2.353
   695   1 H        0.930     0.051     2.310     2.377
   696   6 C        3.826    -0.108    22.548     6.757
   697   1 H        0.930     0.077     2.008     2.216
   698   1 H        0.930     0.077     2.009     2.216
   699   6 C        2.766     0.268    22.473     7.764
   700   6 C        2.935    -0.055    29.376     8.889
   701   1 H        0.930     0.067     2.121     2.277
   702   6 C        2.930     0.070    26.434     8.432
   703   6 C        2.938    -0.046    29.144     8.854
   704   6 C        2.935    -0.057    29.418     8.895
   705   1 H        0.930     0.070     2.086     2.258
   706   1 H        0.930     0.069     2.094     2.263
   707   7 N        2.739    -0.113    23.461     7.194
   708   8 O        0.859    -0.469    23.099     6.444
   709   6 C        3.762    -0.013    20.849     6.509
   710   1 H        0.930     0.058     2.217     2.328
   711   1 H        0.930     0.056     2.250     2.345
   712   6 C        3.827    -0.084    22.086     6.687
   713   1 H        0.930     0.060     2.199     2.319
   714   1 H        0.930     0.068     2.103     2.268
   715   6 C        3.825    -0.083    22.063     6.684
   716   1 H        0.930     0.073     2.056     2.242
   717   1 H        0.930     0.045     2.386     2.416
   718   6 C        2.766     0.265    22.536     7.774
   719   6 C        2.935    -0.058    29.433     8.898
   720   1 H        0.930     0.071     2.069     2.249
   721   6 C        2.930     0.064    26.565     8.453
   722   6 C        2.938    -0.048    29.204     8.863
   723   1 H        0.930     0.071     2.069     2.249
   724   6 C        2.936    -0.046    29.136     8.852
   725   1 H        0.930     0.092     1.859     2.132
   726   6 C        2.935    -0.057    29.425     8.896
   727   1 H        0.930     0.095     1.832     2.117
   728   7 N        2.739    -0.113    23.474     7.196
   729   6 C        2.928     0.072    26.380     8.423
   730   1 H        0.930     0.070     2.089     2.260
   731   6 C        3.764    -0.011    20.806     6.502
   732   1 H        0.930     0.056     2.242     2.341
   733   1 H        0.930     0.067     2.121     2.277
   734   6 C        2.767     0.276    22.339     7.741
   735   6 C        3.096    -0.003    27.975     8.668
   736   6 C        3.070    -0.020    28.429     8.743
   737   6 C        3.821    -0.083    22.063     6.685
   738   1 H        0.930     0.075     2.028     2.227
   739   1 H        0.930     0.079     1.986     2.204
   740   6 C        3.172     0.021    27.156     8.512
   741   6 C        2.748     0.276    22.327     7.737
   742   6 C        2.920     0.041    27.080     8.534
   743   6 C        2.934    -0.042    29.048     8.839
   744   1 H        0.930     0.090     1.879     2.144
   745   6 C        2.932    -0.078    29.946     8.975
   746   6 C        2.932    -0.051    29.263     8.872
   747   1 H        0.930     0.074     2.043     2.235
   748   1 H        0.862     0.203     1.090     1.635
   749   1 H        0.863     0.211     1.053     1.607
   750   7 N        2.745    -0.116    23.529     7.204
   751   7 N        3.019     0.092    19.644     6.583
   752   7 N        1.991    -0.249    27.283     7.747
   753   7 N        2.645    -0.287    27.396     7.774
   754   8 O        0.858    -0.436    22.405     6.346
   755   8 O        0.860    -0.454    22.792     6.401
   756   6 C        3.664     0.010    20.681     6.523
   757   1 H        0.930     0.067     2.122     2.278
   758   1 H        0.930     0.064     2.148     2.292
   759   1 H        0.930     0.061     2.181     2.309
   760   8 O        1.705    -0.286    18.751     5.847
   761   6 C        2.878     0.143    24.894     8.179
   762   6 C        2.936    -0.071    29.778     8.950
   763   1 H        0.930     0.073     2.056     2.242
   764   6 C        3.826    -0.109    22.557     6.758
   765   1 H        0.930     0.074     2.040     2.234
   766   1 H        0.930     0.069     2.094     2.263
   767   8 O        0.859    -0.487    23.494     6.499
   768   6 C        3.762    -0.009    20.782     6.498
   769   1 H        0.930     0.055     2.255     2.348
   770   1 H        0.930     0.069     2.098     2.265
   771   6 C        3.827    -0.083    22.068     6.684
   772   1 H        0.930     0.060     2.200     2.319
   773   1 H        0.930     0.062     2.171     2.304
   774   6 C        3.825    -0.083    22.054     6.683
   775   1 H        0.930     0.055     2.257     2.349
   776   1 H        0.930     0.049     2.328     2.386
   777   6 C        2.766     0.266    22.505     7.769
   778   6 C        2.935    -0.055    29.354     8.886
   779   1 H        0.930     0.074     2.041     2.234
   780   6 C        2.930     0.066    26.525     8.446
   781   6 C        2.938    -0.046    29.143     8.854
   782   1 H        0.930     0.076     2.020     2.222
   783   6 C        2.936    -0.048    29.180     8.859
   784   1 H        0.930     0.073     2.056     2.242
   785   6 C        2.935    -0.056    29.400     8.893
   786   1 H        0.930     0.070     2.079     2.255
   787   7 N        2.739    -0.115    23.507     7.201
   788   6 C        2.928     0.066    26.531     8.447
   789   1 H        0.930     0.079     1.992     2.207
   790   6 C        3.764    -0.019    20.958     6.525
   791   1 H        0.930     0.068     2.104     2.268
   792   1 H        0.930     0.078     2.002     2.212
   793   6 C        2.767     0.267    22.488     7.766
   794   6 C        3.096    -0.009    28.130     8.692
   795   6 C        3.070    -0.017    28.357     8.732
   796   6 C        3.821    -0.086    22.124     6.694
   797   1 H        0.930     0.073     2.057     2.242
   798   1 H        0.930     0.087     1.906     2.159
   799   6 C        3.172     0.024    27.084     8.501
   800   6 C        2.748     0.280    22.264     7.726
   801   6 C        2.920     0.046    26.975     8.517
   802   6 C        2.934    -0.041    29.008     8.833
   803   1 H        0.930     0.073     2.054     2.241
   804   6 C        2.932    -0.077    29.934     8.973
   805   6 C        2.932    -0.048    29.184     8.860
   806   1 H        0.930     0.078     1.998     2.210
   807   1 H        0.862     0.207     1.072     1.622
   808   1 H        0.863     0.217     1.024     1.585
   809   7 N        2.745    -0.116    23.528     7.204
   810   7 N        3.019     0.088    19.710     6.594
   811   7 N        1.991    -0.242    27.132     7.725
   812   7 N        2.645    -0.282    27.274     7.756
   813   8 O        0.858    -0.450    22.699     6.388
   814   8 O        0.860    -0.459    22.899     6.416
   815   6 C        3.664     0.012    20.646     6.517
   816   1 H        0.930     0.074     2.047     2.237
   817   1 H        0.930     0.060     2.196     2.317
   818   1 H        0.930     0.058     2.221     2.330
   819   8 O        1.705    -0.281    18.665     5.833
   820   6 C        2.878     0.145    24.848     8.172
   821   6 C        2.936    -0.069    29.719     8.941
   822   1 H        0.930     0.076     2.023     2.224
   823   6 C        3.826    -0.109    22.569     6.760
   824   1 H        0.930     0.078     1.998     2.210
   825   1 H        0.930     0.078     1.998     2.210
   826   8 O        0.859    -0.477    23.273     6.468

 Mol. C6AA /auﾂｷbohr竅ｶ  :    8202248.550262
 Mol. C8AA /auﾂｷbohr竅ｸ  :  196027572.789709
 Mol. ﾎｱ(0) /au        :       4438.828866


Wiberg/Mayer (AO) data.
largest (>0.10) Wiberg bond orders for each atom

 ---------------------------------------------------------------------------
     #   Z sym  total        # sym  WBO       # sym  WBO       # sym  WBO
 ---------------------------------------------------------------------------
     1   1 H    0.994 --    54 C    0.973
     2   6 C    3.988 --    54 C    1.440     4 C    1.403     3 H    0.966
                            51 C    0.110
     3   1 H    0.991 --     2 C    0.966
     4   6 C    3.966 --     2 C    1.403    55 C    1.402    31 N    0.998
     5   6 C    3.967 --    10 C    0.998    57 H    0.972     6 H    0.972
                            31 N    0.962
     6   1 H    0.996 --     5 C    0.972
     7   6 C    3.957 --    35 O    1.651    31 N    1.205     8 C    1.010
     8   6 C    3.955 --     9 C    1.427    32 N    1.229     7 C    1.010
                            33 N    0.131
     9   6 C    3.980 --     8 C    1.427    13 C    1.327    10 C    1.011
    10   6 C    3.990 --     9 C    1.011     5 C    0.998    12 H    0.962
                            11 H    0.962
    11   1 H    0.995 --    10 C    0.962
    12   1 H    0.993 --    10 C    0.962
    13   6 C    3.967 --    33 N    1.417     9 C    1.327    14 C    1.001
    14   6 C    3.951 --    36 O    1.630    34 N    1.277    13 C    1.001
    15   6 C    3.950 --    16 C    1.396    23 C    1.370    32 N    1.001
    16   6 C    3.987 --    18 C    1.441    15 C    1.396    17 H    0.967
                            21 C    0.104
    17   1 H    0.991 --    16 C    0.967
    18   6 C    3.987 --    16 C    1.441    20 C    1.375    19 H    0.961
                            23 C    0.101
    19   1 H    0.988 --    18 C    0.961
    20   6 C    3.933 --    18 C    1.375    21 C    1.342    37 O    1.075
    21   6 C    3.991 --    23 C    1.474    20 C    1.342    22 H    0.972
                            16 C    0.104
    22   1 H    0.994 --    21 C    0.972
    23   6 C    3.991 --    21 C    1.474    15 C    1.370    24 H    0.973
                            18 C    0.101
    24   1 H    0.995 --    23 C    0.973
    25   6 C    3.929 --    27 H    0.981    26 H    0.977    28 H    0.975
                            37 O    0.963
    26   1 H    0.996 --    25 C    0.977
    27   1 H    0.997 --    25 C    0.981
    28   1 H    0.993 --    25 C    0.975
    29   1 H    0.947 --    34 N    0.919
    30   1 H    0.956 --    34 N    0.941
    31   7 N    3.476 --     7 C    1.205     4 C    0.998     5 C    0.962
                            35 O    0.186
    32   7 N    3.696 --     8 C    1.229    33 N    1.221    15 C    1.001
    33   7 N    2.959 --    13 C    1.417    32 N    1.221     8 C    0.131
    34   7 N    3.388 --    14 C    1.277    30 H    0.941    29 H    0.919
                            36 O    0.195
    35   8 O    1.996 --     7 C    1.651    31 N    0.186
    36   8 O    1.949 --    14 C    1.630    34 N    0.195
    37   8 O    2.209 --    20 C    1.075    25 C    0.963
    38   6 C    3.966 --    41 C    1.007    40 H    0.972    39 H    0.970
                            58 N    0.956
    39   1 H    0.997 --    38 C    0.970
    40   1 H    0.996 --    38 C    0.972
    41   6 C    3.988 --    44 C    1.007    38 C    1.007    42 H    0.976
                            43 H    0.966
    42   1 H    0.996 --    41 C    0.976
    43   1 H    0.994 --    41 C    0.966
    44   6 C    3.992 --    41 C    1.007    47 C    1.001    46 H    0.981
                            45 H    0.971
    45   1 H    0.995 --    44 C    0.971
    46   1 H    0.998 --    44 C    0.981
    47   6 C    3.990 --    44 C    1.001    50 C    0.981    49 H    0.962
                            48 H    0.950
    48   1 H    0.993 --    47 C    0.950
    49   1 H    0.995 --    47 C    0.962
    50   6 C    3.948 --    59 O    1.620    58 N    1.257    47 C    0.981
    51   6 C    3.993 --    55 C    1.441    53 C    1.405    52 H    0.972
                             2 C    0.110
    52   1 H    0.994 --    51 C    0.972
    53   6 C    3.967 --    54 C    1.405    51 C    1.405    58 N    0.988
    54   6 C    3.993 --     2 C    1.440    53 C    1.405     1 H    0.973
                            55 C    0.110
    55   6 C    3.992 --    51 C    1.441     4 C    1.402    56 H    0.970
                            54 C    0.110
    56   1 H    0.994 --    55 C    0.970
    57   1 H    0.995 --     5 C    0.972
    58   7 N    3.494 --    50 C    1.257    53 C    0.988    38 C    0.956
                            59 O    0.187
    59   8 O    1.947 --    50 C    1.620    58 N    0.187
    60   6 C    3.966 --    63 C    1.007    62 H    0.973    61 H    0.971
                            80 N    0.955
    61   1 H    0.997 --    60 C    0.971
    62   1 H    0.996 --    60 C    0.973
    63   6 C    3.987 --    66 C    1.007    60 C    1.007    64 H    0.978
                            65 H    0.965
    64   1 H    0.996 --    63 C    0.978
    65   1 H    0.994 --    63 C    0.965
    66   6 C    3.992 --    63 C    1.007    69 C    1.001    68 H    0.981
                            67 H    0.971
    67   1 H    0.994 --    66 C    0.971
    68   1 H    0.998 --    66 C    0.981
    69   6 C    3.990 --    66 C    1.001    72 C    0.978    71 H    0.964
                            70 H    0.952
    70   1 H    0.993 --    69 C    0.952
    71   1 H    0.995 --    69 C    0.964
    72   6 C    3.949 --    81 O    1.650    80 N    1.238    69 C    0.978
    73   6 C    3.993 --    77 C    1.441    75 C    1.405    74 H    0.972
                            83 C    0.109
    74   1 H    0.994 --    73 C    0.972
    75   6 C    3.970 --    73 C    1.405    76 C    1.404    80 N    0.994
    76   6 C    3.993 --    83 C    1.440    75 C    1.404    82 H    0.973
                            77 C    0.110
    77   6 C    3.991 --    73 C    1.441    85 C    1.402    78 H    0.970
                            76 C    0.110
    78   1 H    0.993 --    77 C    0.970
    79   1 H    0.994 --    86 C    0.972
    80   7 N    3.481 --    72 C    1.238    75 C    0.994    60 C    0.955
                            81 O    0.188
    81   8 O    1.959 --    72 C    1.650    80 N    0.188
    82   1 H    0.994 --    76 C    0.973
    83   6 C    3.993 --    76 C    1.440    85 C    1.404    84 H    0.974
                            73 C    0.109
    84   1 H    0.995 --    83 C    0.974
    85   6 C    3.962 --    83 C    1.404    77 C    1.402   112 N    0.992
    86   6 C    3.967 --    91 C    0.998    87 H    0.974    79 H    0.972
                           112 N    0.962
    87   1 H    0.996 --    86 C    0.974
    88   6 C    3.958 --   116 O    1.640   112 N    1.214    89 C    1.011
    89   6 C    3.953 --    90 C    1.428   113 N    1.223    88 C    1.011
                           114 N    0.132
    90   6 C    3.980 --    89 C    1.428    94 C    1.323    91 C    1.012
    91   6 C    3.990 --    90 C    1.012    86 C    0.998    93 H    0.962
                            92 H    0.960
    92   1 H    0.994 --    91 C    0.960
    93   1 H    0.992 --    91 C    0.962
    94   6 C    3.967 --   114 N    1.421    90 C    1.323    95 C    1.003
    95   6 C    3.951 --   117 O    1.646   115 N    1.259    94 C    1.003
    96   6 C    3.954 --    97 C    1.402   104 C    1.370   113 N    1.004
    97   6 C    3.991 --    99 C    1.435    96 C    1.402    98 H    0.974
                           102 C    0.108
    98   1 H    0.995 --    97 C    0.974
    99   6 C    3.990 --    97 C    1.435   101 C    1.378   100 H    0.971
   100   1 H    0.995 --    99 C    0.971
   101   6 C    3.933 --    99 C    1.378   102 C    1.341   118 O    1.076
   102   6 C    3.991 --   104 C    1.479   101 C    1.341   103 H    0.969
                            97 C    0.108
   103   1 H    0.992 --   102 C    0.969
   104   6 C    3.990 --   102 C    1.479    96 C    1.370   105 H    0.972
   105   1 H    0.993 --   104 C    0.972
   106   6 C    3.935 --   109 H    0.980   108 H    0.980   107 H    0.979
                           118 O    0.967
   107   1 H    0.994 --   106 C    0.979
   108   1 H    0.997 --   106 C    0.980
   109   1 H    0.996 --   106 C    0.980
   110   1 H    0.957 --   115 N    0.940
   111   1 H    0.953 --   115 N    0.939
   112   7 N    3.482 --    88 C    1.214    85 C    0.992    86 C    0.962
                           116 O    0.191
   113   7 N    3.695 --   114 N    1.223    89 C    1.223    96 C    1.004
   114   7 N    2.966 --    94 C    1.421   113 N    1.223    89 C    0.132
   115   7 N    3.375 --    95 C    1.259   110 H    0.940   111 H    0.939
                           117 O    0.191
   116   8 O    1.989 --    88 C    1.640   112 N    0.191
   117   8 O    1.961 --    95 C    1.646   115 N    0.191
   118   8 O    2.214 --   101 C    1.076   106 C    0.967
   119   6 C    3.968 --   122 C    1.007   121 H    0.973   120 H    0.971
                           139 N    0.960
   120   1 H    0.996 --   119 C    0.971
   121   1 H    0.996 --   119 C    0.973
   122   6 C    3.991 --   119 C    1.007   125 C    1.006   123 H    0.978
                           124 H    0.970
   123   1 H    0.997 --   122 C    0.978
   124   1 H    0.996 --   122 C    0.970
   125   6 C    3.993 --   122 C    1.006   128 C    1.001   127 H    0.980
                           126 H    0.975
   126   1 H    0.997 --   125 C    0.975
   127   1 H    0.997 --   125 C    0.980
   128   6 C    3.990 --   125 C    1.001   131 C    0.980   130 H    0.961
                           129 H    0.953
   129   1 H    0.994 --   128 C    0.953
   130   1 H    0.994 --   128 C    0.961
   131   6 C    3.949 --   140 O    1.619   139 N    1.264   128 C    0.980
   132   6 C    3.994 --   136 C    1.441   134 C    1.404   133 H    0.974
                           142 C    0.110
   133   1 H    0.995 --   132 C    0.974
   134   6 C    3.965 --   135 C    1.406   132 C    1.404   139 N    0.986
   135   6 C    3.993 --   142 C    1.440   134 C    1.406   141 H    0.973
                           136 C    0.109
   136   6 C    3.993 --   132 C    1.441   144 C    1.401   137 H    0.974
                           135 C    0.109
   137   1 H    0.995 --   136 C    0.974
   138   1 H    0.995 --   145 C    0.974
   139   7 N    3.498 --   131 C    1.264   134 C    0.986   119 C    0.960
                           140 O    0.189
   140   8 O    1.945 --   131 C    1.619   139 N    0.189
   141   1 H    0.994 --   135 C    0.973
   142   6 C    3.988 --   135 C    1.440   144 C    1.402   143 H    0.966
                           132 C    0.110
   143   1 H    0.990 --   142 C    0.966
   144   6 C    3.968 --   142 C    1.402   136 C    1.401   171 N    1.003
   145   6 C    3.968 --   150 C    0.998   138 H    0.974   146 H    0.973
                           171 N    0.961
   146   1 H    0.996 --   145 C    0.973
   147   6 C    3.956 --   175 O    1.667   171 N    1.193   148 C    1.009
   148   6 C    3.955 --   149 C    1.430   172 N    1.225   147 C    1.009
                           173 N    0.133
   149   6 C    3.980 --   148 C    1.430   153 C    1.325   150 C    1.011
   150   6 C    3.990 --   149 C    1.011   145 C    0.998   152 H    0.962
                           151 H    0.961
   151   1 H    0.994 --   150 C    0.961
   152   1 H    0.993 --   150 C    0.962
   153   6 C    3.967 --   173 N    1.423   149 C    1.325   154 C    0.998
   154   6 C    3.953 --   176 O    1.643   174 N    1.272   153 C    0.998
   155   6 C    3.953 --   156 C    1.398   163 C    1.372   172 N    1.003
   156   6 C    3.988 --   158 C    1.439   155 C    1.398   157 H    0.967
                           161 C    0.105
   157   1 H    0.992 --   156 C    0.967
   158   6 C    3.988 --   156 C    1.439   160 C    1.378   159 H    0.962
                           163 C    0.101
   159   1 H    0.990 --   158 C    0.962
   160   6 C    3.932 --   158 C    1.378   161 C    1.345   177 O    1.069
   161   6 C    3.991 --   163 C    1.472   160 C    1.345   162 H    0.974
                           156 C    0.105
   162   1 H    0.995 --   161 C    0.974
   163   6 C    3.991 --   161 C    1.472   155 C    1.372   164 H    0.973
                           158 C    0.101
   164   1 H    0.994 --   163 C    0.973
   165   6 C    3.933 --   166 H    0.981   167 H    0.980   168 H    0.977
                           177 O    0.965
   166   1 H    0.996 --   165 C    0.981
   167   1 H    0.996 --   165 C    0.980
   168   1 H    0.994 --   165 C    0.977
   169   1 H    0.948 --   174 N    0.920
   170   1 H    0.958 --   174 N    0.944
   171   7 N    3.467 --   147 C    1.193   144 C    1.003   145 C    0.961
                           175 O    0.184
   172   7 N    3.691 --   148 C    1.225   173 N    1.216   155 C    1.003
   173   7 N    2.959 --   153 C    1.423   172 N    1.216   148 C    0.133
   174   7 N    3.384 --   154 C    1.272   170 H    0.944   169 H    0.920
                           176 O    0.197
   175   8 O    2.009 --   147 C    1.667   171 N    0.184
   176   8 O    1.960 --   154 C    1.643   174 N    0.197
   177   8 O    2.202 --   160 C    1.069   165 C    0.965
   178   6 C    3.990 --   223 C    1.001   226 C    0.979   180 H    0.962
                           179 H    0.953
   179   1 H    0.994 --   178 C    0.953
   180   1 H    0.994 --   178 C    0.962
   181   8 O    1.948 --   226 C    1.619   236 N    0.190
   182   6 C    3.932 --   206 C    1.379   183 C    1.345   189 O    1.068
   183   6 C    3.991 --   207 C    1.473   182 C    1.345   184 H    0.973
                           204 C    0.107
   184   1 H    0.994 --   183 C    0.973
   185   6 C    3.935 --   187 H    0.981   186 H    0.981   188 H    0.978
                           189 O    0.966
   186   1 H    0.995 --   185 C    0.981
   187   1 H    0.996 --   185 C    0.981
   188   1 H    0.995 --   185 C    0.978
   189   8 O    2.202 --   182 C    1.068   185 C    0.966
   190   6 C    3.968 --   234 C    1.401   232 C    1.401   211 N    1.004
   191   1 H    0.995 --   234 C    0.973
   192   6 C    3.967 --   198 C    0.998   194 H    0.973   193 H    0.973
                           211 N    0.960
   193   1 H    0.996 --   192 C    0.973
   194   1 H    0.995 --   192 C    0.973
   195   6 C    3.956 --   215 O    1.664   211 N    1.194   196 C    1.010
   196   6 C    3.954 --   197 C    1.431   212 N    1.223   195 C    1.010
                           213 N    0.135
   197   6 C    3.980 --   196 C    1.431   201 C    1.325   198 C    1.011
   198   6 C    3.989 --   197 C    1.011   192 C    0.998   199 H    0.962
                           200 H    0.961
   199   1 H    0.994 --   198 C    0.962
   200   1 H    0.992 --   198 C    0.961
   201   6 C    3.968 --   213 N    1.427   197 C    1.325   202 C    0.996
   202   6 C    3.954 --   216 O    1.648   214 N    1.271   201 C    0.996
   203   6 C    3.955 --   204 C    1.399   207 C    1.373   212 N    1.005
   204   6 C    3.987 --   206 C    1.437   203 C    1.399   205 H    0.967
                           183 C    0.107
   205   1 H    0.991 --   204 C    0.967
   206   6 C    3.991 --   204 C    1.437   182 C    1.379   235 H    0.969
                           207 C    0.101
   207   6 C    3.991 --   183 C    1.473   203 C    1.373   208 H    0.973
                           206 C    0.101
   208   1 H    0.994 --   207 C    0.973
   209   1 H    0.947 --   214 N    0.920
   210   1 H    0.958 --   214 N    0.944
   211   7 N    3.467 --   195 C    1.194   190 C    1.004   192 C    0.960
                           215 O    0.183
   212   7 N    3.689 --   196 C    1.223   213 N    1.214   203 C    1.005
   213   7 N    2.960 --   201 C    1.427   212 N    1.214   196 C    0.135
   214   7 N    3.385 --   202 C    1.271   210 H    0.944   209 H    0.920
                           216 O    0.199
   215   8 O    2.005 --   195 C    1.664   211 N    0.183
   216   8 O    1.967 --   202 C    1.648   214 N    0.199
   217   6 C    3.968 --   220 C    1.007   219 H    0.973   218 H    0.971
                           236 N    0.960
   218   1 H    0.996 --   217 C    0.971
   219   1 H    0.996 --   217 C    0.973
   220   6 C    3.991 --   217 C    1.007   223 C    1.007   221 H    0.979
                           222 H    0.970
   221   1 H    0.997 --   220 C    0.979
   222   1 H    0.996 --   220 C    0.970
   223   6 C    3.993 --   220 C    1.007   178 C    1.001   225 H    0.980
                           224 H    0.976
   224   1 H    0.997 --   223 C    0.976
   225   1 H    0.997 --   223 C    0.980
   226   6 C    3.950 --   181 O    1.619   236 N    1.262   178 C    0.979
   227   6 C    3.993 --   234 C    1.441   229 C    1.405   228 H    0.973
                           232 C    0.110
   228   1 H    0.995 --   227 C    0.973
   229   6 C    3.963 --   230 C    1.406   227 C    1.405   236 N    0.983
   230   6 C    3.994 --   232 C    1.440   229 C    1.406   231 H    0.974
                           234 C    0.109
   231   1 H    0.995 --   230 C    0.974
   232   6 C    3.988 --   230 C    1.440   190 C    1.401   233 H    0.967
                           227 C    0.110
   233   1 H    0.990 --   232 C    0.967
   234   6 C    3.993 --   227 C    1.441   190 C    1.401   191 H    0.973
                           230 C    0.109
   235   1 H    0.994 --   206 C    0.969
   236   7 N    3.497 --   226 C    1.262   229 C    0.983   217 C    0.960
                           181 O    0.190
   237   6 C    3.990 --   282 C    1.001   285 C    0.980   239 H    0.961
                           238 H    0.953
   238   1 H    0.994 --   237 C    0.953
   239   1 H    0.994 --   237 C    0.961
   240   8 O    1.952 --   285 C    1.625   295 N    0.188
   241   6 C    3.932 --   265 C    1.379   242 C    1.345   248 O    1.069
   242   6 C    3.991 --   266 C    1.473   241 C    1.345   243 H    0.972
                           263 C    0.107
   243   1 H    0.995 --   242 C    0.972
   244   6 C    3.933 --   246 H    0.982   245 H    0.977   247 H    0.976
                           248 O    0.965
   245   1 H    0.995 --   244 C    0.977
   246   1 H    0.997 --   244 C    0.982
   247   1 H    0.994 --   244 C    0.976
   248   8 O    2.202 --   241 C    1.069   244 C    0.965
   249   6 C    3.968 --   291 C    1.402   293 C    1.401   270 N    1.002
   250   1 H    0.995 --   293 C    0.974
   251   6 C    3.967 --   257 C    0.998   253 H    0.974   252 H    0.972
                           270 N    0.961
   252   1 H    0.996 --   251 C    0.972
   253   1 H    0.995 --   251 C    0.974
   254   6 C    3.956 --   274 O    1.662   270 N    1.197   255 C    1.009
   255   6 C    3.955 --   256 C    1.432   271 N    1.223   254 C    1.009
                           272 N    0.135
   256   6 C    3.980 --   255 C    1.432   260 C    1.324   257 C    1.011
   257   6 C    3.990 --   256 C    1.011   251 C    0.998   259 H    0.962
                           258 H    0.962
   258   1 H    0.994 --   257 C    0.962
   259   1 H    0.992 --   257 C    0.962
   260   6 C    3.968 --   272 N    1.426   256 C    1.324   261 C    0.998
   261   6 C    3.953 --   275 O    1.640   273 N    1.275   260 C    0.998
   262   6 C    3.956 --   263 C    1.399   266 C    1.373   271 N    1.005
   263   6 C    3.987 --   265 C    1.437   262 C    1.399   264 H    0.966
                           242 C    0.107
   264   1 H    0.991 --   263 C    0.966
   265   6 C    3.991 --   263 C    1.437   241 C    1.379   294 H    0.969
                           266 C    0.101
   266   6 C    3.991 --   242 C    1.473   262 C    1.373   267 H    0.973
                           265 C    0.101
   267   1 H    0.994 --   266 C    0.973
   268   1 H    0.947 --   273 N    0.919
   269   1 H    0.957 --   273 N    0.942
   270   7 N    3.471 --   254 C    1.197   249 C    1.002   251 C    0.961
                           274 O    0.185
   271   7 N    3.689 --   255 C    1.223   272 N    1.213   262 C    1.005
   272   7 N    2.959 --   260 C    1.426   271 N    1.213   255 C    0.135
   273   7 N    3.387 --   261 C    1.275   269 H    0.942   268 H    0.919
                           275 O    0.197
   274   8 O    2.004 --   254 C    1.662   270 N    0.185
   275   8 O    1.960 --   261 C    1.640   273 N    0.197
   276   6 C    3.969 --   279 C    1.007   278 H    0.973   277 H    0.972
                           295 N    0.960
   277   1 H    0.996 --   276 C    0.972
   278   1 H    0.996 --   276 C    0.973
   279   6 C    3.991 --   276 C    1.007   282 C    1.006   280 H    0.979
                           281 H    0.971
   280   1 H    0.997 --   279 C    0.979
   281   1 H    0.996 --   279 C    0.971
   282   6 C    3.993 --   279 C    1.006   237 C    1.001   284 H    0.981
                           283 H    0.976
   283   1 H    0.997 --   282 C    0.976
   284   1 H    0.997 --   282 C    0.981
   285   6 C    3.949 --   240 O    1.625   295 N    1.258   237 C    0.980
   286   6 C    3.994 --   293 C    1.441   288 C    1.405   287 H    0.975
                           291 C    0.110
   287   1 H    0.996 --   286 C    0.975
   288   6 C    3.965 --   289 C    1.406   286 C    1.405   295 N    0.986
   289   6 C    3.993 --   291 C    1.440   288 C    1.406   290 H    0.973
                           293 C    0.109
   290   1 H    0.995 --   289 C    0.973
   291   6 C    3.988 --   289 C    1.440   249 C    1.402   292 H    0.967
                           286 C    0.110
   292   1 H    0.990 --   291 C    0.967
   293   6 C    3.993 --   286 C    1.441   249 C    1.401   250 H    0.974
                           289 C    0.109
   294   1 H    0.994 --   265 C    0.969
   295   7 N    3.493 --   285 C    1.258   288 C    0.986   276 C    0.960
                           240 O    0.188
   296   6 C    3.969 --   299 C    1.007   298 H    0.974   297 H    0.972
                           315 N    0.958
   297   1 H    0.997 --   296 C    0.972
   298   1 H    0.997 --   296 C    0.974
   299   6 C    3.989 --   302 C    1.007   296 C    1.007   300 H    0.977
                           301 H    0.968
   300   1 H    0.996 --   299 C    0.977
   301   1 H    0.995 --   299 C    0.968
   302   6 C    3.992 --   299 C    1.007   351 C    1.001   304 H    0.981
                           303 H    0.971
   303   1 H    0.995 --   302 C    0.971
   304   1 H    0.998 --   302 C    0.981
   305   6 C    3.949 --   354 O    1.639   315 N    1.248   351 C    0.979
   306   6 C    3.994 --   313 C    1.442   308 C    1.405   307 H    0.974
                           311 C    0.110
   307   1 H    0.995 --   306 C    0.974
   308   6 C    3.968 --   309 C    1.406   306 C    1.405   315 N    0.990
   309   6 C    3.993 --   311 C    1.440   308 C    1.406   310 H    0.973
                           313 C    0.109
   310   1 H    0.994 --   309 C    0.973
   311   6 C    3.989 --   309 C    1.440   316 C    1.403   312 H    0.967
                           306 C    0.110
   312   1 H    0.991 --   311 C    0.967
   313   6 C    3.993 --   306 C    1.442   316 C    1.402   317 H    0.974
                           309 C    0.109
   314   1 H    0.991 --   332 C    0.964
   315   7 N    3.487 --   305 C    1.248   308 C    0.990   296 C    0.958
                           354 O    0.188
   316   6 C    3.966 --   311 C    1.403   313 C    1.402   337 N    0.998
   317   1 H    0.995 --   313 C    0.974
   318   6 C    3.969 --   324 C    0.998   320 H    0.974   319 H    0.974
                           337 N    0.962
   319   1 H    0.997 --   318 C    0.974
   320   1 H    0.995 --   318 C    0.974
   321   6 C    3.957 --   341 O    1.655   337 N    1.202   322 C    1.010
   322   6 C    3.954 --   323 C    1.430   338 N    1.225   321 C    1.010
                           339 N    0.132
   323   6 C    3.980 --   322 C    1.430   327 C    1.324   324 C    1.012
   324   6 C    3.990 --   323 C    1.012   318 C    0.998   326 H    0.964
                           325 H    0.961
   325   1 H    0.994 --   324 C    0.961
   326   1 H    0.993 --   324 C    0.964
   327   6 C    3.967 --   339 N    1.421   323 C    1.324   328 C    1.002
   328   6 C    3.951 --   342 O    1.658   340 N    1.250   327 C    1.002
   329   6 C    3.953 --   330 C    1.400   333 C    1.372   338 N    1.003
   330   6 C    3.988 --   332 C    1.437   329 C    1.400   331 H    0.967
                           349 C    0.107
   331   1 H    0.992 --   330 C    0.967
   332   6 C    3.988 --   330 C    1.437   348 C    1.380   314 H    0.964
                           333 C    0.101
   333   6 C    3.990 --   349 C    1.475   329 C    1.372   334 H    0.973
                           332 C    0.101
   334   1 H    0.994 --   333 C    0.973
   335   1 H    0.958 --   340 N    0.942
   336   1 H    0.955 --   340 N    0.942
   337   7 N    3.472 --   321 C    1.202   316 C    0.998   318 C    0.962
                           341 O    0.186
   338   7 N    3.694 --   322 C    1.225   339 N    1.221   329 C    1.003
   339   7 N    2.963 --   327 C    1.421   338 N    1.221   322 C    0.132
   340   7 N    3.367 --   328 C    1.250   336 H    0.942   335 H    0.942
                           342 O    0.191
   341   8 O    1.999 --   321 C    1.655   337 N    0.186
   342   8 O    1.970 --   328 C    1.658   340 N    0.191
   343   6 C    3.934 --   345 H    0.980   346 H    0.979   344 H    0.976
                           347 O    0.965
   344   1 H    0.995 --   343 C    0.976
   345   1 H    0.997 --   343 C    0.980
   346   1 H    0.996 --   343 C    0.979
   347   8 O    2.203 --   348 C    1.069   343 C    0.965
   348   6 C    3.932 --   332 C    1.380   349 C    1.345   347 O    1.069
   349   6 C    3.991 --   333 C    1.475   348 C    1.345   350 H    0.973
                           330 C    0.107
   350   1 H    0.994 --   349 C    0.973
   351   6 C    3.990 --   302 C    1.001   305 C    0.979   353 H    0.963
                           352 H    0.952
   352   1 H    0.994 --   351 C    0.952
   353   1 H    0.995 --   351 C    0.963
   354   8 O    1.952 --   305 C    1.639   315 N    0.188
   355   6 C    3.969 --   358 C    1.007   357 H    0.972   356 H    0.972
                           374 N    0.959
   356   1 H    0.997 --   355 C    0.972
   357   1 H    0.996 --   355 C    0.972
   358   6 C    3.991 --   355 C    1.007   361 C    1.006   359 H    0.979
                           360 H    0.970
   359   1 H    0.997 --   358 C    0.979
   360   1 H    0.996 --   358 C    0.970
   361   6 C    3.994 --   358 C    1.006   410 C    1.002   363 H    0.981
                           362 H    0.977
   362   1 H    0.997 --   361 C    0.977
   363   1 H    0.998 --   361 C    0.981
   364   6 C    3.951 --   413 O    1.656   374 N    1.239   410 C    0.976
   365   6 C    3.994 --   372 C    1.442   367 C    1.405   366 H    0.974
                           370 C    0.109
   366   1 H    0.995 --   365 C    0.974
   367   6 C    3.969 --   365 C    1.405   368 C    1.405   374 N    0.992
   368   6 C    3.993 --   370 C    1.440   367 C    1.405   369 H    0.973
                           372 C    0.110
   369   1 H    0.994 --   368 C    0.973
   370   6 C    3.992 --   368 C    1.440   375 C    1.404   371 H    0.973
                           365 C    0.109
   371   1 H    0.995 --   370 C    0.973
   372   6 C    3.992 --   365 C    1.442   375 C    1.402   376 H    0.971
                           368 C    0.110
   373   1 H    0.993 --   391 C    0.969
   374   7 N    3.482 --   364 C    1.239   367 C    0.992   355 C    0.959
                           413 O    0.189
   375   6 C    3.964 --   370 C    1.404   372 C    1.402   396 N    0.995
   376   1 H    0.994 --   372 C    0.971
   377   6 C    3.967 --   383 C    0.998   378 H    0.974   379 H    0.973
                           396 N    0.962
   378   1 H    0.996 --   377 C    0.974
   379   1 H    0.994 --   377 C    0.973
   380   6 C    3.958 --   400 O    1.650   396 N    1.207   381 C    1.010
   381   6 C    3.953 --   382 C    1.428   397 N    1.224   380 C    1.010
                           398 N    0.133
   382   6 C    3.980 --   381 C    1.428   386 C    1.325   383 C    1.012
   383   6 C    3.990 --   382 C    1.012   377 C    0.998   385 H    0.962
                           384 H    0.961
   384   1 H    0.995 --   383 C    0.961
   385   1 H    0.992 --   383 C    0.962
   386   6 C    3.967 --   398 N    1.423   382 C    1.325   387 C    0.998
   387   6 C    3.954 --   401 O    1.644   399 N    1.271   386 C    0.998
   388   6 C    3.953 --   389 C    1.398   392 C    1.370   397 N    1.004
   389   6 C    3.991 --   391 C    1.439   388 C    1.398   390 H    0.973
                           408 C    0.106
   390   1 H    0.995 --   389 C    0.973
   391   6 C    3.991 --   389 C    1.439   407 C    1.376   373 H    0.969
   392   6 C    3.991 --   408 C    1.476   388 C    1.370   393 H    0.973
   393   1 H    0.994 --   392 C    0.973
   394   1 H    0.947 --   399 N    0.919
   395   1 H    0.956 --   399 N    0.942
   396   7 N    3.476 --   380 C    1.207   375 C    0.995   377 C    0.962
                           400 O    0.190
   397   7 N    3.692 --   381 C    1.224   398 N    1.218   388 C    1.004
   398   7 N    2.960 --   386 C    1.423   397 N    1.218   381 C    0.133
   399   7 N    3.384 --   387 C    1.271   395 H    0.942   394 H    0.919
                           401 O    0.198
   400   8 O    1.997 --   380 C    1.650   396 N    0.190
   401   8 O    1.965 --   387 C    1.644   399 N    0.198
   402   6 C    3.931 --   404 H    0.981   403 H    0.977   405 H    0.976
                           406 O    0.964
   403   1 H    0.995 --   402 C    0.977
   404   1 H    0.997 --   402 C    0.981
   405   1 H    0.994 --   402 C    0.976
   406   8 O    2.212 --   407 C    1.077   402 C    0.964
   407   6 C    3.934 --   391 C    1.376   408 C    1.342   406 O    1.077
   408   6 C    3.991 --   392 C    1.476   407 C    1.342   409 H    0.971
                           389 C    0.106
   409   1 H    0.994 --   408 C    0.971
   410   6 C    3.990 --   361 C    1.002   364 C    0.976   412 H    0.964
                           411 H    0.955
   411   1 H    0.994 --   410 C    0.955
   412   1 H    0.994 --   410 C    0.964
   413   8 O    1.966 --   364 C    1.656   374 N    0.189
   414   6 C    3.990 --   459 C    1.001   462 C    0.977   416 H    0.964
                           415 H    0.952
   415   1 H    0.993 --   414 C    0.952
   416   1 H    0.995 --   414 C    0.964
   417   8 O    1.960 --   462 C    1.650   472 N    0.189
   418   6 C    3.933 --   442 C    1.377   419 C    1.344   425 O    1.073
   419   6 C    3.991 --   443 C    1.476   418 C    1.344   420 H    0.972
                           440 C    0.106
   420   1 H    0.993 --   419 C    0.972
   421   6 C    3.934 --   423 H    0.980   424 H    0.980   422 H    0.980
                           425 O    0.965
   422   1 H    0.994 --   421 C    0.980
   423   1 H    0.996 --   421 C    0.980
   424   1 H    0.996 --   421 C    0.980
   425   8 O    2.209 --   418 C    1.073   421 C    0.965
   426   6 C    3.963 --   468 C    1.404   470 C    1.402   447 N    0.993
   427   1 H    0.993 --   470 C    0.970
   428   6 C    3.967 --   434 C    0.998   429 H    0.974   430 H    0.973
                           447 N    0.962
   429   1 H    0.997 --   428 C    0.974
   430   1 H    0.994 --   428 C    0.973
   431   6 C    3.958 --   451 O    1.640   447 N    1.213   432 C    1.011
   432   6 C    3.952 --   433 C    1.427   448 N    1.222   431 C    1.011
                           449 N    0.132
   433   6 C    3.981 --   432 C    1.427   437 C    1.323   434 C    1.013
   434   6 C    3.989 --   433 C    1.013   428 C    0.998   436 H    0.962
                           435 H    0.960
   435   1 H    0.994 --   434 C    0.960
   436   1 H    0.992 --   434 C    0.962
   437   6 C    3.968 --   449 N    1.420   433 C    1.323   438 C    1.002
   438   6 C    3.951 --   452 O    1.655   450 N    1.253   437 C    1.002
   439   6 C    3.952 --   440 C    1.399   443 C    1.371   448 N    1.002
   440   6 C    3.991 --   442 C    1.438   439 C    1.399   441 H    0.973
                           419 C    0.106
   441   1 H    0.995 --   440 C    0.973
   442   6 C    3.988 --   440 C    1.438   418 C    1.377   471 H    0.963
   443   6 C    3.990 --   419 C    1.476   439 C    1.371   444 H    0.973
   444   1 H    0.994 --   443 C    0.973
   445   1 H    0.957 --   450 N    0.941
   446   1 H    0.955 --   450 N    0.941
   447   7 N    3.481 --   431 C    1.213   426 C    0.993   428 C    0.962
                           451 O    0.191
   448   7 N    3.693 --   449 N    1.222   432 C    1.222   439 C    1.002
   449   7 N    2.964 --   437 C    1.420   448 N    1.222   432 C    0.132
   450   7 N    3.369 --   438 C    1.253   445 H    0.941   446 H    0.941
                           452 O    0.192
   451   8 O    1.990 --   431 C    1.640   447 N    0.191
   452   8 O    1.968 --   438 C    1.655   450 N    0.192
   453   6 C    3.966 --   456 C    1.007   455 H    0.972   454 H    0.971
                           472 N    0.955
   454   1 H    0.997 --   453 C    0.971
   455   1 H    0.996 --   453 C    0.972
   456   6 C    3.987 --   459 C    1.007   453 C    1.007   457 H    0.976
                           458 H    0.965
   457   1 H    0.996 --   456 C    0.976
   458   1 H    0.993 --   456 C    0.965
   459   6 C    3.992 --   456 C    1.007   414 C    1.001   461 H    0.981
                           460 H    0.971
   460   1 H    0.995 --   459 C    0.971
   461   1 H    0.998 --   459 C    0.981
   462   6 C    3.950 --   417 O    1.650   472 N    1.240   414 C    0.977
   463   6 C    3.993 --   470 C    1.442   465 C    1.405   464 H    0.972
                           468 C    0.109
   464   1 H    0.994 --   463 C    0.972
   465   6 C    3.970 --   463 C    1.405   466 C    1.404   472 N    0.993
   466   6 C    3.993 --   468 C    1.440   465 C    1.404   467 H    0.973
                           470 C    0.110
   467   1 H    0.994 --   466 C    0.973
   468   6 C    3.993 --   466 C    1.440   426 C    1.404   469 H    0.972
                           463 C    0.109
   469   1 H    0.995 --   468 C    0.972
   470   6 C    3.991 --   463 C    1.442   426 C    1.402   427 H    0.970
                           466 C    0.110
   471   1 H    0.990 --   442 C    0.963
   472   7 N    3.483 --   462 C    1.240   465 C    0.993   453 C    0.955
                           417 O    0.189
   473   6 C    3.990 --   518 C    1.001   521 C    0.978   475 H    0.964
                           474 H    0.952
   474   1 H    0.994 --   473 C    0.952
   475   1 H    0.995 --   473 C    0.964
   476   8 O    1.960 --   521 C    1.652   531 N    0.187
   477   6 C    3.934 --   501 C    1.377   478 C    1.342   484 O    1.076
   478   6 C    3.991 --   502 C    1.477   477 C    1.342   479 H    0.971
                           499 C    0.106
   479   1 H    0.993 --   478 C    0.971
   480   6 C    3.932 --   482 H    0.980   483 H    0.979   481 H    0.976
                           484 O    0.964
   481   1 H    0.994 --   480 C    0.976
   482   1 H    0.997 --   480 C    0.980
   483   1 H    0.995 --   480 C    0.979
   484   8 O    2.212 --   477 C    1.076   480 C    0.964
   485   6 C    3.963 --   527 C    1.404   529 C    1.401   506 N    0.994
   486   1 H    0.993 --   529 C    0.971
   487   6 C    3.967 --   493 C    0.998   488 H    0.974   489 H    0.973
                           506 N    0.962
   488   1 H    0.997 --   487 C    0.974
   489   1 H    0.994 --   487 C    0.973
   490   6 C    3.957 --   510 O    1.642   506 N    1.210   491 C    1.012
   491   6 C    3.952 --   492 C    1.426   507 N    1.224   490 C    1.012
                           508 N    0.130
   492   6 C    3.980 --   491 C    1.426   496 C    1.325   493 C    1.012
   493   6 C    3.989 --   492 C    1.012   487 C    0.998   495 H    0.962
                           494 H    0.960
   494   1 H    0.994 --   493 C    0.960
   495   1 H    0.992 --   493 C    0.962
   496   6 C    3.967 --   508 N    1.418   492 C    1.325   497 C    1.002
   497   6 C    3.951 --   511 O    1.653   509 N    1.253   496 C    1.002
   498   6 C    3.951 --   499 C    1.399   502 C    1.370   507 N    1.002
   499   6 C    3.991 --   501 C    1.438   498 C    1.399   500 H    0.974
                           478 C    0.106
   500   1 H    0.995 --   499 C    0.974
   501   6 C    3.988 --   499 C    1.438   477 C    1.377   530 H    0.963
   502   6 C    3.990 --   478 C    1.477   498 C    1.370   503 H    0.972
   503   1 H    0.994 --   502 C    0.972
   504   1 H    0.957 --   509 N    0.941
   505   1 H    0.954 --   509 N    0.941
   506   7 N    3.478 --   490 C    1.210   485 C    0.994   487 C    0.962
                           510 O    0.189
   507   7 N    3.696 --   508 N    1.226   491 C    1.224   498 C    1.002
   508   7 N    2.965 --   496 C    1.418   507 N    1.226   491 C    0.130
   509   7 N    3.369 --   497 C    1.253   504 H    0.941   505 H    0.941
                           511 O    0.192
   510   8 O    1.991 --   490 C    1.642   506 N    0.189
   511   8 O    1.966 --   497 C    1.653   509 N    0.192
   512   6 C    3.967 --   515 C    1.006   514 H    0.973   513 H    0.972
                           531 N    0.956
   513   1 H    0.997 --   512 C    0.972
   514   1 H    0.997 --   512 C    0.973
   515   6 C    3.989 --   518 C    1.007   512 C    1.006   516 H    0.977
                           517 H    0.967
   516   1 H    0.996 --   515 C    0.977
   517   1 H    0.995 --   515 C    0.967
   518   6 C    3.992 --   515 C    1.007   473 C    1.001   520 H    0.981
                           519 H    0.971
   519   1 H    0.995 --   518 C    0.971
   520   1 H    0.998 --   518 C    0.981
   521   6 C    3.949 --   476 O    1.652   531 N    1.237   473 C    0.978
   522   6 C    3.994 --   529 C    1.442   524 C    1.405   523 H    0.974
                           527 C    0.109
   523   1 H    0.995 --   522 C    0.974
   524   6 C    3.971 --   522 C    1.405   525 C    1.404   531 N    0.995
   525   6 C    3.993 --   527 C    1.440   524 C    1.404   526 H    0.972
                           529 C    0.110
   526   1 H    0.994 --   525 C    0.972
   527   6 C    3.993 --   525 C    1.440   485 C    1.404   528 H    0.972
                           522 C    0.109
   528   1 H    0.995 --   527 C    0.972
   529   6 C    3.991 --   522 C    1.442   485 C    1.401   486 H    0.971
                           525 C    0.110
   530   1 H    0.990 --   501 C    0.963
   531   7 N    3.480 --   521 C    1.237   524 C    0.995   512 C    0.956
                           476 O    0.187
   532   6 C    3.968 --   535 C    1.007   534 H    0.973   533 H    0.971
                           552 N    0.958
   533   1 H    0.997 --   532 C    0.971
   534   1 H    0.996 --   532 C    0.973
   535   6 C    3.991 --   532 C    1.007   538 C    1.006   536 H    0.979
                           537 H    0.970
   536   1 H    0.997 --   535 C    0.979
   537   1 H    0.996 --   535 C    0.970
   538   6 C    3.994 --   535 C    1.006   541 C    1.002   540 H    0.981
                           539 H    0.977
   539   1 H    0.997 --   538 C    0.977
   540   1 H    0.997 --   538 C    0.981
   541   6 C    3.990 --   538 C    1.002   544 C    0.976   543 H    0.964
                           542 H    0.954
   542   1 H    0.994 --   541 C    0.954
   543   1 H    0.994 --   541 C    0.964
   544   6 C    3.950 --   553 O    1.656   552 N    1.238   541 C    0.976
   545   6 C    3.994 --   549 C    1.442   547 C    1.405   546 H    0.974
                           555 C    0.109
   546   1 H    0.995 --   545 C    0.974
   547   6 C    3.969 --   545 C    1.405   548 C    1.404   552 N    0.993
   548   6 C    3.993 --   555 C    1.440   547 C    1.404   554 H    0.973
                           549 C    0.110
   549   6 C    3.991 --   545 C    1.442   557 C    1.402   550 H    0.971
                           548 C    0.110
   550   1 H    0.993 --   549 C    0.971
   551   1 H    0.994 --   558 C    0.973
   552   7 N    3.481 --   544 C    1.238   547 C    0.993   532 C    0.958
                           553 O    0.189
   553   8 O    1.966 --   544 C    1.656   552 N    0.189
   554   1 H    0.994 --   548 C    0.973
   555   6 C    3.993 --   548 C    1.440   557 C    1.404   556 H    0.973
                           545 C    0.109
   556   1 H    0.995 --   555 C    0.973
   557   6 C    3.963 --   555 C    1.404   549 C    1.402   584 N    0.994
   558   6 C    3.967 --   563 C    0.998   559 H    0.974   551 H    0.973
                           584 N    0.962
   559   1 H    0.996 --   558 C    0.974
   560   6 C    3.958 --   588 O    1.642   584 N    1.212   561 C    1.011
   561   6 C    3.953 --   562 C    1.428   585 N    1.223   560 C    1.011
                           586 N    0.132
   562   6 C    3.980 --   561 C    1.428   566 C    1.323   563 C    1.012
   563   6 C    3.990 --   562 C    1.012   558 C    0.998   565 H    0.963
                           564 H    0.961
   564   1 H    0.994 --   563 C    0.961
   565   1 H    0.992 --   563 C    0.963
   566   6 C    3.967 --   586 N    1.420   562 C    1.323   567 C    1.003
   567   6 C    3.951 --   589 O    1.643   587 N    1.260   566 C    1.003
   568   6 C    3.953 --   569 C    1.401   576 C    1.369   585 N    1.003
   569   6 C    3.991 --   571 C    1.435   568 C    1.401   570 H    0.974
                           574 C    0.108
   570   1 H    0.995 --   569 C    0.974
   571   6 C    3.990 --   569 C    1.435   573 C    1.378   572 H    0.971
   572   1 H    0.995 --   571 C    0.971
   573   6 C    3.934 --   571 C    1.378   574 C    1.341   590 O    1.076
   574   6 C    3.990 --   576 C    1.479   573 C    1.341   575 H    0.969
                           569 C    0.108
   575   1 H    0.992 --   574 C    0.969
   576   6 C    3.990 --   574 C    1.479   568 C    1.369   577 H    0.971
   577   1 H    0.993 --   576 C    0.971
   578   6 C    3.934 --   580 H    0.981   581 H    0.980   579 H    0.975
                           590 O    0.966
   579   1 H    0.994 --   578 C    0.975
   580   1 H    0.997 --   578 C    0.981
   581   1 H    0.996 --   578 C    0.980
   582   1 H    0.957 --   587 N    0.940
   583   1 H    0.952 --   587 N    0.939
   584   7 N    3.480 --   560 C    1.212   557 C    0.994   558 C    0.962
                           588 O    0.190
   585   7 N    3.696 --   586 N    1.225   561 C    1.223   568 C    1.003
   586   7 N    2.966 --   566 C    1.420   585 N    1.225   561 C    0.132
   587   7 N    3.376 --   567 C    1.260   582 H    0.940   583 H    0.939
                           589 O    0.191
   588   8 O    1.991 --   560 C    1.642   584 N    0.190
   589   8 O    1.958 --   567 C    1.643   587 N    0.191
   590   8 O    2.214 --   573 C    1.076   578 C    0.966
   591   1 H    0.994 --   644 C    0.973
   592   6 C    3.992 --   644 C    1.440   594 C    1.403   593 H    0.973
                           641 C    0.109
   593   1 H    0.995 --   592 C    0.973
   594   6 C    3.964 --   592 C    1.403   645 C    1.401   621 N    0.995
   595   6 C    3.964 --   600 C    0.998   596 H    0.972   647 H    0.971
                           621 N    0.961
   596   1 H    0.995 --   595 C    0.972
   597   6 C    3.958 --   625 O    1.646   621 N    1.210   598 C    1.010
   598   6 C    3.953 --   599 C    1.430   622 N    1.221   597 C    1.010
                           623 N    0.134
   599   6 C    3.981 --   598 C    1.430   603 C    1.322   600 C    1.012
   600   6 C    3.989 --   599 C    1.012   595 C    0.998   602 H    0.960
                           601 H    0.960
   601   1 H    0.994 --   600 C    0.960
   602   1 H    0.992 --   600 C    0.960
   603   6 C    3.968 --   623 N    1.423   599 C    1.322   604 C    1.002
   604   6 C    3.951 --   626 O    1.649   624 N    1.257   603 C    1.002
   605   6 C    3.955 --   606 C    1.401   613 C    1.371   622 N    1.004
   606   6 C    3.991 --   608 C    1.436   605 C    1.401   607 H    0.973
                           611 C    0.108
   607   1 H    0.995 --   606 C    0.973
   608   6 C    3.991 --   606 C    1.436   610 C    1.378   609 H    0.970
   609   1 H    0.994 --   608 C    0.970
   610   6 C    3.933 --   608 C    1.378   611 C    1.343   627 O    1.073
   611   6 C    3.991 --   613 C    1.477   610 C    1.343   612 H    0.972
                           606 C    0.108
   612   1 H    0.993 --   611 C    0.972
   613   6 C    3.990 --   611 C    1.477   605 C    1.371   614 H    0.972
   614   1 H    0.993 --   613 C    0.972
   615   6 C    3.935 --   617 H    0.981   618 H    0.981   616 H    0.979
                           627 O    0.966
   616   1 H    0.994 --   615 C    0.979
   617   1 H    0.996 --   615 C    0.981
   618   1 H    0.996 --   615 C    0.981
   619   1 H    0.957 --   624 N    0.941
   620   1 H    0.954 --   624 N    0.941
   621   7 N    3.480 --   597 C    1.210   594 C    0.995   595 C    0.961
                           625 O    0.191
   622   7 N    3.692 --   598 C    1.221   623 N    1.220   605 C    1.004
   623   7 N    2.964 --   603 C    1.423   622 N    1.220   598 C    0.134
   624   7 N    3.373 --   604 C    1.257   620 H    0.941   619 H    0.941
                           626 O    0.192
   625   8 O    1.994 --   597 C    1.646   621 N    0.191
   626   8 O    1.963 --   604 C    1.649   624 N    0.192
   627   8 O    2.210 --   610 C    1.073   615 C    0.966
   628   6 C    3.966 --   631 C    1.006   630 H    0.973   629 H    0.971
                           648 N    0.956
   629   1 H    0.997 --   628 C    0.971
   630   1 H    0.996 --   628 C    0.973
   631   6 C    3.988 --   634 C    1.007   628 C    1.006   632 H    0.978
                           633 H    0.967
   632   1 H    0.996 --   631 C    0.978
   633   1 H    0.994 --   631 C    0.967
   634   6 C    3.992 --   631 C    1.007   637 C    1.001   636 H    0.981
                           635 H    0.971
   635   1 H    0.995 --   634 C    0.971
   636   1 H    0.998 --   634 C    0.981
   637   6 C    3.990 --   634 C    1.001   640 C    0.979   639 H    0.963
                           638 H    0.952
   638   1 H    0.993 --   637 C    0.952
   639   1 H    0.994 --   637 C    0.963
   640   6 C    3.948 --   649 O    1.639   648 N    1.243   637 C    0.979
   641   6 C    3.993 --   645 C    1.441   643 C    1.405   642 H    0.972
                           592 C    0.109
   642   1 H    0.994 --   641 C    0.972
   643   6 C    3.969 --   641 C    1.405   644 C    1.404   648 N    0.993
   644   6 C    3.993 --   592 C    1.440   643 C    1.404   591 H    0.973
                           645 C    0.110
   645   6 C    3.991 --   641 C    1.441   594 C    1.401   646 H    0.970
                           644 C    0.110
   646   1 H    0.993 --   645 C    0.970
   647   1 H    0.994 --   595 C    0.971
   648   7 N    3.485 --   640 C    1.243   643 C    0.993   628 C    0.956
                           649 O    0.187
   649   8 O    1.960 --   640 C    1.639   648 N    0.187
   650   1 H    0.994 --   703 C    0.972
   651   6 C    3.992 --   703 C    1.441   653 C    1.403   652 H    0.971
                           700 C    0.109
   652   1 H    0.995 --   651 C    0.971
   653   6 C    3.966 --   651 C    1.403   704 C    1.401   680 N    0.997
   654   6 C    3.968 --   659 C    0.998   655 H    0.974   706 H    0.974
                           680 N    0.961
   655   1 H    0.997 --   654 C    0.974
   656   6 C    3.957 --   684 O    1.651   680 N    1.200   657 C    1.013
   657   6 C    3.952 --   658 C    1.426   681 N    1.222   656 C    1.013
                           682 N    0.132
   658   6 C    3.980 --   657 C    1.426   662 C    1.327   659 C    1.011
   659   6 C    3.989 --   658 C    1.011   654 C    0.998   661 H    0.963
                           660 H    0.961
   660   1 H    0.994 --   659 C    0.961
   661   1 H    0.992 --   659 C    0.963
   662   6 C    3.967 --   682 N    1.425   658 C    1.327   663 C    0.997
   663   6 C    3.953 --   685 O    1.642   683 N    1.275   662 C    0.997
   664   6 C    3.952 --   665 C    1.398   672 C    1.370   681 N    1.003
   665   6 C    3.992 --   667 C    1.440   664 C    1.398   666 H    0.974
                           670 C    0.105
   666   1 H    0.995 --   665 C    0.974
   667   6 C    3.987 --   665 C    1.440   669 C    1.375   668 H    0.962
                           672 C    0.100
   668   1 H    0.989 --   667 C    0.962
   669   6 C    3.934 --   667 C    1.375   670 C    1.342   686 O    1.077
   670   6 C    3.991 --   672 C    1.475   669 C    1.342   671 H    0.971
                           665 C    0.105
   671   1 H    0.994 --   670 C    0.971
   672   6 C    3.991 --   670 C    1.475   664 C    1.370   673 H    0.973
                           667 C    0.100
   673   1 H    0.994 --   672 C    0.973
   674   6 C    3.930 --   676 H    0.981   675 H    0.977   677 H    0.975
                           686 O    0.963
   675   1 H    0.995 --   674 C    0.977
   676   1 H    0.997 --   674 C    0.981
   677   1 H    0.993 --   674 C    0.975
   678   1 H    0.947 --   683 N    0.919
   679   1 H    0.957 --   683 N    0.942
   680   7 N    3.470 --   656 C    1.200   653 C    0.997   654 C    0.961
                           684 O    0.186
   681   7 N    3.692 --   657 C    1.222   682 N    1.220   664 C    1.003
   682   7 N    2.963 --   662 C    1.425   681 N    1.220   657 C    0.132
   683   7 N    3.388 --   663 C    1.275   679 H    0.942   678 H    0.919
                           685 O    0.198
   684   8 O    1.998 --   656 C    1.651   680 N    0.186
   685   8 O    1.961 --   663 C    1.642   683 N    0.198
   686   8 O    2.211 --   669 C    1.077   674 C    0.963
   687   6 C    3.970 --   690 C    1.007   689 H    0.974   688 H    0.972
                           707 N    0.960
   688   1 H    0.997 --   687 C    0.972
   689   1 H    0.996 --   687 C    0.974
   690   6 C    3.991 --   687 C    1.007   693 C    1.006   691 H    0.978
                           692 H    0.971
   691   1 H    0.997 --   690 C    0.978
   692   1 H    0.996 --   690 C    0.971
   693   6 C    3.994 --   690 C    1.006   696 C    1.002   695 H    0.981
                           694 H    0.976
   694   1 H    0.997 --   693 C    0.976
   695   1 H    0.997 --   693 C    0.981
   696   6 C    3.990 --   693 C    1.002   699 C    0.977   698 H    0.963
                           697 H    0.953
   697   1 H    0.994 --   696 C    0.953
   698   1 H    0.994 --   696 C    0.963
   699   6 C    3.950 --   708 O    1.658   707 N    1.236   696 C    0.977
   700   6 C    3.994 --   704 C    1.442   702 C    1.405   701 H    0.974
                           651 C    0.109
   701   1 H    0.995 --   700 C    0.974
   702   6 C    3.969 --   700 C    1.405   703 C    1.405   707 N    0.992
   703   6 C    3.993 --   651 C    1.441   702 C    1.405   650 H    0.972
                           704 C    0.110
   704   6 C    3.993 --   700 C    1.442   653 C    1.401   705 H    0.974
                           703 C    0.110
   705   1 H    0.995 --   704 C    0.974
   706   1 H    0.995 --   654 C    0.974
   707   7 N    3.480 --   699 C    1.236   702 C    0.992   687 C    0.960
                           708 O    0.188
   708   8 O    1.967 --   699 C    1.658   707 N    0.188
   709   6 C    3.969 --   712 C    1.007   711 H    0.974   710 H    0.971
                           728 N    0.959
   710   1 H    0.997 --   709 C    0.971
   711   1 H    0.997 --   709 C    0.974
   712   6 C    3.989 --   715 C    1.007   709 C    1.007   713 H    0.977
                           714 H    0.968
   713   1 H    0.996 --   712 C    0.977
   714   1 H    0.995 --   712 C    0.968
   715   6 C    3.992 --   712 C    1.007   764 C    1.001   717 H    0.981
                           716 H    0.971
   716   1 H    0.995 --   715 C    0.971
   717   1 H    0.998 --   715 C    0.981
   718   6 C    3.950 --   767 O    1.634   728 N    1.253   764 C    0.978
   719   6 C    3.993 --   726 C    1.441   721 C    1.406   720 H    0.973
                           724 C    0.110
   720   1 H    0.995 --   719 C    0.973
   721   6 C    3.966 --   722 C    1.406   719 C    1.406   728 N    0.986
   722   6 C    3.994 --   724 C    1.440   721 C    1.406   723 H    0.973
                           726 C    0.110
   723   1 H    0.995 --   722 C    0.973
   724   6 C    3.989 --   722 C    1.440   729 C    1.403   725 H    0.967
                           719 C    0.110
   725   1 H    0.991 --   724 C    0.967
   726   6 C    3.993 --   719 C    1.441   729 C    1.402   730 H    0.974
                           722 C    0.110
   727   1 H    0.990 --   745 C    0.963
   728   7 N    3.491 --   718 C    1.253   721 C    0.986   709 C    0.959
                           767 O    0.190
   729   6 C    3.966 --   724 C    1.403   726 C    1.402   750 N    0.999
   730   1 H    0.995 --   726 C    0.974
   731   6 C    3.970 --   737 C    0.998   732 H    0.975   733 H    0.975
                           750 N    0.963
   732   1 H    0.997 --   731 C    0.975
   733   1 H    0.995 --   731 C    0.975
   734   6 C    3.957 --   754 O    1.665   750 N    1.197   735 C    1.008
   735   6 C    3.955 --   736 C    1.430   751 N    1.227   734 C    1.008
                           752 N    0.132
   736   6 C    3.980 --   735 C    1.430   740 C    1.324   737 C    1.011
   737   6 C    3.990 --   736 C    1.011   731 C    0.998   739 H    0.964
                           738 H    0.961
   738   1 H    0.994 --   737 C    0.961
   739   1 H    0.993 --   737 C    0.964
   740   6 C    3.967 --   752 N    1.419   736 C    1.324   741 C    1.003
   741   6 C    3.950 --   755 O    1.657   753 N    1.248   740 C    1.003
   742   6 C    3.952 --   743 C    1.399   746 C    1.372   751 N    1.002
   743   6 C    3.988 --   745 C    1.437   742 C    1.399   744 H    0.967
                           762 C    0.106
   744   1 H    0.992 --   743 C    0.967
   745   6 C    3.988 --   743 C    1.437   761 C    1.381   727 H    0.963
                           746 C    0.101
   746   6 C    3.991 --   762 C    1.474   742 C    1.372   747 H    0.973
                           745 C    0.101
   747   1 H    0.994 --   746 C    0.973
   748   1 H    0.958 --   753 N    0.942
   749   1 H    0.956 --   753 N    0.942
   750   7 N    3.468 --   734 C    1.197   729 C    0.999   731 C    0.963
                           754 O    0.187
   751   7 N    3.696 --   735 C    1.227   752 N    1.222   742 C    1.002
   752   7 N    2.963 --   740 C    1.419   751 N    1.222   735 C    0.132
   753   7 N    3.365 --   741 C    1.248   748 H    0.942   749 H    0.942
                           755 O    0.190
   754   8 O    2.008 --   734 C    1.665   750 N    0.187
   755   8 O    1.968 --   741 C    1.657   753 N    0.190
   756   6 C    3.936 --   757 H    0.981   759 H    0.980   758 H    0.980
                           760 O    0.966
   757   1 H    0.995 --   756 C    0.981
   758   1 H    0.996 --   756 C    0.980
   759   1 H    0.996 --   756 C    0.980
   760   8 O    2.201 --   761 C    1.067   756 C    0.966
   761   6 C    3.932 --   745 C    1.381   762 C    1.345   760 O    1.067
   762   6 C    3.991 --   746 C    1.474   761 C    1.345   763 H    0.973
                           743 C    0.106
   763   1 H    0.994 --   762 C    0.973
   764   6 C    3.990 --   715 C    1.001   718 C    0.978   766 H    0.963
                           765 H    0.952
   765   1 H    0.994 --   764 C    0.952
   766   1 H    0.995 --   764 C    0.963
   767   8 O    1.950 --   718 C    1.634   728 N    0.190
   768   6 C    3.966 --   771 C    1.007   770 H    0.972   769 H    0.970
                           787 N    0.957
   769   1 H    0.997 --   768 C    0.970
   770   1 H    0.995 --   768 C    0.972
   771   6 C    3.990 --   768 C    1.007   774 C    1.007   772 H    0.979
                           773 H    0.969
   772   1 H    0.996 --   771 C    0.979
   773   1 H    0.996 --   771 C    0.969
   774   6 C    3.994 --   771 C    1.007   823 C    1.001   776 H    0.981
                           775 H    0.976
   775   1 H    0.997 --   774 C    0.976
   776   1 H    0.998 --   774 C    0.981
   777   6 C    3.950 --   826 O    1.639   787 N    1.246   823 C    0.978
   778   6 C    3.993 --   785 C    1.441   780 C    1.405   779 H    0.972
                           783 C    0.109
   779   1 H    0.994 --   778 C    0.972
   780   6 C    3.968 --   778 C    1.405   781 C    1.405   787 N    0.990
   781   6 C    3.993 --   783 C    1.440   780 C    1.405   782 H    0.973
                           785 C    0.110
   782   1 H    0.994 --   781 C    0.973
   783   6 C    3.992 --   781 C    1.440   788 C    1.403   784 H    0.973
                           778 C    0.109
   784   1 H    0.995 --   783 C    0.973
   785   6 C    3.991 --   778 C    1.441   788 C    1.402   789 H    0.970
                           781 C    0.110
   786   1 H    0.994 --   804 C    0.970
   787   7 N    3.487 --   777 C    1.246   780 C    0.990   768 C    0.957
                           826 O    0.189
   788   6 C    3.964 --   783 C    1.403   785 C    1.402   809 N    0.996
   789   1 H    0.993 --   785 C    0.970
   790   6 C    3.964 --   796 C    0.998   791 H    0.972   792 H    0.971
                           809 N    0.960
   791   1 H    0.995 --   790 C    0.972
   792   1 H    0.994 --   790 C    0.971
   793   6 C    3.958 --   813 O    1.647   809 N    1.209   794 C    1.010
   794   6 C    3.953 --   795 C    1.430   810 N    1.220   793 C    1.010
                           811 N    0.134
   795   6 C    3.981 --   794 C    1.430   799 C    1.321   796 C    1.012
   796   6 C    3.989 --   795 C    1.012   790 C    0.998   797 H    0.960
                           798 H    0.960
   797   1 H    0.994 --   796 C    0.960
   798   1 H    0.991 --   796 C    0.960
   799   6 C    3.968 --   811 N    1.424   795 C    1.321   800 C    1.001
   800   6 C    3.951 --   814 O    1.646   812 N    1.260   799 C    1.001
   801   6 C    3.956 --   802 C    1.401   805 C    1.372   810 N    1.005
   802   6 C    3.991 --   804 C    1.436   801 C    1.401   803 H    0.973
                           821 C    0.107
   803   1 H    0.995 --   802 C    0.973
   804   6 C    3.991 --   802 C    1.436   820 C    1.379   786 H    0.970
   805   6 C    3.990 --   821 C    1.476   801 C    1.372   806 H    0.972
   806   1 H    0.993 --   805 C    0.972
   807   1 H    0.957 --   812 N    0.939
   808   1 H    0.953 --   812 N    0.939
   809   7 N    3.480 --   793 C    1.209   788 C    0.996   790 C    0.960
                           813 O    0.191
   810   7 N    3.691 --   794 C    1.220   811 N    1.219   801 C    1.005
   811   7 N    2.964 --   799 C    1.424   810 N    1.219   794 C    0.134
   812   7 N    3.376 --   800 C    1.260   807 H    0.939   808 H    0.939
                           814 O    0.192
   813   8 O    1.994 --   793 C    1.647   809 N    0.191
   814   8 O    1.963 --   800 C    1.646   812 N    0.192
   815   6 C    3.935 --   817 H    0.981   818 H    0.981   816 H    0.979
                           819 O    0.966
   816   1 H    0.994 --   815 C    0.979
   817   1 H    0.996 --   815 C    0.981
   818   1 H    0.996 --   815 C    0.981
   819   8 O    2.208 --   820 C    1.072   815 C    0.966
   820   6 C    3.933 --   804 C    1.379   821 C    1.344   819 O    1.072
   821   6 C    3.991 --   805 C    1.476   820 C    1.344   822 H    0.971
                           802 C    0.107
   822   1 H    0.994 --   821 C    0.971
   823   6 C    3.990 --   774 C    1.001   777 C    0.978   825 H    0.963
                           824 H    0.953
   824   1 H    0.993 --   823 C    0.953
   825   1 H    0.994 --   823 C    0.963
   826   8 O    1.962 --   777 C    1.639   787 N    0.189
 ---------------------------------------------------------------------------

Topologies differ in total number of bonds
Writing topology from bond orders to xtbtopo.mol

molecular dipole:
                 x           y           z       tot (Debye)
 q only:        0.600      -0.076      -0.495
   full:        0.628      -0.099      -0.449       1.978
molecular quadrupole (traceless):
                xx          xy          yy          xz          yz          zz
 q only:     -288.582     117.383     231.368     116.066     -92.989      57.214
  q+dip:     -283.258     140.960     191.307     114.021     -96.379      91.951
   full:     -261.866     140.608     163.812     149.332     -97.718      98.053


           -------------------------------------------------
          | TOTAL ENERGY            -1356.127537903450 Eh   |
          | GRADIENT NORM               3.488354772929 Eh/ﾎｱ |
          | HOMO-LUMO GAP               2.307057167299 eV   |
           -------------------------------------------------

------------------------------------------------------------------------
 * finished run on 2026/10/03 at 17:29:09.171     
------------------------------------------------------------------------
 total:
 * wall-time:     0 d,  0 h,  0 min, 55.192 sec
 *  cpu-time:     0 d,  0 h,  0 min, 54.922 sec
 * ratio c/w:     0.995 speedup
 SCF:
 * wall-time:     0 d,  0 h,  0 min, 53.495 sec
 *  cpu-time:     0 d,  0 h,  0 min, 53.344 sec
 * ratio c/w:     0.997 speedup

normal termination of xtb
