      -----------------------------------------------------------      
     |                   =====================                   |     
     |                           x T B                           |     
     |                   =====================                   |     
     |                         S. Grimme                         |     
     |          Mulliken Center for Theoretical Chemistry        |     
     |                    University of Bonn                     |     
      -----------------------------------------------------------      

   * xtb version 6.7.1pre (5071a88) compiled by 'Marcel@Raven' on 2024-07-23

   xtb is free software: you can redistribute it and/or modify it under
   the terms of the GNU Lesser General Public License as published by
   the Free Software Foundation, either version 3 of the License, or
   (at your option) any later version.
   
   xtb is distributed in the hope that it will be useful,
   but WITHOUT ANY WARRANTY; without even the implied warranty of
   MERCHANTABILITY or FITNESS FOR A PARTICULAR PURPOSE.  See the
   GNU Lesser General Public License for more details.
   
   Cite this work as:
   * C. Bannwarth, E. Caldeweyher, S. Ehlert, A. Hansen, P. Pracht,
     J. Seibert, S. Spicher, S. Grimme, WIREs Comput. Mol. Sci., 2020, 11,
     e01493. DOI: 10.1002/wcms.1493
   
   for GFN2-xTB:
   * C. Bannwarth, S. Ehlert and S. Grimme., J. Chem. Theory Comput., 2019,
     15, 1652-1671. DOI: 10.1021/acs.jctc.8b01176
   for GFN1-xTB:
   * S. Grimme, C. Bannwarth, P. Shushkov, J. Chem. Theory Comput., 2017,
     13, 1989-2009. DOI: 10.1021/acs.jctc.7b00118
   for GFN0-xTB:
   * P. Pracht, E. Caldeweyher, S. Ehlert, S. Grimme, ChemRxiv, 2019, preprint.
     DOI: 10.26434/chemrxiv.8326202.v1
   for GFN-FF:
   * S. Spicher and S. Grimme, Angew. Chem. Int. Ed., 2020, 59, 15665-15673.
     DOI: 10.1002/anie.202004239
   
   for ALPB and GBSA implicit solvation:
   * S. Ehlert, M. Stahn, S. Spicher, S. Grimme, J. Chem. Theory Comput.,
     2021, 17, 4250-4261. DOI: 10.1021/acs.jctc.1c00471
   
   for ddCOSMO and CPCM-X implicit solvation:
   * M. Stahn, S. Ehlert, S. Grimme, J. Phys. Chem. A,
     2023, XX, XXXX-XXXX. DOI: 10.1021/acs.jpca.3c04382
   
   for DFT-D4:
   * E. Caldeweyher, C. Bannwarth and S. Grimme, J. Chem. Phys., 2017,
     147, 034112. DOI: 10.1063/1.4993215
   * E. Caldeweyher, S. Ehlert, A. Hansen, H. Neugebauer, S. Spicher,
     C. Bannwarth and S. Grimme, J. Chem. Phys., 2019, 150, 154122.
     DOI: 10.1063/1.5090222
   * E. Caldeweyher, J.-M. Mewes, S. Ehlert and S. Grimme, Phys. Chem. Chem. Phys.
     2020, 22, 8499-8512. DOI: 10.1039/D0CP00502A
   
   for sTDA-xTB:
   * S. Grimme and C. Bannwarth, J. Chem. Phys., 2016, 145, 054103.
     DOI: 10.1063/1.4959605
   
   in the mass-spec context:
   * V. Asgeirsson, C. Bauer and S. Grimme, Chem. Sci., 2017, 8, 4879.
     DOI: 10.1039/c7sc00601b
   * J. Koopman and S. Grimme, ACS Omega 2019, 4, 12, 15120-15133.
     DOI: 10.1021/acsomega.9b02011
   
   for metadynamics refer to:
   * S. Grimme, J. Chem. Theory Comput., 2019, 155, 2847-2862
     DOI: 10.1021/acs.jctc.9b00143
   
   for SPH calculations refer to:
   * S. Spicher and S. Grimme, J. Chem. Theory Comput., 2021, 17, 1701-1714
     DOI: 10.1021/acs.jctc.0c01306
   
   for ONIOM refer to:
   * C. Plett, A. Katbashev, S. Ehlert, S. Grimme, M. Bursch,
     Phys. Chem. Chem. Phys., 2023, 25, 17860-17868. DOI: 10.1039/D3CP02178E
   
   for DIPRO refer to:
   * J. Kohn, N. Gildemeister, S. Grimme, D. Fazzi, A. Hansen,
     J. Chem. Phys., 2023, just accepted.
   
   for PTB refer to:
   * S. Grimme, M. Mueller, A. Hansen, J. Chem. Phys., 2023, 158, 124111.
     DOI: 10.1063/5.0137838
   
   with help from (in alphabetical order)
   P. Atkinson, C. Bannwarth, F. Bohle, G. Brandenburg, E. Caldeweyher
   M. Checinski, S. Dohm, S. Ehlert, S. Ehrlich, I. Gerasimov, C. Hölzer
   A. Katbashev, J. Kohn, J. Koopman, C. Lavigne, S. Lehtola, F. März, M. Müller,
   F. Musil, H. Neugebauer, J. Pisarek, C. Plett, P. Pracht, F. Pultar,
   J. Seibert, P. Shushkov, S. Spicher, M. Stahn, M. Steiner, T. Strunk,
   J. Stückrath, T. Rose, and J. Unsleber
   
 * started run on 2026/10/03 at 17:08:17.382     
   ID    Z sym.   atoms
    1    1 H      1, 3, 6, 11, 12, 17, 19, 22, 24, 26-30, 39, 40, 42, 43, 45,
                  46, 48, 49, 52, 56, 57, 61, 62, 64, 65, 67, 68, 70, 71, 74,
                  78, 79, 82, 84, 87, 92, 93, 98, 100, 103, 105, 107-111,
                  120, 121, 123, 124, 126, 127, 129, 130, 133, 137, 138, 141,
                  143, 146, 151, 152, 157, 159, 162, 164, 166-170, 179, 180,
                  184, 186-188, 191, 193, 194, 199, 200, 205, 208-210, 218,
                  219, 221, 222, 224, 225, 228, 231, 233, 235, 238, 239, 243,
                  245-247, 250, 252, 253, 258, 259, 264, 267-269, 277, 278,
                  280, 281, 283, 284, 287, 290, 292, 294, 297, 298, 300, 301,
                  303, 304, 307, 310, 312, 314, 317, 319, 320, 325, 326, 331,
                  334-336, 344-346, 350, 352, 353, 356, 357, 359, 360, 362,
                  363, 366, 369, 371, 373, 376, 378, 379, 384, 385, 390,
                  393-395, 403-405, 409, 411, 412, 415, 416, 420, 422-424,
                  427, 429, 430, 435, 436, 440, 442, 445, 450, 451, 456, 458,
                  461, 463, 465-469, 478, 479, 481, 482, 484, 485, 487, 488,
                  491, 495, 496, 499, 501, 504, 509, 510, 515, 517, 520, 522,
                  524-528, 537, 538, 540, 541, 543, 544, 546, 547, 550, 554,
                  555
    2    6 C      2, 4, 5, 7-10, 13-16, 18, 20, 21, 23, 25, 38, 41, 44, 47,
                  50, 51, 53-55, 60, 63, 66, 69, 72, 73, 75-77, 83, 85, 86,
                  88-91, 94-97, 99, 101, 102, 104, 106, 119, 122, 125, 128,
                  131, 132, 134-136, 142, 144, 145, 147-150, 153-156, 158,
                  160, 161, 163, 165, 178, 182, 183, 185, 190, 192, 195-198,
                  201-204, 206, 207, 217, 220, 223, 226, 227, 229, 230, 232,
                  234, 237, 241, 242, 244, 249, 251, 254-257, 260-263, 265,
                  266, 276, 279, 282, 285, 286, 288, 289, 291, 293, 296, 299,
                  302, 305, 306, 308, 309, 311, 313, 316, 318, 321-324,
                  327-330, 332, 333, 343, 348, 349, 351, 355, 358, 361, 364,
                  365, 367, 368, 370, 372, 375, 377, 380-383, 386-389, 391,
                  392, 402, 407, 408, 410, 414, 418, 419, 421, 426, 428,
                  431-434, 437-439, 441, 443, 444, 446-449, 452-455, 457,
                  459, 460, 462, 464, 477, 480, 483, 486, 489, 490, 492-494,
                  500, 502, 503, 505-508, 511-514, 516, 518, 519, 521, 523,
                  536, 539, 542, 545, 548, 549, 551-553
    3    7 N      31-34, 58, 80, 112-115, 139, 171-174, 211-214, 236,
                  270-273, 295, 315, 337-340, 374, 396-399, 470-473, 497,
                  529-532, 556
    4    8 O      35-37, 59, 81, 116-118, 140, 175-177, 181, 189, 215, 216,
                  240, 248, 274, 275, 341, 342, 347, 354, 400, 401, 406, 413,
                  417, 425, 474-476, 498, 533-535, 557

           -------------------------------------------------
          |                Calculation Setup                |
           -------------------------------------------------

          program call               : "C:\ORCA_6.1.1\xtb-6.7.1pre\xtb.exe"  "Stage06_557_D6a_D6b_direct.xyz" --grad -c 0 -u 0 -P 1 --namespace Stage06_557_D6a_D6b --acc 1.000000 
          calculation namespace      : Stage06_557_D6a_D6b
          coordinate file            : Stage06_557_D6a_D6b_direct.xyz
          omp threads                :                     1


molecular fragmentation (1/2 indicates fragments):
111111111111111111111111111111111111111111111111111111111112222222222222
222222222222222222222222222222222222222222222222222222222222222222222222
222222222222222222222222222222222222222222222222222222222222222222222222
222222222222222222222222222222222222222222222222222222222222222222222222
222222222222222222222222222222222222222222222222222222222222222222222222
222222222222222222222222222222222222222222222222222222222222222222222222
222222222222222222222222222222222222222222222222222222222222222222222222
22222222222222222222222222222222222222222222222222222
# atoms in fragment 1/2:    59   498
 fragment masses (1/2) :      459.50     3875.21
CMA distance (Bohr)    :   1.652
constraining FC (au)   :  0.0500

           -------------------------------------------------
          |                 G F N 2 - x T B                 |
           -------------------------------------------------

        Reference                      10.1021/acs.jctc.8b01176
      * Hamiltonian:
        H0-scaling (s, p, d)           1.850000    2.230000    2.230000
        zeta-weighting                 0.500000
      * Dispersion:
        s8                             2.700000
        a1                             0.520000
        a2                             5.000000
        s9                             5.000000
      * Repulsion:
        kExp                           1.500000    1.000000
        rExp                           1.000000
      * Coulomb:
        alpha                          2.000000
        third order                    shell-resolved
        anisotropic                    true
        a3                             3.000000
        a5                             4.000000
        cn-shift                       1.200000
        cn-exp                         4.000000
        max-rad                        5.000000


          ...................................................
          :                      SETUP                      :
          :.................................................:
          :  # basis functions                1520          :
          :  # atomic orbitals                1520          :
          :  # shells                          878          :
          :  # electrons                      1641          :
          :  max. iterations                   250          :
          :  Hamiltonian                  GFN2-xTB          :
          :  restarted?                      false          :
          :  GBSA solvation                  false          :
          :  PC potential                    false          :
          :  electronic temp.          300.0000000     K    :
          :  accuracy                    1.0000000          :
          :  -> integral cutoff          0.2500000E+02      :
          :  -> integral neglect         0.1000000E-07      :
          :  -> SCF convergence          0.1000000E-05 Eh   :
          :  -> wf. convergence          0.1000000E-03 e    :
          :  Broyden damping             0.4000000          :
          :  net charge                          0          :
          :  unpaired electrons                  0          :
          ...................................................

 iter      E             dE          RMSdq      gap      omega  full diag
   1   -926.5430946 -0.926543E+03  0.465E+00    0.31       0.0  T
   2   -903.6872299  0.228559E+02  0.446E+00    0.21       1.0  T
   3   -806.4487155  0.972385E+02  0.495E+00    0.00       1.0  T
   4   -699.2068343  0.107242E+03  0.645E+00    0.02       1.0  T
   5   -871.1444826 -0.171938E+03  0.465E+00    0.09       1.0  T
   6   -926.7598100 -0.556153E+02  0.274E+00    0.02       1.0  T
   7   -925.1992490  0.156056E+01  0.220E+00    0.03       1.0  T
   8   -913.9462125  0.112530E+02  0.327E+00    0.03       1.0  T
   9   -927.7817239 -0.138355E+02  0.199E+00    0.42       1.0  T
  10   -928.2021572 -0.420433E+00  0.186E+00    0.03       1.0  T
  11   -929.9179076 -0.171575E+01  0.146E+00    0.50       1.0  T
  12   -929.9070402  0.108675E-01  0.136E+00    0.43       1.0  T
  13   -929.9616803 -0.546402E-01  0.126E+00    0.58       1.0  T
  14   -928.5568935  0.140479E+01  0.158E+00    0.25       1.0  T
  15   -930.7243766 -0.216748E+01  0.952E-01    0.35       1.0  T
  16   -931.3804062 -0.656030E+00  0.771E-01    0.02       1.0  T
  17   -931.3359790  0.444272E-01  0.609E-01    0.03       1.0  T
  18   -930.0656470  0.127033E+01  0.128E+00    0.08       1.0  T
  19   -930.5917857 -0.526139E+00  0.113E+00    0.00       1.0  T
  20   -930.9457991 -0.354013E+00  0.103E+00    0.04       1.0  T
  21   -930.9680711 -0.222720E-01  0.105E+00    0.05       1.0  T
  22   -931.0599715 -0.919004E-01  0.102E+00    0.06       1.0  T
  23   -931.1753261 -0.115355E+00  0.957E-01    0.11       1.0  T
  24   -928.1798460  0.299548E+01  0.171E+00    0.08       1.0  T
  25   -928.3108552 -0.131009E+00  0.168E+00    0.12       1.0  T
  26   -928.4473893 -0.136534E+00  0.165E+00    0.12       1.0  T
  27   -930.9305799 -0.248319E+01  0.782E-01    0.01       1.0  T
  28   -931.3094479 -0.378868E+00  0.646E-01    0.04       1.0  T
  29   -931.2563444  0.531035E-01  0.577E-01    0.00       1.0  T
  30   -930.7214726  0.534872E+00  0.849E-01    0.04       1.0  T
  31   -930.9035472 -0.182075E+00  0.767E-01    0.03       1.0  T
  32   -931.0024552 -0.989079E-01  0.733E-01    0.01       1.0  T
  33   -931.3444117 -0.341957E+00  0.569E-01    0.04       1.0  T
  34   -931.3617054 -0.172937E-01  0.561E-01    0.04       1.0  T
  35   -929.7795058  0.158220E+01  0.130E+00    0.11       1.0  T
  36   -930.2030448 -0.423539E+00  0.114E+00    0.06       1.0  T
  37   -930.8910227 -0.687978E+00  0.835E-01    0.00       1.0  T
  38   -931.5808141 -0.689791E+00  0.462E-01    0.09       1.0  T
  39   -931.6639688 -0.831547E-01  0.404E-01    0.11       1.0  T
  40   -931.6491264  0.148425E-01  0.413E-01    0.11       1.0  T
  41   -931.7011585 -0.520322E-01  0.360E-01    0.12       1.0  T
  42   -930.7783835  0.922775E+00  0.934E-01    0.01       1.0  T
  43   -931.7923411 -0.101396E+01  0.353E-01    0.09       1.0  T
  44   -931.8035377 -0.111966E-01  0.342E-01    0.09       1.0  T
  45   -931.8169924 -0.134547E-01  0.317E-01    0.09       1.0  T
  46   -931.7642846  0.527078E-01  0.350E-01    0.09       1.0  T
  47   -931.7353003  0.289843E-01  0.385E-01    0.09       1.0  T
  48   -931.7823214 -0.470211E-01  0.332E-01    0.09       1.0  T
  49   -931.7952191 -0.128977E-01  0.324E-01    0.09       1.0  T
  50   -931.8167659 -0.215468E-01  0.254E-01    0.07       1.0  T
  51   -931.8162987  0.467233E-03  0.253E-01    0.07       1.0  T
  52   -931.8049221  0.113766E-01  0.253E-01    0.07       1.0  T
  53   -931.7966295  0.829257E-02  0.249E-01    0.06       1.0  T
  54   -931.7538540  0.427755E-01  0.297E-01    0.09       1.0  T
  55   -931.7851206 -0.312666E-01  0.236E-01    0.05       1.0  T
  56   -931.8094628 -0.243422E-01  0.202E-01    0.07       1.0  T
  57   -931.8026984  0.676436E-02  0.195E-01    0.06       1.0  T
  58   -931.8196115 -0.169131E-01  0.171E-01    0.05       1.0  T
  59   -931.8257065 -0.609502E-02  0.162E-01    0.06       1.0  T
  60   -931.8347084 -0.900194E-02  0.144E-01    0.05       1.0  T
  61   -931.8348586 -0.150122E-03  0.140E-01    0.06       1.0  T
  62   -931.8365135 -0.165491E-02  0.130E-01    0.05       1.0  T
  63   -931.8385116 -0.199818E-02  0.122E-01    0.05       1.0  T
  64   -931.8382838  0.227813E-03  0.119E-01    0.05       1.0  T
  65   -931.8425153 -0.423146E-02  0.108E-01    0.05       1.0  T
  66   -931.8409374  0.157792E-02  0.105E-01    0.05       1.0  T
  67   -931.8297093  0.112281E-01  0.132E-01    0.05       1.0  T
  68   -931.8283019  0.140743E-02  0.136E-01    0.05       1.0  T
  69   -931.8344776 -0.617570E-02  0.121E-01    0.05       1.0  T
  70   -931.8279949  0.648271E-02  0.136E-01    0.05       1.0  T
  71   -931.8211405  0.685442E-02  0.153E-01    0.05       1.0  T
  72   -931.8432308 -0.220903E-01  0.919E-02    0.05       1.0  T
  73   -931.8450524 -0.182161E-02  0.861E-02    0.05       1.0  T
  74   -931.8465687 -0.151627E-02  0.823E-02    0.06       1.0  T
  75   -931.8465749 -0.623907E-05  0.810E-02    0.06       1.0  T
  76   -931.8455877  0.987217E-03  0.840E-02    0.06       1.0  T
  77   -931.8447666  0.821144E-03  0.863E-02    0.06       1.0  T
  78   -931.8437220  0.104456E-02  0.888E-02    0.06       1.0  T
  79   -931.8437197  0.231007E-05  0.874E-02    0.06       1.0  T
  80   -931.8438931 -0.173354E-03  0.843E-02    0.06       1.0  T
  81   -931.8458025 -0.190941E-02  0.729E-02    0.06       1.0  T
  82   -931.8466495 -0.847024E-03  0.665E-02    0.06       1.0  T
  83   -931.8473851 -0.735667E-03  0.603E-02    0.06       1.0  T
  84   -931.8479927 -0.607569E-03  0.538E-02    0.06       1.0  T
  85   -931.8494510 -0.145827E-02  0.415E-02    0.06       1.0  T
  86   -931.8501762 -0.725242E-03  0.334E-02    0.07       1.0  T
  87   -931.8506203 -0.444041E-03  0.269E-02    0.07       1.0  T
  88   -931.8509066 -0.286277E-03  0.215E-02    0.07       1.0  T
  89   -931.8510819 -0.175380E-03  0.177E-02    0.07       1.0  T
  90   -931.8511809 -0.989969E-04  0.153E-02    0.07       1.0  T
  91   -931.8512520 -0.710756E-04  0.133E-02    0.07       1.0  T
  92   -931.8513105 -0.584949E-04  0.116E-02    0.07       1.0  T
  93   -931.8513545 -0.440141E-04  0.103E-02    0.07       1.0  T
  94   -931.8513849 -0.303419E-04  0.891E-03    0.07       1.0  T
  95   -931.8514070 -0.221059E-04  0.769E-03    0.07       1.0  T
  96   -931.8514240 -0.170511E-04  0.629E-03    0.07       1.0  T
  97   -931.8514301 -0.603806E-05  0.540E-03    0.07       1.0  T
  98   -931.8514367 -0.666361E-05  0.463E-03    0.07       1.0  T
  99   -931.8514436 -0.690816E-05  0.392E-03    0.07       1.1  T
 100   -931.8514504 -0.673781E-05  0.318E-03    0.07       1.3  T
 101   -931.8514560 -0.568416E-05  0.239E-03    0.07       1.8  T
 102   -931.8514601 -0.409470E-05  0.161E-03    0.07       2.6  T
 103   -931.8514616 -0.143294E-05  0.114E-03    0.07       3.7  T
 104   -931.8514620 -0.401093E-06  0.841E-04    0.07       5.0  T
 105   -931.8514619  0.424528E-07  0.669E-04    0.07       6.3  T

   *** convergence criteria satisfied after 105 iterations ***

         #    Occupation            Energy/Eh            Energy/eV
      -------------------------------------------------------------
         1        2.0000           -0.7430916             -20.2206
       ...           ...                  ...                  ...
       815        1.9752           -0.3753830             -10.2147
       816        1.9681           -0.3751380             -10.2080
       817        1.9424           -0.3745580             -10.1922
       818        1.9306           -0.3743713             -10.1872
       819        1.8979           -0.3739787             -10.1765
       820        1.8061           -0.3732948             -10.1579
       821        1.2205           -0.3713747             -10.1056 (HOMO)
       822        0.2600           -0.3687310             -10.0337 (LUMO)
       823        0.0346           -0.3666311              -9.9765
       824        0.0000           -0.3569194              -9.7123
       825                         -0.3519027              -9.5758
       826                         -0.3428451              -9.3293
       ...                                ...                  ...
      1520                          0.8899421              24.2166
      -------------------------------------------------------------
                  HL-Gap            0.0026437 Eh            0.0719 eV
             Fermi-level           -0.3708454 Eh          -10.0912 eV

 SCC (total)                   0 d,  0 h,  1 min, 51.244 sec
 SCC setup                      ...        0 min,  0.023 sec (  0.021%)
 Dispersion                     ...        0 min,  0.064 sec (  0.058%)
 classical contributions        ...        0 min,  0.008 sec (  0.007%)
 integral evaluation            ...        0 min,  0.500 sec (  0.449%)
 iterations                     ...        1 min, 45.920 sec ( 95.214%)
 molecular gradient             ...        0 min,  4.087 sec (  3.674%)
 printout                       ...        0 min,  0.642 sec (  0.577%)

         :::::::::::::::::::::::::::::::::::::::::::::::::::::
         ::                     SUMMARY                     ::
         :::::::::::::::::::::::::::::::::::::::::::::::::::::
         :: total energy            -911.437391852712 Eh    ::
         :: gradient norm              2.866230212846 Eh/a0 ::
         :: HOMO-LUMO gap              0.071938468179 eV    ::
         ::.................................................::
         :: SCC energy              -931.795764514487 Eh    ::
         :: -> isotropic ES            1.266822273908 Eh    ::
         :: -> anisotropic ES         -0.006948987738 Eh    ::
         :: -> anisotropic XC          0.191084373559 Eh    ::
         :: -> dispersion             -0.859044581781 Eh    ::
         :: repulsion energy          20.358372661776 Eh    ::
         :: add. restraining           0.000000000000 Eh    ::
         :: total charge               0.000000000003 e     ::
         :::::::::::::::::::::::::::::::::::::::::::::::::::::

           -------------------------------------------------
          |                Property Printout                |
           -------------------------------------------------

    * Orbital Energies and Occupations

         #    Occupation            Energy/Eh            Energy/eV
      -------------------------------------------------------------
         1        2.0000           -0.7430916             -20.2206
       ...           ...                  ...                  ...
       809        1.9996           -0.3792673             -10.3204
       810        1.9990           -0.3784407             -10.2979
       811        1.9968           -0.3773421             -10.2680
       812        1.9947           -0.3768618             -10.2549
       813        1.9888           -0.3761490             -10.2355
       814        1.9875           -0.3760416             -10.2326
       815        1.9752           -0.3753830             -10.2147
       816        1.9681           -0.3751380             -10.2080
       817        1.9424           -0.3745580             -10.1922
       818        1.9306           -0.3743713             -10.1872
       819        1.8979           -0.3739787             -10.1765
       820        1.8061           -0.3732948             -10.1579
       821        1.2205           -0.3713747             -10.1056 (HOMO)
       822        0.2600           -0.3687310             -10.0337 (LUMO)
       823        0.0346           -0.3666311              -9.9765
       824        0.0000           -0.3569194              -9.7123
       825                         -0.3519027              -9.5758
       826                         -0.3428451              -9.3293
       827                         -0.3161817              -8.6037
       828                         -0.3114250              -8.4743
       829                         -0.3071559              -8.3581
       830                         -0.2915610              -7.9338
       831                         -0.2879895              -7.8366
       832                         -0.2731004              -7.4314
       ...                                ...                  ...
      1520                          0.8899421              24.2166
      -------------------------------------------------------------
                  HL-Gap            0.0026437 Eh            0.0719 eV
             Fermi-level           -0.3708454 Eh          -10.0912 eV

     #   Z          covCN         q      C6AA      α(0)
     1   1 H        0.930     0.076     2.024     2.225
     2   6 C        2.936    -0.048    29.187     8.860
     3   1 H        0.930     0.095     1.828     2.114
     4   6 C        2.928     0.068    26.472     8.438
     5   6 C        3.764    -0.016    20.895     6.515
     6   1 H        0.930     0.064     2.151     2.293
     7   6 C        2.767     0.274    22.361     7.744
     8   6 C        3.096    -0.002    27.962     8.666
     9   6 C        3.070    -0.022    28.471     8.749
    10   6 C        3.821    -0.084    22.091     6.689
    11   1 H        0.930     0.071     2.073     2.252
    12   1 H        0.930     0.078     2.004     2.214
    13   6 C        3.172     0.020    27.190     8.518
    14   6 C        2.748     0.277    22.305     7.733
    15   6 C        2.920     0.040    27.098     8.536
    16   6 C        2.934    -0.040    28.996     8.831
    17   1 H        0.930     0.096     1.818     2.108
    18   6 C        2.932    -0.065    29.611     8.924
    19   1 H        0.930     0.111     1.686     2.030
    20   6 C        2.878     0.152    24.711     8.149
    21   6 C        2.936    -0.074    29.842     8.959
    22   1 H        0.930     0.069     2.096     2.264
    23   6 C        2.932    -0.056    29.389     8.891
    24   1 H        0.930     0.071     2.074     2.252
    25   6 C        3.664     0.006    20.748     6.533
    26   1 H        0.930     0.066     2.124     2.279
    27   1 H        0.930     0.068     2.110     2.271
    28   1 H        0.930     0.085     1.925     2.169
    29   1 H        0.862     0.228     0.971     1.544
    30   1 H        0.863     0.210     1.056     1.610
    31   7 N        2.745    -0.112    23.452     7.192
    32   7 N        3.019     0.091    19.660     6.585
    33   7 N        1.991    -0.256    27.475     7.774
    34   7 N        2.645    -0.285    27.363     7.769
    35   8 O        0.858    -0.435    22.387     6.344
    36   8 O        0.860    -0.474    23.207     6.459
    37   8 O        1.705    -0.277    18.590     5.821
    38   6 C        3.762    -0.010    20.806     6.502
    39   1 H        0.930     0.056     2.243     2.342
    40   1 H        0.930     0.075     2.034     2.230
    41   6 C        3.827    -0.084    22.084     6.687
    42   1 H        0.930     0.063     2.169     2.303
    43   1 H        0.930     0.064     2.150     2.293
    44   6 C        3.825    -0.082    22.050     6.682
    45   1 H        0.930     0.056     2.246     2.343
    46   1 H        0.930     0.048     2.341     2.392
    47   6 C        3.826    -0.107    22.519     6.753
    48   1 H        0.930     0.076     2.024     2.224
    49   1 H        0.930     0.073     2.053     2.240
    50   6 C        2.766     0.265    22.527     7.773
    51   6 C        2.935    -0.057    29.418     8.895
    52   1 H        0.930     0.071     2.076     2.253
    53   6 C        2.930     0.062    26.613     8.460
    54   6 C        2.938    -0.049    29.223     8.866
    55   6 C        2.935    -0.058    29.429     8.897
    56   1 H        0.930     0.080     1.983     2.202
    57   1 H        0.930     0.072     2.066     2.247
    58   7 N        2.739    -0.111    23.416     7.187
    59   8 O        0.859    -0.497    23.728     6.531
    60   6 C        3.762    -0.008    20.769     6.496
    61   1 H        0.930     0.055     2.262     2.352
    62   1 H        0.930     0.061     2.191     2.314
    63   6 C        3.827    -0.084    22.075     6.686
    64   1 H        0.930     0.063     2.167     2.302
    65   1 H        0.930     0.074     2.036     2.231
    66   6 C        3.825    -0.084    22.075     6.686
    67   1 H        0.930     0.076     2.017     2.221
    68   1 H        0.930     0.046     2.373     2.409
    69   6 C        3.826    -0.107    22.518     6.752
    70   1 H        0.930     0.079     1.989     2.205
    71   1 H        0.930     0.075     2.033     2.230
    72   6 C        2.766     0.270    22.441     7.758
    73   6 C        2.935    -0.053    29.322     8.881
    74   1 H        0.930     0.067     2.119     2.276
    75   6 C        2.930     0.068    26.468     8.437
    76   6 C        2.938    -0.045    29.117     8.850
    77   6 C        2.935    -0.055    29.370     8.888
    78   1 H        0.930     0.081     1.968     2.194
    79   1 H        0.930     0.072     2.061     2.245
    80   7 N        2.739    -0.109    23.375     7.181
    81   8 O        0.859    -0.457    22.846     6.408
    82   1 H        0.930     0.075     2.026     2.226
    83   6 C        2.936    -0.046    29.148     8.854
    84   1 H        0.930     0.071     2.071     2.250
    85   6 C        2.928     0.067    26.500     8.442
    86   6 C        3.764    -0.013    20.846     6.508
    87   1 H        0.930     0.060     2.197     2.318
    88   6 C        2.767     0.268    22.475     7.764
    89   6 C        3.096    -0.009    28.134     8.693
    90   6 C        3.070    -0.018    28.384     8.736
    91   6 C        3.821    -0.085    22.096     6.689
    92   1 H        0.930     0.078     2.001     2.212
    93   1 H        0.930     0.088     1.900     2.155
    94   6 C        3.172     0.022    27.145     8.511
    95   6 C        2.748     0.274    22.366     7.744
    96   6 C        2.920     0.045    27.002     8.521
    97   6 C        2.934    -0.043    29.070     8.842
    98   1 H        0.930     0.071     2.079     2.255
    99   6 C        2.932    -0.080    29.994     8.982
   100   1 H        0.930     0.069     2.091     2.261
   101   6 C        2.878     0.146    24.833     8.169
   102   6 C        2.936    -0.065    29.630     8.927
   103   1 H        0.930     0.084     1.940     2.178
   104   6 C        2.932    -0.045    29.118     8.850
   105   1 H        0.930     0.078     2.001     2.212
   106   6 C        3.664     0.012    20.634     6.515
   107   1 H        0.930     0.075     2.035     2.230
   108   1 H        0.930     0.059     2.212     2.326
   109   1 H        0.930     0.057     2.231     2.336
   110   1 H        0.862     0.206     1.075     1.624
   111   1 H        0.863     0.212     1.045     1.601
   112   7 N        2.745    -0.117    23.542     7.206
   113   7 N        3.019     0.090    19.681     6.589
   114   7 N        1.991    -0.247    27.242     7.741
   115   7 N        2.645    -0.287    27.406     7.775
   116   8 O        0.858    -0.449    22.682     6.385
   117   8 O        0.860    -0.448    22.656     6.382
   118   8 O        1.705    -0.277    18.600     5.823
   119   6 C        3.762    -0.013    20.849     6.509
   120   1 H        0.930     0.062     2.174     2.306
   121   1 H        0.930     0.064     2.155     2.296
   122   6 C        3.827    -0.084    22.079     6.686
   123   1 H        0.930     0.056     2.249     2.345
   124   1 H        0.930     0.060     2.198     2.318
   125   6 C        3.825    -0.079    21.993     6.673
   126   1 H        0.930     0.051     2.307     2.375
   127   1 H        0.930     0.055     2.259     2.350
   128   6 C        3.826    -0.105    22.486     6.748
   129   1 H        0.930     0.071     2.071     2.250
   130   1 H        0.930     0.077     2.010     2.217
   131   6 C        2.766     0.269    22.462     7.762
   132   6 C        2.935    -0.060    29.485     8.905
   133   1 H        0.930     0.067     2.118     2.276
   134   6 C        2.930     0.062    26.611     8.460
   135   6 C        2.938    -0.049    29.225     8.866
   136   6 C        2.935    -0.059    29.477     8.904
   137   1 H        0.930     0.070     2.081     2.256
   138   1 H        0.930     0.070     2.083     2.257
   139   7 N        2.739    -0.108    23.362     7.179
   140   8 O        0.859    -0.490    23.565     6.508
   141   1 H        0.930     0.074     2.042     2.234
   142   6 C        2.936    -0.046    29.141     8.853
   143   1 H        0.930     0.096     1.823     2.111
   144   6 C        2.928     0.072    26.383     8.424
   145   6 C        3.764    -0.015    20.890     6.515
   146   1 H        0.930     0.065     2.136     2.286
   147   6 C        2.767     0.276    22.338     7.740
   148   6 C        3.096    -0.002    27.951     8.665
   149   6 C        3.070    -0.017    28.353     8.731
   150   6 C        3.821    -0.084    22.082     6.687
   151   1 H        0.930     0.076     2.019     2.222
   152   1 H        0.930     0.081     1.969     2.194
   153   6 C        3.172     0.024    27.085     8.501
   154   6 C        2.748     0.280    22.260     7.725
   155   6 C        2.920     0.046    26.972     8.517
   156   6 C        2.934    -0.042    29.043     8.838
   157   1 H        0.930     0.093     1.850     2.127
   158   6 C        2.932    -0.078    29.944     8.974
   159   1 H        0.930     0.095     1.829     2.115
   160   6 C        2.878     0.145    24.837     8.170
   161   6 C        2.936    -0.068    29.697     8.937
   162   1 H        0.930     0.077     2.010     2.217
   163   6 C        2.932    -0.049    29.216     8.865
   164   1 H        0.930     0.078     2.003     2.213
   165   6 C        3.664     0.008    20.705     6.526
   166   1 H        0.930     0.070     2.087     2.259
   167   1 H        0.930     0.067     2.119     2.276
   168   1 H        0.930     0.064     2.157     2.296
   169   1 H        0.862     0.205     1.081     1.629
   170   1 H        0.863     0.212     1.045     1.601
   171   7 N        2.745    -0.114    23.475     7.196
   172   7 N        3.019     0.094    19.619     6.579
   173   7 N        1.991    -0.246    27.209     7.736
   174   7 N        2.645    -0.283    27.308     7.761
   175   8 O        0.858    -0.434    22.368     6.341
   176   8 O        0.860    -0.458    22.881     6.413
   177   8 O        1.705    -0.277    18.600     5.823
   178   6 C        3.826    -0.107    22.513     6.752
   179   1 H        0.930     0.075     2.033     2.230
   180   1 H        0.930     0.076     2.019     2.222
   181   8 O        0.859    -0.491    23.593     6.512
   182   6 C        2.878     0.148    24.780     8.161
   183   6 C        2.936    -0.071    29.767     8.948
   184   1 H        0.930     0.074     2.042     2.235
   185   6 C        3.664     0.010    20.681     6.523
   186   1 H        0.930     0.067     2.122     2.278
   187   1 H        0.930     0.058     2.218     2.329
   188   1 H        0.930     0.073     2.056     2.242
   189   8 O        1.705    -0.281    18.658     5.832
   190   6 C        2.928     0.073    26.376     8.422
   191   1 H        0.930     0.068     2.111     2.272
   192   6 C        3.764    -0.015    20.891     6.515
   193   1 H        0.930     0.065     2.138     2.286
   194   1 H        0.930     0.068     2.107     2.270
   195   6 C        2.767     0.276    22.326     7.738
   196   6 C        3.096    -0.003    27.973     8.668
   197   6 C        3.070    -0.018    28.385     8.736
   198   6 C        3.821    -0.084    22.091     6.689
   199   1 H        0.930     0.074     2.043     2.235
   200   1 H        0.930     0.083     1.951     2.184
   201   6 C        3.172     0.026    27.048     8.496
   202   6 C        2.748     0.278    22.301     7.733
   203   6 C        2.920     0.042    27.052     8.529
   204   6 C        2.934    -0.044    29.102     8.847
   205   1 H        0.930     0.094     1.843     2.123
   206   6 C        2.932    -0.071    29.770     8.948
   207   6 C        2.932    -0.053    29.307     8.878
   208   1 H        0.930     0.076     2.020     2.222
   209   1 H        0.862     0.231     0.961     1.535
   210   1 H        0.863     0.205     1.080     1.628
   211   7 N        2.745    -0.115    23.503     7.200
   212   7 N        3.019     0.090    19.683     6.589
   213   7 N        1.991    -0.252    27.359     7.757
   214   7 N        2.645    -0.283    27.308     7.761
   215   8 O        0.858    -0.437    22.435     6.350
   216   8 O        0.860    -0.448    22.671     6.384
   217   6 C        3.762    -0.013    20.850     6.509
   218   1 H        0.930     0.060     2.193     2.315
   219   1 H        0.930     0.065     2.135     2.285
   220   6 C        3.827    -0.085    22.101     6.689
   221   1 H        0.930     0.058     2.223     2.331
   222   1 H        0.930     0.061     2.187     2.312
   223   6 C        3.825    -0.082    22.041     6.681
   224   1 H        0.930     0.057     2.239     2.340
   225   1 H        0.930     0.051     2.312     2.378
   226   6 C        2.766     0.265    22.522     7.772
   227   6 C        2.935    -0.061    29.515     8.910
   228   1 H        0.930     0.071     2.078     2.254
   229   6 C        2.930     0.060    26.657     8.467
   230   6 C        2.938    -0.047    29.164     8.857
   231   1 H        0.930     0.071     2.072     2.251
   232   6 C        2.936    -0.043    29.057     8.841
   233   1 H        0.930     0.098     1.807     2.102
   234   6 C        2.935    -0.060    29.493     8.907
   235   1 H        0.930     0.079     1.991     2.207
   236   7 N        2.739    -0.112    23.443     7.191
   237   6 C        3.826    -0.107    22.528     6.754
   238   1 H        0.930     0.076     2.016     2.220
   239   1 H        0.930     0.081     1.963     2.191
   240   8 O        0.859    -0.474    23.219     6.461
   241   6 C        2.878     0.148    24.790     8.162
   242   6 C        2.936    -0.073    29.816     8.955
   243   1 H        0.930     0.072     2.060     2.244
   244   6 C        3.664     0.012    20.636     6.516
   245   1 H        0.930     0.067     2.120     2.276
   246   1 H        0.930     0.053     2.283     2.363
   247   1 H        0.930     0.075     2.033     2.229
   248   8 O        1.705    -0.284    18.713     5.841
   249   6 C        2.928     0.069    26.466     8.437
   250   1 H        0.930     0.070     2.080     2.255
   251   6 C        3.764    -0.017    20.928     6.521
   252   1 H        0.930     0.065     2.135     2.285
   253   1 H        0.930     0.073     2.055     2.241
   254   6 C        2.767     0.268    22.477     7.764
   255   6 C        3.096    -0.009    28.130     8.692
   256   6 C        3.070    -0.015    28.323     8.726
   257   6 C        3.821    -0.084    22.092     6.689
   258   1 H        0.930     0.075     2.030     2.228
   259   1 H        0.930     0.083     1.949     2.183
   260   6 C        3.172     0.028    26.994     8.487
   261   6 C        2.748     0.281    22.234     7.721
   262   6 C        2.920     0.044    27.020     8.524
   263   6 C        2.934    -0.044    29.102     8.847
   264   1 H        0.930     0.072     2.067     2.248
   265   6 C        2.932    -0.074    29.839     8.958
   266   6 C        2.932    -0.051    29.278     8.874
   267   1 H        0.930     0.077     2.008     2.216
   268   1 H        0.862     0.231     0.961     1.535
   269   1 H        0.863     0.209     1.058     1.611
   270   7 N        2.745    -0.119    23.581     7.212
   271   7 N        3.019     0.086    19.744     6.600
   272   7 N        1.991    -0.246    27.220     7.738
   273   7 N        2.645    -0.281    27.266     7.755
   274   8 O        0.858    -0.445    22.603     6.374
   275   8 O        0.860    -0.466    23.051     6.437
   276   6 C        3.762    -0.011    20.821     6.504
   277   1 H        0.930     0.059     2.212     2.326
   278   1 H        0.930     0.061     2.188     2.313
   279   6 C        3.827    -0.083    22.070     6.685
   280   1 H        0.930     0.056     2.250     2.346
   281   1 H        0.930     0.058     2.216     2.328
   282   6 C        3.825    -0.081    22.016     6.677
   283   1 H        0.930     0.054     2.266     2.354
   284   1 H        0.930     0.053     2.281     2.362
   285   6 C        2.766     0.270    22.445     7.759
   286   6 C        2.935    -0.058    29.436     8.898
   287   1 H        0.930     0.068     2.111     2.272
   288   6 C        2.930     0.066    26.522     8.446
   289   6 C        2.938    -0.045    29.119     8.850
   290   1 H        0.930     0.077     2.010     2.217
   291   6 C        2.936    -0.046    29.139     8.853
   292   1 H        0.930     0.075     2.032     2.229
   293   6 C        2.935    -0.059    29.456     8.901
   294   1 H        0.930     0.075     2.033     2.230
   295   7 N        2.739    -0.112    23.446     7.192
   296   6 C        3.762    -0.012    20.839     6.507
   297   1 H        0.930     0.060     2.198     2.318
   298   1 H        0.930     0.063     2.165     2.301
   299   6 C        3.827    -0.084    22.080     6.686
   300   1 H        0.930     0.058     2.223     2.332
   301   1 H        0.930     0.060     2.195     2.317
   302   6 C        3.825    -0.078    21.977     6.671
   303   1 H        0.930     0.051     2.310     2.377
   304   1 H        0.930     0.052     2.299     2.371
   305   6 C        2.766     0.268    22.472     7.764
   306   6 C        2.935    -0.057    29.419     8.895
   307   1 H        0.930     0.066     2.129     2.282
   308   6 C        2.930     0.067    26.506     8.443
   309   6 C        2.938    -0.048    29.195     8.862
   310   1 H        0.930     0.073     2.049     2.238
   311   6 C        2.936    -0.047    29.172     8.858
   312   1 H        0.930     0.091     1.869     2.138
   313   6 C        2.935    -0.058    29.442     8.899
   314   1 H        0.930     0.091     1.864     2.135
   315   7 N        2.739    -0.110    23.394     7.184
   316   6 C        2.928     0.072    26.400     8.426
   317   1 H        0.930     0.069     2.094     2.263
   318   6 C        3.764    -0.011    20.811     6.502
   319   1 H        0.930     0.058     2.226     2.333
   320   1 H        0.930     0.067     2.115     2.274
   321   6 C        2.767     0.275    22.347     7.742
   322   6 C        3.096    -0.004    27.995     8.672
   323   6 C        3.070    -0.019    28.401     8.738
   324   6 C        3.821    -0.083    22.068     6.685
   325   1 H        0.930     0.076     2.016     2.220
   326   1 H        0.930     0.081     1.968     2.194
   327   6 C        3.172     0.023    27.124     8.507
   328   6 C        2.748     0.276    22.325     7.737
   329   6 C        2.920     0.042    27.064     8.531
   330   6 C        2.934    -0.046    29.145     8.854
   331   1 H        0.930     0.089     1.891     2.150
   332   6 C        2.932    -0.083    30.077     8.994
   333   6 C        2.932    -0.050    29.238     8.868
   334   1 H        0.930     0.076     2.017     2.221
   335   1 H        0.862     0.205     1.083     1.630
   336   1 H        0.863     0.211     1.052     1.607
   337   7 N        2.745    -0.115    23.497     7.199
   338   7 N        3.019     0.091    19.659     6.585
   339   7 N        1.991    -0.247    27.244     7.741
   340   7 N        2.645    -0.286    27.376     7.771
   341   8 O        0.858    -0.442    22.546     6.366
   342   8 O        0.860    -0.451    22.729     6.392
   343   6 C        3.664     0.010    20.678     6.522
   344   1 H        0.930     0.071     2.077     2.254
   345   1 H        0.930     0.062     2.174     2.306
   346   1 H        0.930     0.061     2.187     2.313
   347   8 O        1.705    -0.283    18.696     5.838
   348   6 C        2.878     0.142    24.899     8.180
   349   6 C        2.936    -0.070    29.746     8.945
   350   1 H        0.930     0.076     2.022     2.223
   351   6 C        3.826    -0.105    22.490     6.748
   352   1 H        0.930     0.072     2.060     2.245
   353   1 H        0.930     0.073     2.050     2.239
   354   8 O        0.859    -0.483    23.407     6.487
   355   6 C        3.762    -0.005    20.718     6.488
   356   1 H        0.930     0.057     2.231     2.336
   357   1 H        0.930     0.053     2.276     2.359
   358   6 C        3.827    -0.083    22.060     6.683
   359   1 H        0.930     0.055     2.257     2.349
   360   1 H        0.930     0.066     2.127     2.280
   361   6 C        3.825    -0.080    22.003     6.675
   362   1 H        0.930     0.054     2.270     2.356
   363   1 H        0.930     0.052     2.288     2.365
   364   6 C        2.766     0.269    22.454     7.760
   365   6 C        2.935    -0.055    29.378     8.889
   366   1 H        0.930     0.066     2.134     2.284
   367   6 C        2.930     0.068    26.481     8.439
   368   6 C        2.938    -0.044    29.088     8.845
   369   1 H        0.930     0.075     2.034     2.230
   370   6 C        2.936    -0.045    29.117     8.850
   371   1 H        0.930     0.073     2.055     2.242
   372   6 C        2.935    -0.054    29.352     8.885
   373   1 H        0.930     0.078     2.002     2.212
   374   7 N        2.739    -0.113    23.470     7.195
   375   6 C        2.928     0.069    26.445     8.433
   376   1 H        0.930     0.074     2.039     2.233
   377   6 C        3.764    -0.014    20.863     6.511
   378   1 H        0.930     0.059     2.209     2.324
   379   1 H        0.930     0.070     2.080     2.255
   380   6 C        2.767     0.270    22.439     7.758
   381   6 C        3.096    -0.008    28.093     8.687
   382   6 C        3.070    -0.014    28.286     8.721
   383   6 C        3.821    -0.085    22.096     6.689
   384   1 H        0.930     0.080     1.980     2.200
   385   1 H        0.930     0.085     1.926     2.170
   386   6 C        3.172     0.028    26.992     8.487
   387   6 C        2.748     0.278    22.292     7.731
   388   6 C        2.920     0.044    27.008     8.522
   389   6 C        2.934    -0.043    29.059     8.841
   390   1 H        0.930     0.072     2.062     2.245
   391   6 C        2.932    -0.071    29.771     8.948
   392   6 C        2.932    -0.050    29.235     8.867
   393   1 H        0.930     0.080     1.979     2.200
   394   1 H        0.862     0.228     0.974     1.546
   395   1 H        0.863     0.207     1.070     1.621
   396   7 N        2.745    -0.116    23.536     7.205
   397   7 N        3.019     0.089    19.699     6.592
   398   7 N        1.991    -0.247    27.254     7.742
   399   7 N        2.645    -0.286    27.379     7.771
   400   8 O        0.858    -0.442    22.541     6.366
   401   8 O        0.860    -0.449    22.684     6.386
   402   6 C        3.664     0.009    20.685     6.523
   403   1 H        0.930     0.067     2.118     2.276
   404   1 H        0.930     0.058     2.219     2.329
   405   1 H        0.930     0.073     2.052     2.240
   406   8 O        1.705    -0.281    18.656     5.832
   407   6 C        2.878     0.149    24.765     8.158
   408   6 C        2.936    -0.071    29.764     8.947
   409   1 H        0.930     0.074     2.042     2.234
   410   6 C        3.826    -0.106    22.510     6.751
   411   1 H        0.930     0.074     2.037     2.232
   412   1 H        0.930     0.077     2.015     2.220
   413   8 O        0.859    -0.464    22.995     6.429
   414   6 C        1.861    -0.046    32.380     9.191
   415   1 H        0.930     0.103     1.756     2.072
   416   1 H        0.930     0.108     1.713     2.047
   417   8 O        0.001    -0.425    22.824     6.292
   418   6 C        1.858     0.085    29.007     8.700
   419   6 C        1.935    -0.083    33.362     9.328
   420   1 H        0.930     0.133     1.515     1.925
   421   6 C        3.664     0.011    20.660     6.519
   422   1 H        0.930     0.081     1.971     2.195
   423   1 H        0.930     0.067     2.122     2.278
   424   1 H        0.930     0.071     2.077     2.253
   425   8 O        1.704    -0.224    17.720     5.683
   426   6 C        0.019    -0.129    54.962    13.029
   427   1 H        0.000     0.047     5.878     4.433
   428   6 C        2.858    -0.063    29.555     8.911
   429   1 H        0.930     0.072     2.058     2.243
   430   1 H        0.930     0.082     1.955     2.186
   431   6 C        1.001    -0.105    39.398    10.553
   432   6 C        2.122     0.021    30.266     8.891
   433   6 C        2.955     0.088    26.032     8.369
   434   6 C        3.819    -0.065    21.722     6.633
   435   1 H        0.930     0.091     1.871     2.139
   436   1 H        0.930     0.097     1.814     2.106
   437   6 C        2.113    -0.024    31.464     9.064
   438   6 C        0.979    -0.175    41.709    10.846
   439   6 C        0.025    -0.151    56.046    13.157
   440   1 H        0.930     0.075     2.026     2.226
   441   6 C        2.936    -0.047    29.159     8.856
   442   1 H        0.930     0.073     2.051     2.240
   443   6 C        2.928     0.068    26.483     8.440
   444   6 C        3.764    -0.017    20.927     6.521
   445   1 H        0.930     0.065     2.142     2.289
   446   6 C        2.767     0.268    22.472     7.763
   447   6 C        3.096    -0.009    28.125     8.692
   448   6 C        3.070    -0.016    28.328     8.727
   449   6 C        3.821    -0.084    22.080     6.687
   450   1 H        0.930     0.075     2.027     2.226
   451   1 H        0.930     0.083     1.946     2.181
   452   6 C        3.172     0.026    27.040     8.494
   453   6 C        2.748     0.281    22.246     7.723
   454   6 C        2.920     0.046    26.977     8.517
   455   6 C        2.934    -0.042    29.046     8.839
   456   1 H        0.930     0.071     2.078     2.254
   457   6 C        2.932    -0.079    29.969     8.978
   458   1 H        0.930     0.069     2.096     2.264
   459   6 C        2.878     0.145    24.851     8.172
   460   6 C        2.936    -0.067    29.662     8.932
   461   1 H        0.930     0.079     1.991     2.206
   462   6 C        2.932    -0.046    29.155     8.855
   463   1 H        0.930     0.080     1.981     2.201
   464   6 C        3.664     0.012    20.634     6.515
   465   1 H        0.930     0.073     2.050     2.239
   466   1 H        0.930     0.059     2.208     2.324
   467   1 H        0.930     0.057     2.232     2.336
   468   1 H        0.862     0.206     1.076     1.625
   469   1 H        0.863     0.213     1.042     1.599
   470   7 N        2.745    -0.120    23.600     7.215
   471   7 N        3.019     0.090    19.688     6.590
   472   7 N        1.991    -0.240    27.076     7.717
   473   7 N        2.645    -0.281    27.267     7.755
   474   8 O        0.858    -0.445    22.594     6.373
   475   8 O        0.860    -0.457    22.862     6.411
   476   8 O        1.705    -0.281    18.656     5.832
   477   6 C        3.762    -0.011    20.820     6.504
   478   1 H        0.930     0.062     2.170     2.304
   479   1 H        0.930     0.055     2.258     2.350
   480   6 C        3.827    -0.083    22.063     6.684
   481   1 H        0.930     0.054     2.271     2.356
   482   1 H        0.930     0.070     2.088     2.260
   483   6 C        3.825    -0.081    22.030     6.679
   484   1 H        0.930     0.059     2.205     2.322
   485   1 H        0.930     0.056     2.248     2.344
   486   6 C        3.826    -0.111    22.590     6.763
   487   1 H        0.930     0.078     2.003     2.213
   488   1 H        0.930     0.078     1.997     2.210
   489   6 C        2.766     0.268    22.485     7.766
   490   6 C        2.935    -0.057    29.422     8.896
   491   1 H        0.930     0.077     2.010     2.217
   492   6 C        2.930     0.065    26.536     8.448
   493   6 C        2.938    -0.046    29.149     8.855
   494   6 C        2.935    -0.058    29.451     8.900
   495   1 H        0.930     0.069     2.099     2.266
   496   1 H        0.930     0.073     2.048     2.238
   497   7 N        2.739    -0.115    23.512     7.202
   498   8 O        0.859    -0.477    23.273     6.468
   499   1 H        0.930     0.075     2.026     2.226
   500   6 C        2.936    -0.044    29.095     8.846
   501   1 H        0.930     0.073     2.054     2.241
   502   6 C        2.928     0.070    26.436     8.432
   503   6 C        3.764    -0.013    20.847     6.508
   504   1 H        0.930     0.057     2.229     2.334
   505   6 C        2.767     0.268    22.468     7.763
   506   6 C        3.096    -0.009    28.127     8.692
   507   6 C        3.070    -0.017    28.355     8.731
   508   6 C        3.821    -0.083    22.065     6.685
   509   1 H        0.930     0.078     2.003     2.213
   510   1 H        0.930     0.084     1.940     2.178
   511   6 C        3.172     0.026    27.049     8.496
   512   6 C        2.748     0.276    22.338     7.739
   513   6 C        2.920     0.043    27.037     8.527
   514   6 C        2.934    -0.047    29.161     8.856
   515   1 H        0.930     0.069     2.094     2.263
   516   6 C        2.932    -0.075    29.881     8.965
   517   1 H        0.930     0.074     2.046     2.237
   518   6 C        2.878     0.149    24.769     8.159
   519   6 C        2.936    -0.069    29.719     8.941
   520   1 H        0.930     0.080     1.978     2.199
   521   6 C        2.932    -0.048    29.198     8.862
   522   1 H        0.930     0.077     2.005     2.214
   523   6 C        3.664     0.013    20.623     6.513
   524   1 H        0.930     0.068     2.106     2.269
   525   1 H        0.930     0.053     2.288     2.365
   526   1 H        0.930     0.074     2.047     2.237
   527   1 H        0.862     0.229     0.969     1.542
   528   1 H        0.863     0.204     1.083     1.630
   529   7 N        2.745    -0.120    23.608     7.216
   530   7 N        3.019     0.088    19.720     6.595
   531   7 N        1.991    -0.251    27.336     7.754
   532   7 N        2.645    -0.286    27.370     7.770
   533   8 O        0.858    -0.442    22.540     6.365
   534   8 O        0.860    -0.450    22.703     6.388
   535   8 O        1.705    -0.280    18.642     5.829
   536   6 C        3.762    -0.011    20.816     6.504
   537   1 H        0.930     0.057     2.231     2.336
   538   1 H        0.930     0.060     2.195     2.317
   539   6 C        3.827    -0.083    22.060     6.683
   540   1 H        0.930     0.055     2.256     2.348
   541   1 H        0.930     0.057     2.232     2.336
   542   6 C        3.825    -0.080    21.999     6.674
   543   1 H        0.930     0.053     2.288     2.365
   544   1 H        0.930     0.051     2.312     2.378
   545   6 C        3.826    -0.107    22.520     6.753
   546   1 H        0.930     0.074     2.039     2.233
   547   1 H        0.930     0.076     2.017     2.221
   548   6 C        2.766     0.268    22.477     7.764
   549   6 C        2.935    -0.056    29.392     8.891
   550   1 H        0.930     0.065     2.139     2.287
   551   6 C        2.930     0.069    26.453     8.435
   552   6 C        2.938    -0.042    29.054     8.840
   553   6 C        2.935    -0.057    29.411     8.894
   554   1 H        0.930     0.069     2.092     2.262
   555   1 H        0.930     0.069     2.091     2.261
   556   7 N        2.739    -0.113    23.464     7.194
   557   8 O        0.859    -0.467    23.064     6.439

 Mol. C6AA /au·bohr⁶  :    3765447.948070
 Mol. C8AA /au·bohr⁸  :   90190590.455587
 Mol. α(0) /au        :       3013.473551


Wiberg/Mayer (AO) data.
largest (>0.10) Wiberg bond orders for each atom

 ---------------------------------------------------------------------------
     #   Z sym  total        # sym  WBO       # sym  WBO       # sym  WBO
 ---------------------------------------------------------------------------
     1   1 H    0.994 --    54 C    0.972
     2   6 C    3.988 --    54 C    1.439     4 C    1.404     3 H    0.966
                            51 C    0.110
     3   1 H    0.991 --     2 C    0.966
     4   6 C    3.965 --     2 C    1.404    55 C    1.402    31 N    0.997
     5   6 C    3.968 --    10 C    0.997     6 H    0.973    57 H    0.973
                            31 N    0.963
     6   1 H    0.996 --     5 C    0.973
     7   6 C    3.958 --    35 O    1.661    31 N    1.203     8 C    1.006
     8   6 C    3.954 --     9 C    1.431    32 N    1.227     7 C    1.006
                            33 N    0.133
     9   6 C    3.977 --     8 C    1.431    13 C    1.322    10 C    1.012
    10   6 C    3.990 --     9 C    1.012     5 C    0.997    12 H    0.963
                            11 H    0.961
    11   1 H    0.994 --    10 C    0.961
    12   1 H    0.993 --    10 C    0.963
    13   6 C    3.962 --    33 N    1.419     9 C    1.322    14 C    1.001
    14   6 C    3.951 --    36 O    1.630    34 N    1.277    13 C    1.001
    15   6 C    3.928 --    16 C    1.388    23 C    1.366    32 N    1.005
    16   6 C    3.983 --    18 C    1.447    15 C    1.388    17 H    0.966
                            21 C    0.100
    17   1 H    0.991 --    16 C    0.966
    18   6 C    3.972 --    16 C    1.447    20 C    1.365    19 H    0.959
    19   1 H    0.987 --    18 C    0.959
    20   6 C    3.918 --    18 C    1.365    21 C    1.334    37 O    1.085
    21   6 C    3.976 --    23 C    1.477    20 C    1.334    22 H    0.972
                            16 C    0.100
    22   1 H    0.995 --    21 C    0.972
    23   6 C    3.987 --    21 C    1.477    15 C    1.366    24 H    0.973
    24   1 H    0.994 --    23 C    0.973
    25   6 C    3.921 --    27 H    0.978    26 H    0.977    28 H    0.972
                            37 O    0.960
    26   1 H    0.995 --    25 C    0.977
    27   1 H    0.993 --    25 C    0.978
    28   1 H    0.990 --    25 C    0.972
    29   1 H    0.947 --    34 N    0.919
    30   1 H    0.956 --    34 N    0.941
    31   7 N    3.475 --     7 C    1.203     4 C    0.997     5 C    0.963
                            35 O    0.190
    32   7 N    3.690 --     8 C    1.227    33 N    1.216    15 C    1.005
    33   7 N    2.956 --    13 C    1.419    32 N    1.216     8 C    0.133
    34   7 N    3.388 --    14 C    1.277    30 H    0.941    29 H    0.919
                            36 O    0.195
    35   8 O    2.007 --     7 C    1.661    31 N    0.190
    36   8 O    1.948 --    14 C    1.630    34 N    0.195
    37   8 O    2.202 --    20 C    1.085    25 C    0.960
    38   6 C    3.964 --    41 C    1.007    40 H    0.970    39 H    0.970
                            58 N    0.957
    39   1 H    0.997 --    38 C    0.970
    40   1 H    0.994 --    38 C    0.970
    41   6 C    3.990 --    38 C    1.007    44 C    1.007    42 H    0.977
                            43 H    0.969
    42   1 H    0.996 --    41 C    0.977
    43   1 H    0.995 --    41 C    0.969
    44   6 C    3.994 --    41 C    1.007    47 C    1.001    46 H    0.981
                            45 H    0.976
    45   1 H    0.997 --    44 C    0.976
    46   1 H    0.998 --    44 C    0.981
    47   6 C    3.990 --    44 C    1.001    50 C    0.980    49 H    0.963
                            48 H    0.952
    48   1 H    0.994 --    47 C    0.952
    49   1 H    0.995 --    47 C    0.963
    50   6 C    3.950 --    59 O    1.613    58 N    1.266    47 C    0.980
    51   6 C    3.993 --    55 C    1.440    53 C    1.405    52 H    0.972
                             2 C    0.110
    52   1 H    0.995 --    51 C    0.972
    53   6 C    3.965 --    54 C    1.406    51 C    1.405    58 N    0.986
    54   6 C    3.993 --     2 C    1.439    53 C    1.406     1 H    0.972
                            55 C    0.110
    55   6 C    3.991 --    51 C    1.440     4 C    1.402    56 H    0.971
                            54 C    0.110
    56   1 H    0.993 --    55 C    0.971
    57   1 H    0.995 --     5 C    0.973
    58   7 N    3.501 --    50 C    1.266    53 C    0.986    38 C    0.957
                            59 O    0.190
    59   8 O    1.942 --    50 C    1.613    58 N    0.190
    60   6 C    3.964 --    63 C    1.006    62 H    0.972    61 H    0.971
                            80 N    0.956
    61   1 H    0.996 --    60 C    0.971
    62   1 H    0.995 --    60 C    0.972
    63   6 C    3.987 --    66 C    1.007    60 C    1.006    64 H    0.978
                            65 H    0.966
    64   1 H    0.996 --    63 C    0.978
    65   1 H    0.994 --    63 C    0.966
    66   6 C    3.989 --    63 C    1.007    69 C    1.001    68 H    0.981
                            67 H    0.969
    67   1 H    0.992 --    66 C    0.969
    68   1 H    0.998 --    66 C    0.981
    69   6 C    3.977 --    66 C    1.001    72 C    0.973    71 H    0.963
                            70 H    0.951
    70   1 H    0.993 --    69 C    0.951
    71   1 H    0.994 --    69 C    0.963
    72   6 C    3.944 --    81 O    1.645    80 N    1.244    69 C    0.973
    73   6 C    3.993 --    77 C    1.442    75 C    1.405    74 H    0.973
                            83 C    0.109
    74   1 H    0.995 --    73 C    0.973
    75   6 C    3.967 --    73 C    1.405    76 C    1.404    80 N    0.993
    76   6 C    3.991 --    83 C    1.440    75 C    1.404    82 H    0.973
                            77 C    0.110
    77   6 C    3.991 --    73 C    1.442    85 C    1.402    78 H    0.970
                            76 C    0.110
    78   1 H    0.993 --    77 C    0.970
    79   1 H    0.995 --    86 C    0.973
    80   7 N    3.476 --    72 C    1.244    75 C    0.993    60 C    0.956
                            81 O    0.181
    81   8 O    1.939 --    72 C    1.645    80 N    0.181
    82   1 H    0.994 --    76 C    0.973
    83   6 C    3.991 --    76 C    1.440    85 C    1.403    84 H    0.973
                            73 C    0.109
    84   1 H    0.995 --    83 C    0.973
    85   6 C    3.962 --    83 C    1.403    77 C    1.402   112 N    0.994
    86   6 C    3.966 --    91 C    0.998    87 H    0.974    79 H    0.973
                           112 N    0.961
    87   1 H    0.996 --    86 C    0.974
    88   6 C    3.958 --   116 O    1.647   112 N    1.210    89 C    1.010
    89   6 C    3.953 --    90 C    1.429   113 N    1.222    88 C    1.010
                           114 N    0.133
    90   6 C    3.981 --    89 C    1.429    94 C    1.322    91 C    1.013
    91   6 C    3.989 --    90 C    1.013    86 C    0.998    93 H    0.961
                            92 H    0.959
    92   1 H    0.994 --    91 C    0.959
    93   1 H    0.991 --    91 C    0.961
    94   6 C    3.967 --   114 N    1.421    90 C    1.322    95 C    1.001
    95   6 C    3.952 --   117 O    1.660   115 N    1.250    94 C    1.001
    96   6 C    3.954 --    97 C    1.401   104 C    1.370   113 N    1.004
    97   6 C    3.991 --    99 C    1.435    96 C    1.401    98 H    0.973
                           102 C    0.108
    98   1 H    0.995 --    97 C    0.973
    99   6 C    3.990 --    97 C    1.435   101 C    1.379   100 H    0.971
   100   1 H    0.995 --    99 C    0.971
   101   6 C    3.933 --    99 C    1.379   102 C    1.342   118 O    1.074
   102   6 C    3.990 --   104 C    1.478   101 C    1.342   103 H    0.971
                            97 C    0.108
   103   1 H    0.992 --   102 C    0.971
   104   6 C    3.990 --   102 C    1.478    96 C    1.370   105 H    0.972
   105   1 H    0.993 --   104 C    0.972
   106   6 C    3.936 --   108 H    0.981   109 H    0.981   107 H    0.979
                           118 O    0.967
   107   1 H    0.994 --   106 C    0.979
   108   1 H    0.996 --   106 C    0.981
   109   1 H    0.996 --   106 C    0.981
   110   1 H    0.957 --   115 N    0.941
   111   1 H    0.955 --   115 N    0.942
   112   7 N    3.478 --    88 C    1.210    85 C    0.994    86 C    0.961
                           116 O    0.191
   113   7 N    3.693 --    89 C    1.222   114 N    1.221    96 C    1.004
   114   7 N    2.963 --    94 C    1.421   113 N    1.221    89 C    0.133
   115   7 N    3.367 --    95 C    1.250   111 H    0.942   110 H    0.941
                           117 O    0.193
   116   8 O    1.994 --    88 C    1.647   112 N    0.191
   117   8 O    1.974 --    95 C    1.660   115 N    0.193
   118   8 O    2.212 --   101 C    1.074   106 C    0.967
   119   6 C    3.968 --   122 C    1.007   121 H    0.973   120 H    0.971
                           139 N    0.960
   120   1 H    0.996 --   119 C    0.971
   121   1 H    0.996 --   119 C    0.973
   122   6 C    3.991 --   119 C    1.007   125 C    1.006   123 H    0.978
                           124 H    0.970
   123   1 H    0.997 --   122 C    0.978
   124   1 H    0.996 --   122 C    0.970
   125   6 C    3.993 --   122 C    1.006   128 C    1.001   127 H    0.980
                           126 H    0.976
   126   1 H    0.997 --   125 C    0.976
   127   1 H    0.997 --   125 C    0.980
   128   6 C    3.990 --   125 C    1.001   131 C    0.979   130 H    0.962
                           129 H    0.953
   129   1 H    0.994 --   128 C    0.953
   130   1 H    0.994 --   128 C    0.962
   131   6 C    3.949 --   140 O    1.623   139 N    1.261   128 C    0.979
   132   6 C    3.994 --   136 C    1.441   134 C    1.405   133 H    0.974
                           142 C    0.110
   133   1 H    0.995 --   132 C    0.974
   134   6 C    3.965 --   135 C    1.406   132 C    1.405   139 N    0.986
   135   6 C    3.993 --   142 C    1.440   134 C    1.406   141 H    0.973
                           136 C    0.109
   136   6 C    3.993 --   132 C    1.441   144 C    1.401   137 H    0.973
                           135 C    0.109
   137   1 H    0.995 --   136 C    0.973
   138   1 H    0.995 --   145 C    0.973
   139   7 N    3.496 --   131 C    1.261   134 C    0.986   119 C    0.960
                           140 O    0.189
   140   8 O    1.950 --   131 C    1.623   139 N    0.189
   141   1 H    0.994 --   135 C    0.973
   142   6 C    3.988 --   135 C    1.440   144 C    1.402   143 H    0.966
                           132 C    0.110
   143   1 H    0.991 --   142 C    0.966
   144   6 C    3.967 --   142 C    1.402   136 C    1.401   171 N    1.001
   145   6 C    3.967 --   150 C    0.998   138 H    0.973   146 H    0.973
                           171 N    0.961
   146   1 H    0.996 --   145 C    0.973
   147   6 C    3.957 --   175 O    1.665   171 N    1.197   148 C    1.008
   148   6 C    3.953 --   149 C    1.433   172 N    1.223   147 C    1.008
                           173 N    0.134
   149   6 C    3.976 --   148 C    1.433   153 C    1.319   150 C    1.012
   150   6 C    3.989 --   149 C    1.012   145 C    0.998   152 H    0.962
                           151 H    0.961
   151   1 H    0.993 --   150 C    0.961
   152   1 H    0.992 --   150 C    0.962
   153   6 C    3.962 --   173 N    1.423   149 C    1.319   154 C    1.003
   154   6 C    3.950 --   176 O    1.651   174 N    1.255   153 C    1.003
   155   6 C    3.934 --   156 C    1.392   163 C    1.367   172 N    1.007
   156   6 C    3.981 --   158 C    1.442   155 C    1.392   157 H    0.966
                           161 C    0.104
   157   1 H    0.991 --   156 C    0.966
   158   6 C    3.979 --   156 C    1.442   160 C    1.373   159 H    0.963
   159   1 H    0.990 --   158 C    0.963
   160   6 C    3.918 --   158 C    1.373   161 C    1.337   177 O    1.075
   161   6 C    3.978 --   163 C    1.479   160 C    1.337   162 H    0.972
                           156 C    0.104
   162   1 H    0.994 --   161 C    0.972
   163   6 C    3.987 --   161 C    1.479   155 C    1.367   164 H    0.972
   164   1 H    0.993 --   163 C    0.972
   165   6 C    3.932 --   166 H    0.980   167 H    0.979   168 H    0.979
                           177 O    0.965
   166   1 H    0.995 --   165 C    0.980
   167   1 H    0.994 --   165 C    0.979
   168   1 H    0.994 --   165 C    0.979
   169   1 H    0.958 --   174 N    0.942
   170   1 H    0.955 --   174 N    0.942
   171   7 N    3.470 --   147 C    1.197   144 C    1.001   145 C    0.961
                           175 O    0.186
   172   7 N    3.690 --   148 C    1.223   173 N    1.218   155 C    1.007
   173   7 N    2.962 --   153 C    1.423   172 N    1.218   148 C    0.134
   174   7 N    3.370 --   154 C    1.255   170 H    0.942   169 H    0.942
                           176 O    0.190
   175   8 O    2.007 --   147 C    1.665   171 N    0.186
   176   8 O    1.963 --   154 C    1.651   174 N    0.190
   177   8 O    2.199 --   160 C    1.075   165 C    0.965
   178   6 C    3.990 --   223 C    1.001   226 C    0.979   180 H    0.962
                           179 H    0.952
   179   1 H    0.994 --   178 C    0.952
   180   1 H    0.994 --   178 C    0.962
   181   8 O    1.948 --   226 C    1.620   236 N    0.190
   182   6 C    3.925 --   206 C    1.374   183 C    1.340   189 O    1.074
   183   6 C    3.985 --   207 C    1.476   182 C    1.340   184 H    0.973
                           204 C    0.105
   184   1 H    0.994 --   183 C    0.973
   185   6 C    3.932 --   187 H    0.981   186 H    0.980   188 H    0.977
                           189 O    0.965
   186   1 H    0.995 --   185 C    0.980
   187   1 H    0.996 --   185 C    0.981
   188   1 H    0.994 --   185 C    0.977
   189   8 O    2.203 --   182 C    1.074   185 C    0.965
   190   6 C    3.968 --   232 C    1.401   234 C    1.401   211 N    1.003
   191   1 H    0.995 --   234 C    0.973
   192   6 C    3.967 --   198 C    0.998   194 H    0.973   193 H    0.973
                           211 N    0.961
   193   1 H    0.996 --   192 C    0.973
   194   1 H    0.995 --   192 C    0.973
   195   6 C    3.956 --   215 O    1.665   211 N    1.194   196 C    1.009
   196   6 C    3.954 --   197 C    1.431   212 N    1.223   195 C    1.009
                           213 N    0.134
   197   6 C    3.977 --   196 C    1.431   201 C    1.322   198 C    1.011
   198   6 C    3.989 --   197 C    1.011   192 C    0.998   199 H    0.961
                           200 H    0.961
   199   1 H    0.994 --   198 C    0.961
   200   1 H    0.992 --   198 C    0.961
   201   6 C    3.961 --   213 N    1.427   197 C    1.322   202 C    0.995
   202   6 C    3.953 --   216 O    1.646   214 N    1.273   201 C    0.995
   203   6 C    3.944 --   204 C    1.395   207 C    1.369   212 N    1.006
   204   6 C    3.984 --   206 C    1.440   203 C    1.395   205 H    0.966
                           183 C    0.105
   205   1 H    0.991 --   204 C    0.966
   206   6 C    3.986 --   204 C    1.440   182 C    1.374   235 H    0.969
   207   6 C    3.989 --   183 C    1.476   203 C    1.369   208 H    0.972
   208   1 H    0.994 --   207 C    0.972
   209   1 H    0.946 --   214 N    0.919
   210   1 H    0.958 --   214 N    0.944
   211   7 N    3.467 --   195 C    1.194   190 C    1.003   192 C    0.961
                           215 O    0.184
   212   7 N    3.687 --   196 C    1.223   213 N    1.214   203 C    1.006
   213   7 N    2.959 --   201 C    1.427   212 N    1.214   196 C    0.134
   214   7 N    3.385 --   202 C    1.273   210 H    0.944   209 H    0.919
                           216 O    0.198
   215   8 O    2.006 --   195 C    1.665   211 N    0.184
   216   8 O    1.963 --   202 C    1.646   214 N    0.198
   217   6 C    3.968 --   220 C    1.007   219 H    0.973   218 H    0.971
                           236 N    0.960
   218   1 H    0.996 --   217 C    0.971
   219   1 H    0.996 --   217 C    0.973
   220   6 C    3.991 --   217 C    1.007   223 C    1.007   221 H    0.979
                           222 H    0.970
   221   1 H    0.997 --   220 C    0.979
   222   1 H    0.996 --   220 C    0.970
   223   6 C    3.993 --   220 C    1.007   178 C    1.001   225 H    0.980
                           224 H    0.976
   224   1 H    0.997 --   223 C    0.976
   225   1 H    0.997 --   223 C    0.980
   226   6 C    3.950 --   181 O    1.620   236 N    1.262   178 C    0.979
   227   6 C    3.993 --   234 C    1.441   229 C    1.405   228 H    0.973
                           232 C    0.110
   228   1 H    0.995 --   227 C    0.973
   229   6 C    3.964 --   230 C    1.406   227 C    1.405   236 N    0.983
   230   6 C    3.994 --   232 C    1.440   229 C    1.406   231 H    0.973
                           234 C    0.109
   231   1 H    0.995 --   230 C    0.973
   232   6 C    3.987 --   230 C    1.440   190 C    1.401   233 H    0.967
                           227 C    0.110
   233   1 H    0.990 --   232 C    0.967
   234   6 C    3.993 --   227 C    1.441   190 C    1.401   191 H    0.973
                           230 C    0.109
   235   1 H    0.993 --   206 C    0.969
   236   7 N    3.496 --   226 C    1.262   229 C    0.983   217 C    0.960
                           181 O    0.190
   237   6 C    3.990 --   282 C    1.002   285 C    0.979   239 H    0.962
                           238 H    0.953
   238   1 H    0.994 --   237 C    0.953
   239   1 H    0.993 --   237 C    0.962
   240   8 O    1.965 --   285 C    1.644   295 N    0.187
   241   6 C    3.933 --   265 C    1.377   242 C    1.344   248 O    1.073
   242   6 C    3.991 --   266 C    1.474   241 C    1.344   243 H    0.972
                           263 C    0.106
   243   1 H    0.994 --   242 C    0.972
   244   6 C    3.932 --   246 H    0.981   245 H    0.977   247 H    0.976
                           248 O    0.964
   245   1 H    0.995 --   244 C    0.977
   246   1 H    0.997 --   244 C    0.981
   247   1 H    0.994 --   244 C    0.976
   248   8 O    2.207 --   241 C    1.073   244 C    0.964
   249   6 C    3.966 --   291 C    1.403   293 C    1.401   270 N    0.999
   250   1 H    0.995 --   293 C    0.974
   251   6 C    3.965 --   257 C    0.998   252 H    0.973   253 H    0.973
                           270 N    0.960
   252   1 H    0.996 --   251 C    0.973
   253   1 H    0.994 --   251 C    0.973
   254   6 C    3.957 --   274 O    1.654   270 N    1.201   255 C    1.012
   255   6 C    3.953 --   256 C    1.430   271 N    1.218   254 C    1.012
                           272 N    0.136
   256   6 C    3.980 --   255 C    1.430   260 C    1.323   257 C    1.012
   257   6 C    3.989 --   256 C    1.012   251 C    0.998   258 H    0.961
                           259 H    0.961
   258   1 H    0.994 --   257 C    0.961
   259   1 H    0.992 --   257 C    0.961
   260   6 C    3.968 --   272 N    1.430   256 C    1.323   261 C    0.997
   261   6 C    3.953 --   275 O    1.636   273 N    1.281   260 C    0.997
   262   6 C    3.956 --   263 C    1.400   266 C    1.372   271 N    1.006
   263   6 C    3.991 --   265 C    1.438   262 C    1.400   264 H    0.973
                           242 C    0.106
   264   1 H    0.995 --   263 C    0.973
   265   6 C    3.991 --   263 C    1.438   241 C    1.377   294 H    0.970
                           266 C    0.101
   266   6 C    3.990 --   242 C    1.474   262 C    1.372   267 H    0.972
                           265 C    0.101
   267   1 H    0.994 --   266 C    0.972
   268   1 H    0.946 --   273 N    0.918
   269   1 H    0.956 --   273 N    0.941
   270   7 N    3.472 --   254 C    1.201   249 C    0.999   251 C    0.960
                           274 O    0.188
   271   7 N    3.687 --   255 C    1.218   272 N    1.214   262 C    1.006
   272   7 N    2.963 --   260 C    1.430   271 N    1.214   255 C    0.136
   273   7 N    3.392 --   261 C    1.281   269 H    0.941   268 H    0.918
                           275 O    0.198
   274   8 O    1.999 --   254 C    1.654   270 N    0.188
   275   8 O    1.956 --   261 C    1.636   273 N    0.198
   276   6 C    3.970 --   279 C    1.007   278 H    0.974   277 H    0.972
                           295 N    0.959
   277   1 H    0.997 --   276 C    0.972
   278   1 H    0.996 --   276 C    0.974
   279   6 C    3.991 --   276 C    1.007   282 C    1.006   280 H    0.979
                           281 H    0.971
   280   1 H    0.997 --   279 C    0.979
   281   1 H    0.996 --   279 C    0.971
   282   6 C    3.994 --   279 C    1.006   237 C    1.002   284 H    0.981
                           283 H    0.976
   283   1 H    0.997 --   282 C    0.976
   284   1 H    0.997 --   282 C    0.981
   285   6 C    3.949 --   240 O    1.644   295 N    1.243   237 C    0.979
   286   6 C    3.994 --   293 C    1.442   288 C    1.405   287 H    0.974
                           291 C    0.109
   287   1 H    0.995 --   286 C    0.974
   288   6 C    3.969 --   289 C    1.405   286 C    1.405   295 N    0.991
   289   6 C    3.993 --   291 C    1.441   288 C    1.405   290 H    0.973
                           293 C    0.110
   290   1 H    0.994 --   289 C    0.973
   291   6 C    3.992 --   289 C    1.441   249 C    1.403   292 H    0.973
                           286 C    0.109
   292   1 H    0.994 --   291 C    0.973
   293   6 C    3.993 --   286 C    1.442   249 C    1.401   250 H    0.974
                           289 C    0.110
   294   1 H    0.994 --   265 C    0.970
   295   7 N    3.484 --   285 C    1.243   288 C    0.991   276 C    0.959
                           240 O    0.187
   296   6 C    3.969 --   299 C    1.007   298 H    0.973   297 H    0.972
                           315 N    0.960
   297   1 H    0.996 --   296 C    0.972
   298   1 H    0.996 --   296 C    0.973
   299   6 C    3.991 --   296 C    1.007   302 C    1.006   300 H    0.978
                           301 H    0.970
   300   1 H    0.997 --   299 C    0.978
   301   1 H    0.996 --   299 C    0.970
   302   6 C    3.994 --   299 C    1.006   351 C    1.001   304 H    0.981
                           303 H    0.976
   303   1 H    0.997 --   302 C    0.976
   304   1 H    0.997 --   302 C    0.981
   305   6 C    3.950 --   354 O    1.639   315 N    1.252   351 C    0.977
   306   6 C    3.994 --   313 C    1.442   308 C    1.405   307 H    0.974
                           311 C    0.110
   307   1 H    0.995 --   306 C    0.974
   308   6 C    3.967 --   309 C    1.406   306 C    1.405   315 N    0.988
   309   6 C    3.993 --   311 C    1.440   308 C    1.406   310 H    0.973
                           313 C    0.110
   310   1 H    0.994 --   309 C    0.973
   311   6 C    3.989 --   309 C    1.440   316 C    1.403   312 H    0.967
                           306 C    0.110
   312   1 H    0.992 --   311 C    0.967
   313   6 C    3.993 --   306 C    1.442   316 C    1.402   317 H    0.974
                           309 C    0.110
   314   1 H    0.991 --   332 C    0.964
   315   7 N    3.490 --   305 C    1.252   308 C    0.988   296 C    0.960
                           354 O    0.190
   316   6 C    3.966 --   311 C    1.403   313 C    1.402   337 N    0.998
   317   1 H    0.995 --   313 C    0.974
   318   6 C    3.969 --   324 C    0.998   320 H    0.974   319 H    0.974
                           337 N    0.962
   319   1 H    0.997 --   318 C    0.974
   320   1 H    0.995 --   318 C    0.974
   321   6 C    3.957 --   341 O    1.656   337 N    1.202   322 C    1.010
   322   6 C    3.954 --   323 C    1.430   338 N    1.225   321 C    1.010
                           339 N    0.133
   323   6 C    3.980 --   322 C    1.430   327 C    1.323   324 C    1.012
   324   6 C    3.990 --   323 C    1.012   318 C    0.998   326 H    0.963
                           325 H    0.961
   325   1 H    0.994 --   324 C    0.961
   326   1 H    0.992 --   324 C    0.963
   327   6 C    3.967 --   339 N    1.421   323 C    1.323   328 C    1.002
   328   6 C    3.951 --   342 O    1.659   340 N    1.250   327 C    1.002
   329   6 C    3.951 --   330 C    1.399   333 C    1.371   338 N    1.003
   330   6 C    3.987 --   332 C    1.437   329 C    1.399   331 H    0.967
                           349 C    0.107
   331   1 H    0.992 --   330 C    0.967
   332   6 C    3.987 --   330 C    1.437   348 C    1.379   314 H    0.964
                           333 C    0.100
   333   6 C    3.990 --   349 C    1.475   329 C    1.371   334 H    0.972
                           332 C    0.100
   334   1 H    0.994 --   333 C    0.972
   335   1 H    0.958 --   340 N    0.942
   336   1 H    0.956 --   340 N    0.942
   337   7 N    3.472 --   321 C    1.202   316 C    0.998   318 C    0.962
                           341 O    0.186
   338   7 N    3.694 --   322 C    1.225   339 N    1.221   329 C    1.003
   339   7 N    2.963 --   327 C    1.421   338 N    1.221   322 C    0.133
   340   7 N    3.367 --   328 C    1.250   336 H    0.942   335 H    0.942
                           342 O    0.191
   341   8 O    2.000 --   321 C    1.656   337 N    0.186
   342   8 O    1.971 --   328 C    1.659   340 N    0.191
   343   6 C    3.935 --   346 H    0.980   345 H    0.980   344 H    0.980
                           347 O    0.966
   344   1 H    0.995 --   343 C    0.980
   345   1 H    0.996 --   343 C    0.980
   346   1 H    0.996 --   343 C    0.980
   347   8 O    2.204 --   348 C    1.070   343 C    0.966
   348   6 C    3.931 --   332 C    1.379   349 C    1.344   347 O    1.070
   349   6 C    3.990 --   333 C    1.475   348 C    1.344   350 H    0.973
                           330 C    0.107
   350   1 H    0.994 --   349 C    0.973
   351   6 C    3.990 --   302 C    1.001   305 C    0.977   353 H    0.963
                           352 H    0.954
   352   1 H    0.994 --   351 C    0.954
   353   1 H    0.995 --   351 C    0.963
   354   8 O    1.954 --   305 C    1.639   315 N    0.190
   355   6 C    3.969 --   358 C    1.007   357 H    0.974   356 H    0.971
                           374 N    0.959
   356   1 H    0.997 --   355 C    0.971
   357   1 H    0.997 --   355 C    0.974
   358   6 C    3.990 --   355 C    1.007   361 C    1.006   359 H    0.979
                           360 H    0.968
   359   1 H    0.997 --   358 C    0.979
   360   1 H    0.995 --   358 C    0.968
   361   6 C    3.993 --   358 C    1.006   410 C    1.001   363 H    0.981
                           362 H    0.976
   362   1 H    0.997 --   361 C    0.976
   363   1 H    0.997 --   361 C    0.981
   364   6 C    3.949 --   413 O    1.655   374 N    1.239   410 C    0.976
   365   6 C    3.993 --   372 C    1.441   367 C    1.405   366 H    0.974
                           370 C    0.109
   366   1 H    0.995 --   365 C    0.974
   367   6 C    3.967 --   365 C    1.405   368 C    1.405   374 N    0.991
   368   6 C    3.992 --   370 C    1.440   367 C    1.405   369 H    0.973
                           372 C    0.110
   369   1 H    0.994 --   368 C    0.973
   370   6 C    3.991 --   368 C    1.440   375 C    1.403   371 H    0.973
                           365 C    0.109
   371   1 H    0.994 --   370 C    0.973
   372   6 C    3.992 --   365 C    1.441   375 C    1.401   376 H    0.971
                           368 C    0.110
   373   1 H    0.993 --   391 C    0.969
   374   7 N    3.479 --   364 C    1.239   367 C    0.991   355 C    0.959
                           413 O    0.187
   375   6 C    3.965 --   370 C    1.403   372 C    1.401   396 N    0.997
   376   1 H    0.994 --   372 C    0.971
   377   6 C    3.967 --   383 C    0.998   378 H    0.974   379 H    0.973
                           396 N    0.961
   378   1 H    0.996 --   377 C    0.974
   379   1 H    0.995 --   377 C    0.973
   380   6 C    3.957 --   400 O    1.647   396 N    1.204   381 C    1.012
   381   6 C    3.952 --   382 C    1.429   397 N    1.219   380 C    1.012
                           398 N    0.135
   382   6 C    3.977 --   381 C    1.429   386 C    1.322   383 C    1.012
   383   6 C    3.988 --   382 C    1.012   377 C    0.998   385 H    0.962
                           384 H    0.960
   384   1 H    0.993 --   383 C    0.960
   385   1 H    0.992 --   383 C    0.962
   386   6 C    3.963 --   398 N    1.428   382 C    1.322   387 C    0.996
   387   6 C    3.953 --   401 O    1.648   399 N    1.270   386 C    0.996
   388   6 C    3.949 --   389 C    1.397   392 C    1.369   397 N    1.007
   389   6 C    3.989 --   391 C    1.440   388 C    1.397   390 H    0.973
                           408 C    0.105
   390   1 H    0.995 --   389 C    0.973
   391   6 C    3.987 --   389 C    1.440   407 C    1.374   373 H    0.969
   392   6 C    3.989 --   408 C    1.476   388 C    1.369   393 H    0.972
   393   1 H    0.993 --   392 C    0.972
   394   1 H    0.948 --   399 N    0.920
   395   1 H    0.957 --   399 N    0.943
   396   7 N    3.474 --   380 C    1.204   375 C    0.997   377 C    0.961
                           400 O    0.187
   397   7 N    3.687 --   381 C    1.219   398 N    1.215   388 C    1.007
   398   7 N    2.961 --   386 C    1.428   397 N    1.215   381 C    0.135
   399   7 N    3.382 --   387 C    1.270   395 H    0.943   394 H    0.920
                           401 O    0.197
   400   8 O    2.002 --   380 C    1.647   396 N    0.187
   401   8 O    1.965 --   387 C    1.648   399 N    0.197
   402   6 C    3.932 --   404 H    0.981   403 H    0.980   405 H    0.977
                           406 O    0.965
   403   1 H    0.995 --   402 C    0.980
   404   1 H    0.996 --   402 C    0.981
   405   1 H    0.994 --   402 C    0.977
   406   8 O    2.206 --   407 C    1.075   402 C    0.965
   407   6 C    3.928 --   391 C    1.374   408 C    1.341   406 O    1.075
   408   6 C    3.987 --   392 C    1.476   407 C    1.341   409 H    0.971
                           389 C    0.105
   409   1 H    0.994 --   408 C    0.971
   410   6 C    3.987 --   361 C    1.001   364 C    0.976   412 H    0.964
                           411 H    0.954
   411   1 H    0.994 --   410 C    0.954
   412   1 H    0.994 --   410 C    0.964
   413   8 O    1.960 --   364 C    1.655   374 N    0.187
   414   6 C    3.415 --   417 O    1.481   415 H    0.968   416 H    0.965
   415   1 H    0.985 --   414 C    0.968
   416   1 H    0.984 --   414 C    0.965
   417   8 O    1.515 --   414 C    1.481
   418   6 C    3.608 --   419 C    2.037   425 O    1.131   439 C    0.354
   419   6 C    3.829 --   418 C    2.037   420 H    0.927   439 C    0.719
                           425 O    0.117
   420   1 H    0.964 --   419 C    0.927
   421   6 C    3.919 --   424 H    0.979   423 H    0.979   422 H    0.976
                           425 O    0.945
   422   1 H    0.992 --   421 C    0.976
   423   1 H    0.995 --   421 C    0.979
   424   1 H    0.994 --   421 C    0.979
   425   8 O    2.280 --   418 C    1.131   421 C    0.945   419 C    0.117
   426   6 C    2.217 --   427 H    0.961   428 C    0.607   431 C    0.490
   427   1 H    0.986 --   426 C    0.961
   428   6 C    3.951 --   434 C    1.024   429 H    0.982   430 H    0.966
                           426 C    0.607   431 C    0.269
   429   1 H    0.995 --   428 C    0.982
   430   1 H    0.990 --   428 C    0.966
   431   6 C    3.059 --   432 C    1.764   426 C    0.490   428 C    0.269
                           438 C    0.200   437 C    0.122
   432   6 C    3.830 --   431 C    1.764   433 C    1.348   439 C    0.415
   433   6 C    3.960 --   437 C    1.363   432 C    1.348   434 C    0.976
                           438 C    0.113
   434   6 C    3.990 --   428 C    1.024   433 C    0.976   435 H    0.940
                           436 H    0.931
   435   1 H    0.991 --   434 C    0.940
   436   1 H    0.990 --   434 C    0.931
   437   6 C    3.732 --   438 C    2.111   433 C    1.363   431 C    0.122
   438   6 C    2.631 --   437 C    2.111   431 C    0.200   433 C    0.113
   439   6 C    1.809 --   419 C    0.719   432 C    0.415   418 C    0.354
   440   1 H    0.994 --   493 C    0.973
   441   6 C    3.992 --   493 C    1.440   443 C    1.403   442 H    0.973
                           490 C    0.110
   442   1 H    0.994 --   441 C    0.973
   443   6 C    3.966 --   441 C    1.403   494 C    1.401   470 N    0.998
   444   6 C    3.965 --   449 C    0.998   445 H    0.973   496 H    0.972
                           470 N    0.960
   445   1 H    0.996 --   444 C    0.973
   446   6 C    3.957 --   474 O    1.655   470 N    1.201   447 C    1.011
   447   6 C    3.952 --   448 C    1.430   471 N    1.220   446 C    1.011
                           472 N    0.134
   448   6 C    3.981 --   447 C    1.430   452 C    1.323   449 C    1.012
   449   6 C    3.989 --   448 C    1.012   444 C    0.998   450 H    0.961
                           451 H    0.961
   450   1 H    0.994 --   449 C    0.961
   451   1 H    0.992 --   449 C    0.961
   452   6 C    3.968 --   472 N    1.426   448 C    1.323   453 C    1.001
   453   6 C    3.951 --   475 O    1.652   473 N    1.257   452 C    1.001
   454   6 C    3.955 --   455 C    1.402   462 C    1.371   471 N    1.005
   455   6 C    3.991 --   457 C    1.435   454 C    1.402   456 H    0.973
                           460 C    0.108
   456   1 H    0.995 --   455 C    0.973
   457   6 C    3.991 --   455 C    1.435   459 C    1.379   458 H    0.971
   458   1 H    0.995 --   457 C    0.971
   459   6 C    3.933 --   457 C    1.379   460 C    1.344   476 O    1.071
   460   6 C    3.991 --   462 C    1.477   459 C    1.344   461 H    0.972
                           455 C    0.108
   461   1 H    0.993 --   460 C    0.972
   462   6 C    3.990 --   460 C    1.477   454 C    1.371   463 H    0.972
   463   1 H    0.993 --   462 C    0.972
   464   6 C    3.936 --   466 H    0.981   467 H    0.981   465 H    0.979
                           476 O    0.967
   465   1 H    0.994 --   464 C    0.979
   466   1 H    0.996 --   464 C    0.981
   467   1 H    0.996 --   464 C    0.981
   468   1 H    0.957 --   473 N    0.941
   469   1 H    0.955 --   473 N    0.941
   470   7 N    3.471 --   446 C    1.201   443 C    0.998   444 C    0.960
                           474 O    0.188
   471   7 N    3.692 --   472 N    1.221   447 C    1.220   454 C    1.005
   472   7 N    2.966 --   452 C    1.426   471 N    1.221   447 C    0.134
   473   7 N    3.373 --   453 C    1.257   469 H    0.941   468 H    0.941
                           475 O    0.192
   474   8 O    2.000 --   446 C    1.655   470 N    0.188
   475   8 O    1.964 --   453 C    1.652   473 N    0.192
   476   8 O    2.208 --   459 C    1.071   464 C    0.967
   477   6 C    3.968 --   480 C    1.007   479 H    0.974   478 H    0.971
                           497 N    0.957
   478   1 H    0.996 --   477 C    0.971
   479   1 H    0.997 --   477 C    0.974
   480   6 C    3.990 --   477 C    1.007   483 C    1.007   481 H    0.979
                           482 H    0.968
   481   1 H    0.997 --   480 C    0.979
   482   1 H    0.995 --   480 C    0.968
   483   6 C    3.992 --   480 C    1.007   486 C    1.001   485 H    0.979
                           484 H    0.974
   484   1 H    0.996 --   483 C    0.974
   485   1 H    0.997 --   483 C    0.979
   486   6 C    3.990 --   483 C    1.001   489 C    0.979   488 H    0.962
                           487 H    0.952
   487   1 H    0.993 --   486 C    0.952
   488   1 H    0.994 --   486 C    0.962
   489   6 C    3.949 --   498 O    1.641   497 N    1.243   486 C    0.979
   490   6 C    3.993 --   494 C    1.442   492 C    1.405   491 H    0.972
                           441 C    0.110
   491   1 H    0.994 --   490 C    0.972
   492   6 C    3.969 --   493 C    1.405   490 C    1.405   497 N    0.991
   493   6 C    3.993 --   441 C    1.440   492 C    1.405   440 H    0.973
                           494 C    0.110
   494   6 C    3.993 --   490 C    1.442   443 C    1.401   495 H    0.973
                           493 C    0.110
   495   1 H    0.995 --   494 C    0.973
   496   1 H    0.994 --   444 C    0.972
   497   7 N    3.484 --   489 C    1.243   492 C    0.991   477 C    0.957
                           498 O    0.187
   498   8 O    1.962 --   489 C    1.641   497 N    0.187
   499   1 H    0.994 --   552 C    0.973
   500   6 C    3.992 --   552 C    1.441   502 C    1.403   501 H    0.973
                           549 C    0.109
   501   1 H    0.995 --   500 C    0.973
   502   6 C    3.965 --   500 C    1.403   553 C    1.401   529 N    0.997
   503   6 C    3.968 --   508 C    0.998   504 H    0.975   555 H    0.974
                           529 N    0.961
   504   1 H    0.997 --   503 C    0.975
   505   6 C    3.957 --   533 O    1.657   529 N    1.200   506 C    1.011
   506   6 C    3.952 --   507 C    1.429   530 N    1.220   505 C    1.011
                           531 N    0.134
   507   6 C    3.980 --   506 C    1.429   511 C    1.324   508 C    1.012
   508   6 C    3.989 --   507 C    1.012   503 C    0.998   510 H    0.963
                           509 H    0.961
   509   1 H    0.994 --   508 C    0.961
   510   1 H    0.992 --   508 C    0.963
   511   6 C    3.966 --   531 N    1.427   507 C    1.324   512 C    0.995
   512   6 C    3.954 --   534 O    1.652   532 N    1.269   511 C    0.995
   513   6 C    3.953 --   514 C    1.399   521 C    1.369   530 N    1.005
   514   6 C    3.991 --   516 C    1.437   513 C    1.399   515 H    0.974
                           519 C    0.106
   515   1 H    0.995 --   514 C    0.974
   516   6 C    3.989 --   514 C    1.437   518 C    1.376   517 H    0.970
   517   1 H    0.994 --   516 C    0.970
   518   6 C    3.932 --   516 C    1.376   519 C    1.341   535 O    1.076
   519   6 C    3.990 --   521 C    1.477   518 C    1.341   520 H    0.972
                           514 C    0.106
   520   1 H    0.993 --   519 C    0.972
   521   6 C    3.990 --   519 C    1.477   513 C    1.369   522 H    0.972
   522   1 H    0.994 --   521 C    0.972
   523   6 C    3.932 --   525 H    0.981   524 H    0.977   526 H    0.976
                           535 O    0.964
   524   1 H    0.995 --   523 C    0.977
   525   1 H    0.997 --   523 C    0.981
   526   1 H    0.994 --   523 C    0.976
   527   1 H    0.947 --   532 N    0.920
   528   1 H    0.958 --   532 N    0.944
   529   7 N    3.470 --   505 C    1.200   502 C    0.997   503 C    0.961
                           533 O    0.188
   530   7 N    3.689 --   506 C    1.220   531 N    1.215   513 C    1.005
   531   7 N    2.961 --   511 C    1.427   530 N    1.215   506 C    0.134
   532   7 N    3.383 --   512 C    1.269   528 H    0.944   527 H    0.920
                           534 O    0.200
   533   8 O    2.002 --   505 C    1.657   529 N    0.188
   534   8 O    1.969 --   512 C    1.652   532 N    0.200
   535   8 O    2.210 --   518 C    1.076   523 C    0.964
   536   6 C    3.971 --   539 C    1.007   538 H    0.974   537 H    0.972
                           556 N    0.960
   537   1 H    0.997 --   536 C    0.972
   538   1 H    0.996 --   536 C    0.974
   539   6 C    3.992 --   536 C    1.007   542 C    1.006   540 H    0.979
                           541 H    0.971
   540   1 H    0.997 --   539 C    0.979
   541   1 H    0.996 --   539 C    0.971
   542   6 C    3.994 --   539 C    1.006   545 C    1.002   544 H    0.981
                           543 H    0.977
   543   1 H    0.997 --   542 C    0.977
   544   1 H    0.997 --   542 C    0.981
   545   6 C    3.990 --   542 C    1.002   548 C    0.976   547 H    0.964
                           546 H    0.954
   546   1 H    0.994 --   545 C    0.954
   547   1 H    0.994 --   545 C    0.964
   548   6 C    3.951 --   557 O    1.658   556 N    1.238   545 C    0.976
   549   6 C    3.994 --   553 C    1.442   551 C    1.406   550 H    0.974
                           500 C    0.109
   550   1 H    0.995 --   549 C    0.974
   551   6 C    3.968 --   549 C    1.406   552 C    1.405   556 N    0.991
   552   6 C    3.993 --   500 C    1.441   551 C    1.405   499 H    0.973
                           553 C    0.110
   553   6 C    3.993 --   549 C    1.442   502 C    1.401   554 H    0.974
                           552 C    0.110
   554   1 H    0.995 --   553 C    0.974
   555   1 H    0.995 --   503 C    0.974
   556   7 N    3.480 --   548 C    1.238   551 C    0.991   536 C    0.960
                           557 O    0.190
   557   8 O    1.968 --   548 C    1.658   556 N    0.190
 ---------------------------------------------------------------------------

Topologies differ in total number of bonds
Writing topology from bond orders to xtbtopo.mol

molecular dipole:
                 x           y           z       tot (Debye)
 q only:        1.286       1.331       4.173
   full:        1.050       1.771       4.068      11.589
molecular quadrupole (traceless):
                xx          xy          yy          xz          yz          zz
 q only:     -557.390     218.478     -15.153     405.488     525.173     572.543
  q+dip:     -602.129     211.624      51.246     368.813     564.236     550.882
   full:     -585.526     211.465      32.316     393.740     564.728     553.210


           -------------------------------------------------
          | TOTAL ENERGY             -911.437391852712 Eh   |
          | GRADIENT NORM               2.866230212846 Eh/α |
          | HOMO-LUMO GAP               0.071938468179 eV   |
           -------------------------------------------------

------------------------------------------------------------------------
 * finished run on 2026/10/03 at 17:10:09.274     
------------------------------------------------------------------------
 total:
 * wall-time:     0 d,  0 h,  1 min, 51.890 sec
 *  cpu-time:     0 d,  0 h,  1 min, 51.688 sec
 * ratio c/w:     0.998 speedup
 SCF:
 * wall-time:     0 d,  0 h,  1 min, 51.258 sec
 *  cpu-time:     0 d,  0 h,  1 min, 51.078 sec
 * ratio c/w:     0.998 speedup

normal termination of xtb
