      -----------------------------------------------------------      
     |                   =====================                   |     
     |                           x T B                           |     
     |                   =====================                   |     
     |                         S. Grimme                         |     
     |          Mulliken Center for Theoretical Chemistry        |     
     |                    University of Bonn                     |     
      -----------------------------------------------------------      

   * xtb version 6.7.1pre (5071a88) compiled by 'Marcel@Raven' on 2024-07-23

   xtb is free software: you can redistribute it and/or modify it under
   the terms of the GNU Lesser General Public License as published by
   the Free Software Foundation, either version 3 of the License, or
   (at your option) any later version.
   
   xtb is distributed in the hope that it will be useful,
   but WITHOUT ANY WARRANTY; without even the implied warranty of
   MERCHANTABILITY or FITNESS FOR A PARTICULAR PURPOSE.  See the
   GNU Lesser General Public License for more details.
   
   Cite this work as:
   * C. Bannwarth, E. Caldeweyher, S. Ehlert, A. Hansen, P. Pracht,
     J. Seibert, S. Spicher, S. Grimme, WIREs Comput. Mol. Sci., 2020, 11,
     e01493. DOI: 10.1002/wcms.1493
   
   for GFN2-xTB:
   * C. Bannwarth, S. Ehlert and S. Grimme., J. Chem. Theory Comput., 2019,
     15, 1652-1671. DOI: 10.1021/acs.jctc.8b01176
   for GFN1-xTB:
   * S. Grimme, C. Bannwarth, P. Shushkov, J. Chem. Theory Comput., 2017,
     13, 1989-2009. DOI: 10.1021/acs.jctc.7b00118
   for GFN0-xTB:
   * P. Pracht, E. Caldeweyher, S. Ehlert, S. Grimme, ChemRxiv, 2019, preprint.
     DOI: 10.26434/chemrxiv.8326202.v1
   for GFN-FF:
   * S. Spicher and S. Grimme, Angew. Chem. Int. Ed., 2020, 59, 15665-15673.
     DOI: 10.1002/anie.202004239
   
   for ALPB and GBSA implicit solvation:
   * S. Ehlert, M. Stahn, S. Spicher, S. Grimme, J. Chem. Theory Comput.,
     2021, 17, 4250-4261. DOI: 10.1021/acs.jctc.1c00471
   
   for ddCOSMO and CPCM-X implicit solvation:
   * M. Stahn, S. Ehlert, S. Grimme, J. Phys. Chem. A,
     2023, XX, XXXX-XXXX. DOI: 10.1021/acs.jpca.3c04382
   
   for DFT-D4:
   * E. Caldeweyher, C. Bannwarth and S. Grimme, J. Chem. Phys., 2017,
     147, 034112. DOI: 10.1063/1.4993215
   * E. Caldeweyher, S. Ehlert, A. Hansen, H. Neugebauer, S. Spicher,
     C. Bannwarth and S. Grimme, J. Chem. Phys., 2019, 150, 154122.
     DOI: 10.1063/1.5090222
   * E. Caldeweyher, J.-M. Mewes, S. Ehlert and S. Grimme, Phys. Chem. Chem. Phys.
     2020, 22, 8499-8512. DOI: 10.1039/D0CP00502A
   
   for sTDA-xTB:
   * S. Grimme and C. Bannwarth, J. Chem. Phys., 2016, 145, 054103.
     DOI: 10.1063/1.4959605
   
   in the mass-spec context:
   * V. Asgeirsson, C. Bauer and S. Grimme, Chem. Sci., 2017, 8, 4879.
     DOI: 10.1039/c7sc00601b
   * J. Koopman and S. Grimme, ACS Omega 2019, 4, 12, 15120-15133.
     DOI: 10.1021/acsomega.9b02011
   
   for metadynamics refer to:
   * S. Grimme, J. Chem. Theory Comput., 2019, 155, 2847-2862
     DOI: 10.1021/acs.jctc.9b00143
   
   for SPH calculations refer to:
   * S. Spicher and S. Grimme, J. Chem. Theory Comput., 2021, 17, 1701-1714
     DOI: 10.1021/acs.jctc.0c01306
   
   for ONIOM refer to:
   * C. Plett, A. Katbashev, S. Ehlert, S. Grimme, M. Bursch,
     Phys. Chem. Chem. Phys., 2023, 25, 17860-17868. DOI: 10.1039/D3CP02178E
   
   for DIPRO refer to:
   * J. Kohn, N. Gildemeister, S. Grimme, D. Fazzi, A. Hansen,
     J. Chem. Phys., 2023, just accepted.
   
   for PTB refer to:
   * S. Grimme, M. Mueller, A. Hansen, J. Chem. Phys., 2023, 158, 124111.
     DOI: 10.1063/5.0137838
   
   with help from (in alphabetical order)
   P. Atkinson, C. Bannwarth, F. Bohle, G. Brandenburg, E. Caldeweyher
   M. Checinski, S. Dohm, S. Ehlert, S. Ehrlich, I. Gerasimov, C. Hölzer
   A. Katbashev, J. Kohn, J. Koopman, C. Lavigne, S. Lehtola, F. März, M. Müller,
   F. Musil, H. Neugebauer, J. Pisarek, C. Plett, P. Pracht, F. Pultar,
   J. Seibert, P. Shushkov, S. Spicher, M. Stahn, M. Steiner, T. Strunk,
   J. Stückrath, T. Rose, and J. Unsleber
   
 * started run on 2026/10/03 at 17:10:51.564     
   ID    Z sym.   atoms
    1    1 H      1, 3, 6, 11, 12, 17, 19, 22, 24, 26-30, 39, 40, 42, 43, 45,
                  46, 48, 49, 52, 56, 57, 61, 62, 64, 65, 67, 68, 70, 71, 74,
                  78, 79, 82, 84, 87, 92, 93, 98, 100, 103, 105, 107-111,
                  120, 121, 123, 124, 126, 127, 129, 130, 133, 137, 138, 141,
                  143, 146, 151, 152, 157, 159, 162, 164, 166-170, 179, 180,
                  184, 186-188, 191, 193, 194, 199, 200, 205, 208-210, 218,
                  219, 221, 222, 224, 225, 228, 231, 233, 235, 238, 239, 243,
                  245-247, 250, 252, 253, 258, 259, 264, 267-269, 277, 278,
                  280, 281, 283, 284, 287, 290, 292, 294, 297, 298, 300, 301,
                  303, 304, 307, 310, 312, 314, 317, 319, 320, 325, 326, 331,
                  334-336, 344-346, 350, 352, 353, 356, 357, 359, 360, 362,
                  363, 366, 369, 371, 373, 376, 378, 379, 384, 385, 390,
                  393-395, 403-405, 409, 411, 412, 415, 416, 420, 422-424,
                  427, 429, 430, 435, 436, 441, 444-446, 454, 455, 457, 458,
                  460, 461, 464, 467, 469, 471, 474, 475, 479, 481-483, 486,
                  488, 489, 494, 495, 500, 503-505, 513, 514, 516, 517, 519,
                  520, 523, 526, 528, 530, 533, 534, 536, 537, 539, 540, 542,
                  543, 546, 550, 551, 554, 556, 559, 564, 565, 570, 572, 575,
                  577, 579-583, 591, 593, 596, 601, 602, 607, 609, 612, 614,
                  616-620, 629, 630, 632, 633, 635, 636, 638, 639, 642, 646,
                  647, 650, 652, 655, 660, 661, 666, 668, 671, 673, 675-678
    2    6 C      2, 4, 5, 7-10, 13-16, 18, 20, 21, 23, 25, 38, 41, 44, 47,
                  50, 51, 53-55, 60, 63, 66, 69, 72, 73, 75-77, 83, 85, 86,
                  88-91, 94-97, 99, 101, 102, 104, 106, 119, 122, 125, 128,
                  131, 132, 134-136, 142, 144, 145, 147-150, 153-156, 158,
                  160, 161, 163, 165, 178, 182, 183, 185, 190, 192, 195-198,
                  201-204, 206, 207, 217, 220, 223, 226, 227, 229, 230, 232,
                  234, 237, 241, 242, 244, 249, 251, 254-257, 260-263, 265,
                  266, 276, 279, 282, 285, 286, 288, 289, 291, 293, 296, 299,
                  302, 305, 306, 308, 309, 311, 313, 316, 318, 321-324,
                  327-330, 332, 333, 343, 348, 349, 351, 355, 358, 361, 364,
                  365, 367, 368, 370, 372, 375, 377, 380-383, 386-389, 391,
                  392, 402, 407, 408, 410, 414, 418, 419, 421, 426, 428,
                  431-434, 437-440, 442, 443, 453, 456, 459, 462, 463, 465,
                  466, 468, 470, 473, 477, 478, 480, 485, 487, 490-493,
                  496-499, 501, 502, 512, 515, 518, 521, 522, 524, 525, 527,
                  529, 532, 535, 538, 541, 544, 545, 547-549, 555, 557, 558,
                  560-563, 566-569, 571, 573, 574, 576, 578, 592, 594, 595,
                  597-600, 603-606, 608, 610, 611, 613, 615, 628, 631, 634,
                  637, 640, 641, 643-645, 651, 653, 654, 656-659, 662-665,
                  667, 669, 670, 672, 674
    3    7 N      31-34, 58, 80, 112-115, 139, 171-174, 211-214, 236,
                  270-273, 295, 315, 337-340, 374, 396-399, 447-450, 472,
                  506-509, 531, 552, 584-587, 621-624, 648
    4    8 O      35-37, 59, 81, 116-118, 140, 175-177, 181, 189, 215, 216,
                  240, 248, 274, 275, 341, 342, 347, 354, 400, 401, 406, 413,
                  417, 425, 451, 452, 476, 484, 510, 511, 553, 588-590,
                  625-627, 649

           -------------------------------------------------
          |                Calculation Setup                |
           -------------------------------------------------

          program call               : "C:\ORCA_6.1.1\xtb-6.7.1pre\xtb.exe"  "Stage06_D6a_D6b_678_direct.xyz" --grad -c 0 -u 0 -P 1 --namespace Stage06_D6a_D6b_678 --acc 1.000000 
          calculation namespace      : Stage06_D6a_D6b_678
          coordinate file            : Stage06_D6a_D6b_678_direct.xyz
          omp threads                :                     1


molecular fragmentation (1/2 indicates fragments):
111111111111111111111111111111111111111111111111111111111112222222222222
222222222222222222222222222222222222222222222222222222222222222222222222
222222222222222222222222222222222222222222222222222222222222222222222222
222222222222222222222222222222222222222222222222222222222222222222222222
222222222222222222222222222222222222222222222222222222222222222222222222
222222222222222222222222222222222222222222222222222222222222222222222222
222222222222222222222222222222222222222222222222222222222222222222222222
222222222222222222222222222222222222222222222222222222222222222222222222
222222222222222222222222222222222222222222222222222222222222222222222222
222222222222222222222222222222
# atoms in fragment 1/2:    59   619
 fragment masses (1/2) :      459.50     4800.26
CMA distance (Bohr)    :   3.584
constraining FC (au)   :  0.0500

           -------------------------------------------------
          |                 G F N 2 - x T B                 |
           -------------------------------------------------

        Reference                      10.1021/acs.jctc.8b01176
      * Hamiltonian:
        H0-scaling (s, p, d)           1.850000    2.230000    2.230000
        zeta-weighting                 0.500000
      * Dispersion:
        s8                             2.700000
        a1                             0.520000
        a2                             5.000000
        s9                             5.000000
      * Repulsion:
        kExp                           1.500000    1.000000
        rExp                           1.000000
      * Coulomb:
        alpha                          2.000000
        third order                    shell-resolved
        anisotropic                    true
        a3                             3.000000
        a5                             4.000000
        cn-shift                       1.200000
        cn-exp                         4.000000
        max-rad                        5.000000


          ...................................................
          :                      SETUP                      :
          :.................................................:
          :  # basis functions                1848          :
          :  # atomic orbitals                1848          :
          :  # shells                         1068          :
          :  # electrons                      1991          :
          :  max. iterations                   250          :
          :  Hamiltonian                  GFN2-xTB          :
          :  restarted?                      false          :
          :  GBSA solvation                  false          :
          :  PC potential                    false          :
          :  electronic temp.          300.0000000     K    :
          :  accuracy                    1.0000000          :
          :  -> integral cutoff          0.2500000E+02      :
          :  -> integral neglect         0.1000000E-07      :
          :  -> SCF convergence          0.1000000E-05 Eh   :
          :  -> wf. convergence          0.1000000E-03 e    :
          :  Broyden damping             0.4000000          :
          :  net charge                          0          :
          :  unpaired electrons                  0          :
          ...................................................

 iter      E             dE          RMSdq      gap      omega  full diag
   1  -1126.6704804 -0.112667E+04  0.429E+00    0.17       0.0  T
   2  -1122.7672419  0.390324E+01  0.297E+00    0.22       1.0  T
   3  -1102.1838151  0.205834E+02  0.337E+00    0.09       1.0  T
   4  -1053.3573702  0.488264E+02  0.385E+00    0.17       1.0  T
   5  -1030.1354855  0.232219E+02  0.389E+00    0.01       1.0  T
   6  -1082.2025920 -0.520671E+02  0.299E+00    0.15       1.0  T
   7  -1128.8831042 -0.466805E+02  0.141E+00    0.36       1.0  T
   8  -1128.4545411  0.428563E+00  0.134E+00    0.03       1.0  T
   9  -1128.7088593 -0.254318E+00  0.982E-01    0.00       1.0  T
  10  -1128.9655187 -0.256659E+00  0.911E-01    0.13       1.0  T
  11  -1128.8623298  0.103189E+00  0.868E-01    0.09       1.0  T
  12  -1126.0634414  0.279889E+01  0.104E+00    0.11       1.0  T
  13  -1128.2202164 -0.215677E+01  0.864E-01    0.05       1.0  T
  14  -1126.3140811  0.190614E+01  0.102E+00    0.11       1.0  T
  15  -1128.4365644 -0.212248E+01  0.700E-01    0.10       1.0  T
  16  -1129.9103319 -0.147377E+01  0.634E-01    0.30       1.0  T
  17  -1129.9620323 -0.517004E-01  0.571E-01    0.35       1.0  T
  18  -1129.9693064 -0.727408E-02  0.557E-01    0.37       1.0  T
  19  -1129.9784440 -0.913760E-02  0.506E-01    0.53       1.0  T
  20  -1129.6794747  0.298969E+00  0.596E-01    0.24       1.0  T
  21  -1129.8394903 -0.160016E+00  0.502E-01    0.36       1.0  T
  22  -1130.0741366 -0.234646E+00  0.321E-01    0.39       1.0  T
  23  -1129.8884689  0.185668E+00  0.415E-01    0.28       1.0  T
  24  -1130.1100413 -0.221572E+00  0.210E-01    0.32       1.0  T
  25  -1130.1058789  0.416240E-02  0.199E-01    0.32       1.0  T
  26  -1130.1250860 -0.192071E-01  0.146E-01    0.29       1.0  T
  27  -1130.1332743 -0.818835E-02  0.111E-01    0.27       1.0  T
  28  -1130.1330592  0.215145E-03  0.978E-02    0.28       1.0  T
  29  -1130.1379867 -0.492750E-02  0.830E-02    0.26       1.0  T
  30  -1130.1398469 -0.186024E-02  0.679E-02    0.26       1.0  T
  31  -1130.1396353  0.211572E-03  0.645E-02    0.27       1.0  T
  32  -1130.1414199 -0.178454E-02  0.526E-02    0.26       1.0  T
  33  -1130.1423556 -0.935738E-03  0.444E-02    0.25       1.0  T
  34  -1130.1428669 -0.511243E-03  0.377E-02    0.25       1.0  T
  35  -1130.1433387 -0.471864E-03  0.309E-02    0.24       1.0  T
  36  -1130.1435571 -0.218359E-03  0.267E-02    0.24       1.0  T
  37  -1130.1437265 -0.169432E-03  0.222E-02    0.24       1.0  T
  38  -1130.1438942 -0.167677E-03  0.183E-02    0.24       1.0  T
  39  -1130.1440714 -0.177248E-03  0.127E-02    0.23       1.0  T
  40  -1130.1441635 -0.920912E-04  0.849E-03    0.23       1.0  T
  41  -1130.1442061 -0.426058E-04  0.576E-03    0.23       1.0  T
  42  -1130.1442203 -0.142046E-04  0.430E-03    0.23       1.0  T
  43  -1130.1442279 -0.753029E-05  0.324E-03    0.23       1.2  T
  44  -1130.1442331 -0.525949E-05  0.206E-03    0.23       1.9  T
  45  -1130.1442366 -0.345474E-05  0.127E-03    0.23       3.0  T
  46  -1130.1442380 -0.139618E-05  0.103E-03    0.23       3.7  T
  47  -1130.1442390 -0.979274E-06  0.712E-04    0.23       5.4  T
  48  -1130.1442391 -0.164556E-06  0.648E-04    0.23       5.9  T

   *** convergence criteria satisfied after 48 iterations ***
forrtl: severe (170): Program Exception - stack overflow
Image              PC                Routine            Line        Source             
xtb.exe            00007FF75B973007  Unknown               Unknown  Unknown
xtb.exe            00007FF759D7E1ED  XTB_COULOMB_KLOPM         508  klopmanohno.f90
libiomp5md.dll     00007FFB6A0EEEC3  Unknown               Unknown  Unknown
libiomp5md.dll     00007FFB6A0382FA  Unknown               Unknown  Unknown
libiomp5md.dll     00007FFB69FF22F4  Unknown               Unknown  Unknown
xtb.exe            00007FF759D7DFAC  XTB_COULOMB_KLOPM         508  klopmanohno.f90
xtb.exe            00007FF759D7D10F  XTB_COULOMB_KLOPM         460  klopmanohno.f90
xtb.exe            00007FF75990C74F  XTB_SCF_mp_SCF.V          798  scf_module.F90
xtb.exe            00007FF7594062F5  XTB_XTB_CALCULATO         258  calculator.f90
xtb.exe            00007FF7590FB9C3  XTB_PROG_MAIN_mp_         687  main.F90
xtb.exe            00007FF75912473F  MAIN__                     57  primary.f90
xtb.exe            00007FF75B80CABE  Unknown               Unknown  Unknown
xtb.exe            00007FF75B973210  Unknown               Unknown  Unknown
KERNEL32.DLL       00007FFBF15BCDF7  Unknown               Unknown  Unknown
ntdll.dll          00007FFBF2C7EE4C  Unknown               Unknown  Unknown
