59
Coordinates from ORCA-job ApixabanOptFreq E -1542.104724715868
  C          23.76428090426938    -17.62965447826314     -0.03344698201354
  C          24.21261565032177    -18.48078915768712      1.14928526873594
  C          25.51505678645001    -19.24882611819666      0.97645658761155
  N          26.38966869366083    -18.82346014385634     -0.00884539911518
  C          26.01206623433525    -17.85315712989548     -1.05437545066915
  C          24.96485045667816    -16.86543870391299     -0.57230513370191
  C          27.65098501217503    -19.47000850387852     -0.16512798416823
  C          28.47807799066243    -19.69765900041309      0.93888779062294
  C          29.71635079568006    -20.29271650574866      0.77719533686304
  C          30.16398634380126    -20.66605746620611     -0.49299233098399
  C          29.34703980637888    -20.42852037991329     -1.59609985462418
  C          28.09642853431355    -19.84282514299989     -1.43182490281853
  N          31.42405223629990    -21.30899751978659     -0.65279516082319
  C          31.53093994776760    -22.37219413614389     -1.67677541525816
  C          32.53001601843307    -23.45586304770088     -1.28170547770941
  C          33.79538900618611    -22.78576973830837     -0.87934005365436
  C          33.77565526748509    -21.51285677255457     -0.34087596701046
  C          32.55791427949657    -20.72293947427572     -0.10177227078833
  O          25.78069620914910    -20.17040699882411      1.73436958321822
  O          32.53309466427812    -19.68047023822814      0.54035820215245
  C          35.15192407355434    -23.14090008936891     -0.91511969322796
  N          35.91912799864230    -22.14739634626990     -0.43569935217651
  N          35.08103841021855    -21.16745341188567     -0.07904737578015
  C          35.63021255559008    -19.95293867587976      0.43524643410297
  C          35.73512099307923    -24.41260178366205     -1.39859535628275
  N          37.09192398609746    -24.48214296082411     -1.34602284353547
  O          35.02272768837664    -25.31765514217549     -1.82175810629796
  C          35.20006725723760    -19.43592067767639      1.65585001755338
  C          35.77976550990172    -18.28324661433090      2.14939737982069
  C          36.79851376676731    -17.64240155216434      1.43507828693033
  C          37.23754554690915    -18.17091033445610      0.21936080220919
  C          36.64615839983006    -19.32947413453008     -0.27485428426965
  O          37.29863013248676    -16.51507204124246      2.01091159224723
  C          38.34280907283752    -15.82991651075823      1.32647007042734
  H          23.35542734116681    -18.27020267578432     -0.82697215808317
  H          22.96110143415588    -16.94928868167437      0.27181590196009
  H          24.37185016414451    -17.84254955063653      2.03009677630448
  H          23.46068848129358    -19.21938716911549      1.44186183677193
  H          26.92669614013984    -17.33355528833538     -1.36203854910943
  H          25.62143594536108    -18.38163499140264     -1.93933046618388
  H          25.38885445425974    -16.22615436471633      0.21372158381110
  H          24.68641461451413    -16.21627914135347     -1.41055879845649
  H          28.13920562485672    -19.41979934690868      1.92899861751991
  H          30.34855409570500    -20.46494976289650      1.63997284499366
  H          29.67955238081437    -20.69421238566252     -2.59462197781653
  H          27.47208053669402    -19.68289748750765     -2.30477401794508
  H          30.53331610438796    -22.80205275685926     -1.80086684257492
  H          31.83683574355095    -21.93363883679329     -2.64018414330527
  H          32.13871021857025    -24.05550510017076     -0.44826177759290
  H          32.69813816466212    -24.14030408584352     -2.11722860311437
  H          37.62416158197203    -23.73920217632974     -0.92272239731686
  H          37.53720315375661    -25.34743961664607     -1.60060762303414
  H          34.41027698297906    -19.93062152560650      2.20721798483568
  H          35.46039522204465    -17.86002551260357      3.09590840658076
  H          38.02502776363486    -17.69600950012664     -0.35319217383226
  H          36.97643791409642    -19.75250166116109     -1.21795422473826
  H          38.01021429413566    -15.47607357390179      0.34140659636457
  H          38.59567776961460    -14.97231858194486      1.95180093218099
  H          39.22901364413669    -16.46775529399995      1.20802431419419
