59
Coordinates from ORCA-job ApixabanOptFreq E -1542.076384499781
  C      23.926000    -17.490000     -0.107000
  C      24.134000    -18.708000      0.808000
  C      25.448000    -19.467000      0.541000
  N      26.510000    -18.772000     -0.059000
  C      26.402000    -17.379000     -0.563000
  C      25.174000    -16.604000     -0.051000
  C      27.779000    -19.390000     -0.235000
  C      28.523000    -19.809000      0.882000
  C      29.776000    -20.417000      0.710000
  C      30.293000    -20.621000     -0.582000
  C      29.547000    -20.205000     -1.701000
  C      28.298000    -19.588000     -1.527000
  N      31.559000    -21.247000     -0.754000
  C      31.594000    -22.454000     -1.632000
  C      32.641000    -23.518000     -1.215000
  C      33.909000    -22.831000     -0.806000
  C      33.916000    -21.558000     -0.366000
  C      32.732000    -20.682000     -0.228000
  O      25.541000    -20.645000      0.843000
  O      32.758000    -19.582000      0.298000
  C      35.229000    -23.370000     -0.734000
  N      36.058000    -22.433000     -0.275000
  N      35.243000    -21.347000     -0.044000
  C      35.703000    -20.122000      0.417000
  C      35.657000    -24.745000     -1.084000
  N      36.987000    -25.091000     -0.952000
  O      34.897000    -25.606000     -1.485000
  C      35.679000    -19.841000      1.792000
  C      36.134000    -18.595000      2.253000
  C      36.613000    -17.634000      1.347000
  C      36.634000    -17.924000     -0.036000
  C      36.178000    -19.169000     -0.498000
  O      37.052000    -16.425000      1.852000
  C      37.572000    -15.370000      1.024000
  H      23.746000    -17.820000     -1.139000
  H      23.043000    -16.923000      0.217000
  H      24.140000    -18.379000      1.855000
  H      23.293000    -19.402000      0.688000
  H      27.313000    -16.828000     -0.292000
  H      26.352000    -17.419000     -1.659000
  H      25.349000    -16.279000      0.984000
  H      25.027000    -15.699000     -0.653000
  H      28.130000    -19.660000      1.884000
  H      30.344000    -20.737000      1.579000
  H      29.938000    -20.352000     -2.703000
  H      27.730000    -19.274000     -2.398000
  H      30.600000    -22.920000     -1.652000
  H      31.823000    -22.120000     -2.652000
  H      32.253000    -24.105000     -0.373000
  H      32.805000    -24.209000     -2.051000
  H      37.654000    -24.409000     -0.620000
  H      37.285000    -26.025000     -1.189000
  H      35.308000    -20.580000      2.496000
  H      36.116000    -18.373000      3.316000
  H      36.997000    -17.199000     -0.758000
  H      36.192000    -19.391000     -1.562000
  H      36.811000    -15.038000      0.306000
  H      37.859000    -14.515000      1.648000
  H      38.458000    -15.716000      0.476000
59
Coordinates from ORCA-job ApixabanOptFreq E -1542.097188787923
  C      23.926829    -17.567355     -0.123439
  C      24.185128    -18.747825      0.817162
  C      25.505467    -19.469251      0.570574
  N      26.521983    -18.762002     -0.054216
  C      26.379647    -17.399193     -0.610052
  C      25.147745    -16.652370     -0.102840
  C      27.796525    -19.372930     -0.227970
  C      28.548909    -19.761630      0.882518
  C      29.790163    -20.366938      0.712509
  C      30.294640    -20.587112     -0.571170
  C      29.549073    -20.186265     -1.682565
  C      28.302747    -19.589107     -1.511104
  N      31.544518    -21.241143     -0.748072
  C      31.555140    -22.425353     -1.647773
  C      32.558111    -23.514529     -1.234949
  C      33.833054    -22.855143     -0.828515
  C      33.876099    -21.568043     -0.375100
  C      32.706956    -20.687325     -0.221122
  O      25.657106    -20.625259      0.930291
  O      32.742286    -19.602836      0.338028
  C      35.152875    -23.347156     -0.745537
  N      35.976644    -22.396068     -0.275463
  N      35.195674    -21.321132     -0.042984
  C      35.704388    -20.087727      0.432919
  C      35.617485    -24.699185     -1.095517
  N      36.956658    -24.940781     -0.932360
  O      34.860048    -25.571024     -1.507387
  C      35.697517    -19.813617      1.800616
  C      36.176127    -18.595329      2.266636
  C      36.666617    -17.650012      1.365947
  C      36.678997    -17.925348     -0.007837
  C      36.197546    -19.147610     -0.469259
  O      37.119950    -16.478427      1.889667
  C      37.637063    -15.482723      1.014861
  H      23.748545    -17.930553     -1.144245
  H      23.027164    -17.021731      0.191928
  H      24.196062    -18.391109      1.855115
  H      23.384497    -19.487858      0.735467
  H      27.283625    -16.828153     -0.365468
  H      26.322141    -17.471585     -1.706849
  H      25.323820    -16.298518      0.921716
  H      24.984986    -15.768084     -0.728660
  H      28.157047    -19.603497      1.881730
  H      30.365551    -20.675918      1.578821
  H      29.934330    -20.349502     -2.684409
  H      27.722432    -19.299468     -2.381651
  H      30.547356    -22.849690     -1.667097
  H      31.797060    -22.088820     -2.667668
  H      32.157983    -24.099530     -0.396183
  H      32.708023    -24.203855     -2.069354
  H      37.572132    -24.219420     -0.590312
  H      37.313711    -25.851079     -1.158979
  H      35.309869    -20.547497      2.499136
  H      36.168194    -18.373986      3.328976
  H      37.055385    -17.201895     -0.722329
  H      36.200185    -19.366268     -1.532552
  H      36.868914    -15.147378      0.304916
  H      37.945764    -14.637346      1.631059
  H      38.507506    -15.860512      0.461394
59
Coordinates from ORCA-job ApixabanOptFreq E -1542.101220582565
  C      23.938214    -17.576771     -0.150108
  C      24.212347    -18.702959      0.844589
  C      25.533450    -19.421407      0.644401
  N      26.526917    -18.745336     -0.031647
  C      26.373226    -17.429754     -0.679188
  C      25.155468    -16.662734     -0.188408
  C      27.794355    -19.381370     -0.203896
  C      28.563714    -19.728731      0.904180
  C      29.794648    -20.342391      0.736356
  C      30.279077    -20.602465     -0.543856
  C      29.520830    -20.235965     -1.653026
  C      28.277073    -19.642497     -1.482726
  N      31.522089    -21.275830     -0.719030
  C      31.539175    -22.427452     -1.652341
  C      32.523235    -23.527754     -1.241992
  C      33.802737    -22.884608     -0.844452
  C      33.845391    -21.590524     -0.380872
  C      32.674990    -20.724895     -0.187179
  O      25.708742    -20.546648      1.089270
  O      32.706342    -19.658559      0.412295
  C      35.133433    -23.330609     -0.770471
  N      35.940054    -22.360018     -0.303987
  N      35.152837    -21.313176     -0.061176
  C      35.682003    -20.077956      0.427126
  C      35.648779    -24.661776     -1.135806
  N      36.990676    -24.821835     -0.976038
  O      34.907247    -25.548293     -1.552068
  C      35.695597    -19.823171      1.793233
  C      36.194570    -18.624759      2.267305
  C      36.683901    -17.672256      1.372296
  C      36.675071    -17.930939     -0.001711
  C      36.171680    -19.139041     -0.466574
  O      37.148618    -16.524133      1.928836
  C      37.657511    -15.523748      1.058427
  H      23.753909    -17.993247     -1.149791
  H      23.036973    -17.023127      0.140777
  H      24.227581    -18.295500      1.864487
  H      23.432446    -19.468664      0.817871
  H      27.286479    -16.852427     -0.490210
  H      26.296402    -17.569337     -1.769325
  H      25.344704    -16.261836      0.816326
  H      24.995042    -15.807664     -0.854616
  H      28.183096    -19.537853      1.901823
  H      30.387572    -20.620373      1.601133
  H      29.894702    -20.427427     -2.654545
  H      27.680457    -19.384195     -2.352526
  H      30.523384    -22.829421     -1.689047
  H      31.799695    -22.073542     -2.662794
  H      32.123432    -24.114146     -0.403804
  H      32.667338    -24.220316     -2.074043
  H      37.564334    -24.070852     -0.629286
  H      37.396631    -25.712073     -1.208570
  H      35.303647    -20.562716      2.484204
  H      36.204651    -18.411973      3.330935
  H      37.050161    -17.206032     -0.712717
  H      36.155662    -19.350025     -1.531522
  H      36.883734    -15.163983      0.366571
  H      37.975484    -14.702174      1.701256
  H      38.520485    -15.891740      0.486653
59
Coordinates from ORCA-job ApixabanOptFreq E -1542.102140137849
  C      23.940649    -17.562887     -0.152820
  C      24.227663    -18.637569      0.891471
  C      25.545881    -19.368274      0.715058
  N      26.524777    -18.738001     -0.022793
  C      26.356322    -17.470899     -0.755641
  C      25.164440    -16.665175     -0.267319
  C      27.784052    -19.395368     -0.192560
  C      28.573250    -19.698810      0.914862
  C      29.799042    -20.321371      0.750051
  C      30.260561    -20.632251     -0.528112
  C      29.481687    -20.312271     -1.637237
  C      28.241450    -19.709757     -1.468269
  N      31.503652    -21.309433     -0.697387
  C      31.543943    -22.431706     -1.662776
  C      32.521423    -23.535278     -1.252020
  C      33.803181    -22.896476     -0.855808
  C      33.830958    -21.600709     -0.382386
  C      32.651525    -20.754491     -0.159823
  O      25.735085    -20.455235      1.244301
  O      32.672116    -19.706450      0.473759
  C      35.142105    -23.319306     -0.795241
  N      35.935108    -22.338733     -0.324857
  N      35.131442    -21.306400     -0.070104
  C      35.662105    -20.072097      0.429751
  C      35.684523    -24.638226     -1.184758
  N      37.028074    -24.772417     -1.036117
  O      34.950308    -25.527954     -1.606303
  C      35.681896    -19.833320      1.798642
  C      36.192301    -18.644009      2.281070
  C      36.685209    -17.683339      1.392181
  C      36.667928    -17.928114      0.016562
  C      36.152381    -19.129206     -0.456886
  O      37.160191    -16.546151      1.966371
  C      37.670808    -15.534980      1.105570
  H      23.730420    -18.028823     -1.125537
  H      23.050215    -16.988294      0.126780
  H      24.259805    -18.181456      1.890808
  H      23.451528    -19.407408      0.922657
  H      27.282959    -16.894800     -0.641190
  H      26.236902    -17.680612     -1.830536
  H      25.386918    -16.220637      0.712002
  H      24.998751    -15.839215     -0.968529
  H      28.208562    -19.467617      1.909790
  H      30.410485    -20.561827      1.612816
  H      29.838661    -20.541376     -2.637002
  H      27.627920    -19.487755     -2.336270
  H      30.527796    -22.829382     -1.730574
  H      31.828257    -22.054618     -2.658282
  H      32.120183    -24.122815     -0.415040
  H      32.666133    -24.230613     -2.082790
  H      37.587313    -24.014375     -0.680820
  H      37.450779    -25.651631     -1.280967
  H      35.285395    -20.577991      2.481647
  H      36.210793    -18.437632      3.345875
  H      37.045378    -17.199371     -0.690113
  H      36.129793    -19.331882     -1.523413
  H      36.896697    -15.161151      0.421938
  H      37.994128    -14.725613      1.761952
  H      38.530193    -15.897442      0.525367
59
Coordinates from ORCA-job ApixabanOptFreq E -1542.102629892604
  C      23.944635    -17.534480     -0.145881
  C      24.247725    -18.549855      0.949883
  C      25.563920    -19.294712      0.800389
  N      26.522099    -18.733363     -0.018047
  C      26.328072    -17.531432     -0.848486
  C      25.178605    -16.669333     -0.356922
  C      27.771101    -19.413754     -0.182001
  C      28.583739    -19.664274      0.923122
  C      29.804920    -20.296410      0.764087
  C      30.239092    -20.672704     -0.508343
  C      29.433074    -20.413196     -1.614910
  C      28.198071    -19.795982     -1.449748
  N      31.483615    -21.349290     -0.669573
  C      31.557856    -22.432515     -1.676104
  C      32.528684    -23.540491     -1.269374
  C      33.812223    -22.904640     -0.869834
  C      33.820038    -21.611925     -0.379282
  C      32.628873    -20.792130     -0.121518
  O      25.758205    -20.342211      1.402796
  O      32.644014    -19.756269      0.532370
  C      35.158078    -23.305192     -0.823163
  N      35.938798    -22.315202     -0.351657
  N      35.114820    -21.299575     -0.076171
  C      35.642132    -20.067792      0.437010
  C      35.722700    -24.611531     -1.238107
  N      37.069251    -24.723873     -1.111146
  O      34.996320    -25.501611     -1.669807
  C      35.661830    -19.845083      1.809872
  C      36.180040    -18.663045      2.301836
  C      36.680040    -17.695128      1.420750
  C      36.660360    -17.925091      0.043634
  C      36.136370    -19.120207     -0.441361
  O      37.163328    -16.567216      2.009762
  C      37.677504    -15.546808      1.157928
  H      23.693794    -18.052644     -1.082118
  H      23.073269    -16.928982      0.126268
  H      24.299280    -18.042545      1.923747
  H      23.473743    -19.317218      1.044455
  H      27.269994    -16.968985     -0.837385
  H      26.140085    -17.824899     -1.893446
  H      25.452735    -16.179527      0.587182
  H      25.003029    -15.877567     -1.094524
  H      28.239078    -19.382210      1.911663
  H      30.435856    -20.492285      1.623055
  H      29.766753    -20.691436     -2.609922
  H      27.565770    -19.618414     -2.314245
  H      30.545116    -22.829353     -1.787961
  H      31.872602    -22.021769     -2.648795
  H      32.123452    -24.130759     -0.435910
  H      32.675273    -24.235187     -2.101469
  H      37.617039    -23.961293     -0.747104
  H      37.505962    -25.590945     -1.374286
  H      35.258875    -20.594848      2.483168
  H      36.202704    -18.461467      3.367595
  H      37.042322    -17.191878     -0.656722
  H      36.112510    -19.313995     -1.509463
  H      36.903810    -15.164099      0.479203
  H      38.004338    -14.745667      1.822914
  H      38.534481    -15.906707      0.573099
59
Coordinates from ORCA-job ApixabanOptFreq E -1542.102794997040
  C      23.934541    -17.522455     -0.107012
  C      24.263425    -18.517543      0.999672
  C      25.569827    -19.278369      0.828773
  N      26.509447    -18.747474     -0.032047
  C      26.287250    -17.577255     -0.901130
  C      25.172451    -16.682406     -0.387664
  C      27.759267    -19.425157     -0.195110
  C      28.583627    -19.651601      0.907574
  C      29.807601    -20.278941      0.749842
  C      30.232973    -20.679407     -0.519999
  C      29.412723    -20.447528     -1.623489
  C      28.176607    -19.830625     -1.458922
  N      31.480400    -21.349121     -0.679570
  C      31.572047    -22.416817     -1.701663
  C      32.537392    -23.528831     -1.294883
  C      33.819849    -22.897027     -0.881740
  C      33.821023    -21.606461     -0.386201
  C      32.627878    -20.788357     -0.131960
  O      25.787543    -20.288372      1.483807
  O      32.641806    -19.762638      0.536545
  C      35.165429    -23.296031     -0.831482
  N      35.942365    -22.309889     -0.346670
  N      35.113558    -21.294833     -0.072537
  C      35.638329    -20.065344      0.444997
  C      35.731808    -24.600153     -1.252457
  N      37.076633    -24.720312     -1.110045
  O      35.007124    -25.489677     -1.686602
  C      35.632202    -19.836292      1.817946
  C      36.151517    -18.655675      2.313186
  C      36.678800    -17.697366      1.436911
  C      36.684505    -17.933725      0.060931
  C      36.158728    -19.127135     -0.428819
  O      37.162108    -16.570281      2.028641
  C      37.701379    -15.557804      1.181738
  H      23.638972    -18.057155     -1.020581
  H      23.083774    -16.896312      0.184186
  H      24.347732    -17.992510      1.961924
  H      23.486516    -19.276063      1.133747
  H      27.234680    -17.027253     -0.959592
  H      26.041855    -17.908779     -1.922549
  H      25.493082    -16.175367      0.532449
  H      24.978965    -15.906014     -1.136990
  H      28.246016    -19.353066      1.893555
  H      30.444743    -20.457058      1.607397
  H      29.735874    -20.742281     -2.616837
  H      27.536549    -19.673472     -2.321539
  H      30.562800    -22.815317     -1.836635
  H      31.902702    -21.990545     -2.662293
  H      32.123142    -24.120430     -0.466761
  H      32.689257    -24.220297     -2.128890
  H      37.622023    -23.961369     -0.734643
  H      37.513161    -25.589475     -1.366472
  H      35.208510    -20.578974      2.486069
  H      36.155972    -18.446054      3.377701
  H      37.087215    -17.207957     -0.635486
  H      36.154555    -19.326375     -1.496104
  H      36.943384    -15.174083      0.486202
  H      38.022481    -14.754626      1.846949
  H      38.565882    -15.929266      0.615633
59
Coordinates from ORCA-job ApixabanOptFreq E -1542.102975416681
  C      23.927267    -17.516821     -0.085511
  C      24.269732    -18.502155      1.026270
  C      25.574939    -19.265914      0.852612
  N      26.503207    -18.755841     -0.033577
  C      26.260065    -17.609078     -0.928644
  C      25.166736    -16.693183     -0.406010
  C      27.753259    -19.430273     -0.196510
  C      28.582653    -19.649608      0.904338
  C      29.808434    -20.272948      0.745720
  C      30.232112    -20.679270     -0.523792
  C      29.406664    -20.453413     -1.625296
  C      28.169051    -19.839846     -1.459333
  N      31.480266    -21.344420     -0.683998
  C      31.579064    -22.406500     -1.712290
  C      32.543221    -23.521069     -1.309275
  C      33.823925    -22.891016     -0.887135
  C      33.823450    -21.603281     -0.387276
  C      32.630423    -20.784479     -0.136143
  O      25.793754    -20.269535      1.516120
  O      32.647849    -19.758005      0.529823
  C      35.168348    -23.291220     -0.835018
  N      35.944902    -22.308350     -0.343416
  N      35.116275    -21.293156     -0.067425
  C      35.639077    -20.064634      0.450714
  C      35.731576    -24.595209     -1.256713
  N      37.076987    -24.718092     -1.114827
  O      35.008594    -25.481456     -1.700197
  C      35.605034    -19.823012      1.821467
  C      36.122531    -18.641851      2.317288
  C      36.676533    -17.696396      1.444579
  C      36.710851    -17.944818      0.071090
  C      36.186260    -19.138279     -0.419871
  O      37.156476    -16.567620      2.035168
  C      37.721034    -15.567007      1.191393
  H      23.605581    -18.059032     -0.985596
  H      23.089756    -16.877612      0.216755
  H      24.364018    -17.970037      1.983396
  H      23.492886    -19.258193      1.174559
  H      27.207925    -17.067194     -1.032954
  H      25.978434    -17.967205     -1.931858
  H      25.514238    -16.175600      0.498369
  H      24.962178    -15.927606     -1.163300
  H      28.248328    -19.347473      1.890187
  H      30.446080    -20.446784      1.603487
  H      29.725300    -20.748666     -2.619699
  H      27.528042    -19.686935     -2.322042
  H      30.572762    -22.808868     -1.855915
  H      31.913550    -21.971820     -2.667849
  H      32.124725    -24.114718     -0.484806
  H      32.697958    -24.207654     -2.146445
  H      37.622185    -23.961986     -0.733402
  H      37.513100    -25.586713     -1.373187
  H      35.161059    -20.556353      2.486558
  H      36.105795    -18.421779      3.379604
  H      37.134503    -17.228741     -0.622633
  H      36.204216    -19.346752     -1.485185
  H      36.980322    -15.185297      0.476334
  H      38.034071    -14.759328      1.854716
  H      38.594440    -15.950902      0.647577
59
Coordinates from ORCA-job ApixabanOptFreq E -1542.103212491507
  C      23.909076    -17.515304     -0.044791
  C      24.293877    -18.456843      1.091652
  C      25.594657    -19.227982      0.913201
  N      26.492022    -18.769621     -0.031870
  C      26.193022    -17.692489     -0.994662
  C      25.141431    -16.729615     -0.471489
  C      27.743479    -19.436357     -0.194157
  C      28.584224    -19.641314      0.901756
  C      29.811896    -20.259138      0.739971
  C      30.231332    -20.675965     -0.528442
  C      29.396788    -20.459248     -1.625108
  C      28.156171    -19.853757     -1.455360
  N      31.479400    -21.334541     -0.691090
  C      31.587130    -22.385951     -1.730784
  C      32.551513    -23.504920     -1.339663
  C      33.828630    -22.877600     -0.903750
  C      33.825401    -21.597237     -0.390098
  C      32.631847    -20.780756     -0.136741
  O      25.833335    -20.194562      1.622370
  O      32.654991    -19.749063      0.519460
  C      35.172263    -23.277766     -0.852658
  N      35.947839    -22.298505     -0.352916
  N      35.119421    -21.287968     -0.063346
  C      35.639376    -20.062031      0.459618
  C      35.732449    -24.578175     -1.281665
  N      37.078601    -24.702820     -1.138651
  O      35.011998    -25.462516     -1.733692
  C      35.540475    -19.793155      1.822198
  C      36.055242    -18.613426      2.323029
  C      36.672815    -17.696909      1.464210
  C      36.773730    -17.971646      0.098875
  C      36.250450    -19.162983     -0.397544
  O      37.145138    -16.566984      2.056912
  C      37.770275    -15.593569      1.226100
  H      23.530368    -18.090573     -0.900815
  H      23.099450    -16.847054      0.271973
  H      24.418514    -17.890289      2.024876
  H      23.521426    -19.205104      1.292977
  H      27.133437    -17.169721     -1.204195
  H      25.839307    -18.122585     -1.945936
  H      25.544249    -16.169440      0.383228
  H      24.904665    -16.005834     -1.259613
  H      28.258681    -19.331093      1.887773
  H      30.453468    -20.421266      1.597146
  H      29.706045    -20.756156     -2.621883
  H      27.512910    -19.709713     -2.317975
  H      30.585393    -22.795235     -1.884631
  H      31.922862    -21.936105     -2.678879
  H      32.129031    -24.105727     -0.522471
  H      32.709927    -24.179400     -2.185226
  H      37.621667    -23.951537     -0.744902
  H      37.515112    -25.571129     -1.396705
  H      35.047976    -20.504874      2.476361
  H      35.988605    -18.372281      3.378804
  H      37.247411    -17.277755     -0.584604
  H      36.320101    -19.391661     -1.456531
  H      37.073657    -15.212640      0.467456
  H      38.064795    -14.778907      1.889016
  H      38.662647    -16.004210      0.734880
59
Coordinates from ORCA-job ApixabanOptFreq E -1542.103449310923
  C      23.871767    -17.537403      0.006468
  C      24.333214    -18.382559      1.189732
  C      25.634332    -19.154017      1.014912
  N      26.475306    -18.783164     -0.017785
  C      26.076544    -17.838344     -1.078967
  C      25.072810    -16.812174     -0.584805
  C      27.729567    -19.437298     -0.184728
  C      28.594779    -19.614417      0.898331
  C      29.824749    -20.222663      0.725113
  C      30.229306    -20.660007     -0.541752
  C      29.373771    -20.465418     -1.625954
  C      28.129872    -19.871372     -1.444946
  N      31.477739    -21.308795     -0.713586
  C      31.590406    -22.350566     -1.762535
  C      32.556355    -23.473050     -1.384177
  C      33.829166    -22.849529     -0.932041
  C      33.824221    -21.576751     -0.403455
  C      32.631632    -20.757027     -0.158262
  O      25.914430    -20.050474      1.796917
  O      32.653023    -19.730945      0.506218
  C      35.172372    -23.250581     -0.882268
  N      35.945293    -22.279642     -0.363378
  N      35.118848    -21.272970     -0.062099
  C      35.639219    -20.052197      0.469786
  C      35.730406    -24.545622     -1.323045
  N      37.077250    -24.671074     -1.179531
  O      35.013486    -25.422998     -1.794843
  C      35.430080    -19.732551      1.808564
  C      35.947734    -18.559053      2.319305
  C      36.680421    -17.699066      1.494787
  C      36.893684    -18.023909      0.153327
  C      36.365604    -19.208167     -0.353386
  O      37.145996    -16.570449      2.093502
  C      37.883114    -15.651043      1.295725
  H      23.422832    -18.178736     -0.764050
  H      23.095420    -16.830808      0.323333
  H      24.499053    -17.745328      2.069118
  H      23.580084    -19.117810      1.488726
  H      26.988545    -17.352856     -1.442874
  H      25.633241    -18.384379     -1.928312
  H      25.542455    -16.173020      0.175044
  H      24.777792    -16.172687     -1.424372
  H      28.289444    -19.287893      1.884947
  H      30.480586    -20.359369      1.576016
  H      29.663836    -20.771358     -2.625783
  H      27.476514    -19.746773     -2.302891
  H      30.592610    -22.767227     -1.921488
  H      31.923195    -21.887368     -2.705192
  H      32.130157    -24.083382     -0.576069
  H      32.719389    -24.133048     -2.239545
  H      37.616859    -23.928693     -0.764793
  H      37.514527    -25.537846     -1.441139
  H      34.849676    -20.400700      2.435927
  H      35.796358    -18.279852      3.356765
  H      37.457492    -17.373998     -0.504254
  H      36.522299    -19.475371     -1.393895
  H      37.274359    -15.268432      0.465485
  H      38.150149    -14.826855      1.958357
  H      38.798629    -16.111915      0.900792
59
Coordinates from ORCA-job ApixabanOptFreq E -1542.103753032257
  C      23.839199    -17.558526      0.021725
  C      24.333065    -18.360510      1.221955
  C      25.634331    -19.131303      1.051667
  N      26.458438    -18.791187     -0.006341
  C      26.014154    -17.912652     -1.105670
  C      25.022805    -16.863435     -0.636174
  C      27.715684    -19.437121     -0.172897
  C      28.578492    -19.628670      0.910766
  C      29.811607    -20.227929      0.732574
  C      30.224928    -20.647540     -0.536966
  C      29.372958    -20.439958     -1.620755
  C      28.127445    -19.850816     -1.437736
  N      31.474380    -21.293708     -0.712170
  C      31.583982    -22.332640     -1.763332
  C      32.554985    -23.454323     -1.393847
  C      33.825267    -22.829925     -0.938809
  C      33.819327    -21.563438     -0.395840
  C      32.624626    -20.747204     -0.147319
  O      25.932211    -19.993149      1.865627
  O      32.641303    -19.718029      0.513830
  C      35.170414    -23.228474     -0.899285
  N      35.942052    -22.260501     -0.373577
  N      35.116821    -21.258723     -0.059661
  C      35.641461    -20.039167      0.471453
  C      35.730619    -24.516777     -1.355164
  N      37.078530    -24.638090     -1.218090
  O      35.014265    -25.392572     -1.831580
  C      35.349770    -19.665826      1.780190
  C      35.873750    -18.495289      2.290644
  C      36.697111    -17.691210      1.495892
  C      36.995310    -18.070802      0.185124
  C      36.459405    -19.251060     -0.321232
  O      37.159849    -16.559827      2.091006
  C      37.988993    -15.696828      1.322006
  H      23.363643    -18.226519     -0.709091
  H      23.076782    -16.836207      0.335503
  H      24.514131    -17.692876      2.075557
  H      23.589527    -19.087769      1.561346
  H      26.909265    -17.444916     -1.529319
  H      25.544148    -18.509664     -1.905098
  H      25.512150    -16.186555      0.076974
  H      24.702927    -16.267970     -1.498789
  H      28.272960    -19.316976      1.901393
  H      30.463898    -20.369973      1.585223
  H      29.666384    -20.730070     -2.624448
  H      27.481390    -19.716506     -2.299377
  H      30.586641    -22.752756     -1.916127
  H      31.908081    -21.866124     -2.707283
  H      32.132880    -24.073469     -0.590390
  H      32.718735    -24.105434     -2.255718
  H      37.616531    -23.901602     -0.791053
  H      37.516068    -25.503731     -1.483205
  H      34.699412    -20.289132      2.384408
  H      35.657373    -18.176934      3.304944
  H      37.630183    -17.465024     -0.449459
  H      36.681223    -19.559839     -1.338158
  H      37.460602    -15.323102      0.434557
  H      38.234609    -14.858938      1.975871
  H      38.914917    -16.201709      1.014724
59
Coordinates from ORCA-job ApixabanOptFreq E -1542.104254596930
  C      23.784327    -17.609169      0.009327
  C      24.284612    -18.402197      1.212217
  C      25.590906    -19.162508      1.048065
  N      26.430494    -18.796336      0.008536
  C      25.979581    -17.929258     -1.096589
  C      24.959740    -16.899548     -0.644872
  C      27.692204    -19.435665     -0.156565
  C      28.536451    -19.672059      0.934358
  C      29.773805    -20.260792      0.752314
  C      30.210958    -20.631312     -0.521920
  C      29.379007    -20.386281     -1.611258
  C      28.131738    -19.800646     -1.430306
  N      31.464190    -21.278319     -0.699443
  C      31.557980    -22.328827     -1.736872
  C      32.541538    -23.438704     -1.364930
  C      33.810092    -22.802435     -0.925563
  C      33.803942    -21.536744     -0.375170
  C      32.602186    -20.727914     -0.126715
  O      25.886703    -20.026250      1.861741
  O      32.596116    -19.697643      0.536995
  C      35.160216    -23.192609     -0.908553
  N      35.931541    -22.218891     -0.394142
  N      35.106007    -21.226233     -0.059913
  C      35.644614    -20.007129      0.462540
  C      35.729579    -24.472270     -1.382833
  N      37.079510    -24.578690     -1.267126
  O      35.011160    -25.353540     -1.846432
  C      35.257304    -19.548138      1.717769
  C      35.803456    -18.383933      2.219921
  C      36.746981    -17.671061      1.470809
  C      37.143908    -18.140412      0.216461
  C      36.584635    -19.312723     -0.281483
  O      37.217920    -16.535737      2.053221
  C      38.168459    -15.765424      1.326629
  H      23.320519    -18.285460     -0.721702
  H      23.012127    -16.897695      0.320656
  H      24.459909    -17.726505      2.061458
  H      23.547896    -19.134022      1.555795
  H      26.869698    -17.438749     -1.505532
  H      25.539711    -18.539482     -1.902770
  H      25.424970    -16.202052      0.064298
  H      24.638381    -16.320469     -1.518388
  H      28.219274    -19.400044      1.931926
  H      30.413980    -20.427970      1.609914
  H      29.692585    -20.643955     -2.618196
  H      27.503188    -19.640112     -2.299488
  H      30.556539    -22.749111     -1.863090
  H      31.863209    -21.878279     -2.694596
  H      32.134825    -24.063625     -0.558135
  H      32.703659    -24.092196     -2.225913
  H      37.617574    -23.844467     -0.836498
  H      37.517333    -25.443805     -1.534714
  H      34.516574    -20.097511      2.287634
  H      35.510764    -18.004270      3.192910
  H      37.873595    -17.608006     -0.381433
  H      36.882631    -19.690215     -1.254837
  H      37.753520    -15.411655      0.373262
  H      38.398858    -14.907464      1.960406
  H      39.088820    -16.334485      1.137816
59
Coordinates from ORCA-job ApixabanOptFreq E -1542.104478715976
  C      23.760601    -17.625915     -0.011650
  C      24.245405    -18.436454      1.185232
  C      25.551140    -19.198598      1.018808
  N      26.406668    -18.806414      0.001396
  C      25.978023    -17.907159     -1.087059
  C      24.943717    -16.895597     -0.627810
  C      27.669429    -19.447307     -0.158590
  C      28.499844    -19.694245      0.940645
  C      29.739100    -20.283374      0.767590
  C      30.190305    -20.639435     -0.505437
  C      29.371365    -20.386461     -1.602813
  C      28.121657    -19.801769     -1.431100
  N      31.448326    -21.285615     -0.676261
  C      31.543932    -22.339644     -1.708914
  C      32.534493    -23.438729     -1.328831
  C      33.802830    -22.790098     -0.905581
  C      33.791286    -21.521274     -0.357289
  C      32.581082    -20.724252     -0.104717
  O      25.839772    -20.076398      1.819671
  O      32.562280    -19.694695      0.560448
  C      35.156188    -23.167117     -0.908847
  N      35.925500    -22.187232     -0.404165
  N      35.094468    -21.199749     -0.061397
  C      35.641479    -19.981646      0.454653
  C      35.733818    -24.442043     -1.392114
  N      37.085858    -24.534475     -1.299909
  O      35.016334    -25.328419     -1.846058
  C      35.240027    -19.496314      1.696622
  C      35.806667    -18.338697      2.192968
  C      36.785252    -17.660602      1.454808
  C      37.196466    -18.158472      0.216550
  C      36.616584    -19.322958     -0.277814
  O      37.275880    -16.530999      2.034522
  C      38.269428    -15.800552      1.321977
  H      23.315481    -18.292237     -0.763391
  H      22.976919    -16.926247      0.298916
  H      24.415833    -17.770752      2.043681
  H      23.505720    -19.171266      1.515838
  H      26.875116    -17.399071     -1.458833
  H      25.562081    -18.493789     -1.922477
  H      25.390885    -16.211903      0.106180
  H      24.638271    -16.295646     -1.493075
  H      28.168916    -19.434133      1.937323
  H      30.369978    -20.461372      1.630020
  H      29.699999    -20.637658     -2.606612
  H      27.502194    -19.634451     -2.305443
  H      30.541855    -22.759830     -1.831476
  H      31.848523    -21.896096     -2.670132
  H      32.136991    -24.059763     -0.514417
  H      32.696957    -24.102955     -2.182142
  H      37.623471    -23.797083     -0.874097
  H      37.526584    -25.396398     -1.573428
  H      34.477767    -20.019669      2.261231
  H      35.505891    -17.940085      3.155906
  H      37.954072    -17.654635     -0.371671
  H      36.926068    -19.723144     -1.238202
  H      37.890679    -15.447627      0.353423
  H      38.511198    -14.941359      1.949951
  H      39.175349    -16.401122      1.164391
59
Coordinates from ORCA-job ApixabanOptFreq E -1542.104619578769
  C      23.752860    -17.630597     -0.023683
  C      24.222008    -18.455451      1.169386
  C      25.526763    -19.221678      1.002455
  N      26.392403    -18.817484     -0.001838
  C      25.982668    -17.892932     -1.076636
  C      24.944893    -16.889090     -0.608932
  C      27.653934    -19.461613     -0.159211
  C      28.480007    -19.704427      0.943786
  C      29.719560    -20.296034      0.776666
  C      30.173110    -20.652671     -0.495620
  C      29.358934    -20.400394     -1.597230
  C      28.107740    -19.816690     -1.429785
  N      31.434151    -21.295526     -0.662428
  C      31.536403    -22.350555     -1.694271
  C      32.532678    -23.440800     -1.309195
  C      33.799763    -22.781057     -0.896257
  C      33.782318    -21.510262     -0.350310
  C      32.565942    -20.722141     -0.097717
  O      25.801463    -20.119852      1.784633
  O      32.540020    -19.696272      0.571605
  C      35.154490    -23.146307     -0.915046
  N      35.922389    -22.159929     -0.421704
  N      35.085565    -21.177750     -0.068847
  C      35.635945    -19.961752      0.444901
  C      35.737019    -24.418707     -1.401267
  N      37.090238    -24.504320     -1.318105
  O      35.021581    -25.315451     -1.836539
  C      35.218104    -19.455880      1.674482
  C      35.797517    -18.302984      2.168267
  C      36.803867    -17.651636      1.443798
  C      37.229821    -18.169659      0.219263
  C      36.638258    -19.328899     -0.274939
  O      37.305415    -16.525419      2.021943
  C      38.331771    -15.824927      1.324845
  H      23.321057    -18.287534     -0.791263
  H      22.961991    -16.937064      0.284093
  H      24.388932    -17.798759      2.035365
  H      23.477836    -19.190862      1.488663
  H      26.886085    -17.379629     -1.425816
  H      25.575748    -18.459131     -1.930166
  H      25.383974    -16.222397      0.145481
  H      24.653481    -16.268595     -1.464528
  H      28.143348    -19.441934      1.938307
  H      30.348133    -20.476154      1.640519
  H      29.693998    -20.652033     -2.598620
  H      27.490580    -19.647480     -2.305774
  H      30.536068    -22.773704     -1.820020
  H      31.843573    -21.907863     -2.655267
  H      32.140538    -24.056350     -0.487905
  H      32.698009    -24.113734     -2.155229
  H      37.625645    -23.763064     -0.896091
  H      37.532788    -25.367775     -1.583598
  H      34.437416    -19.959123      2.231212
  H      35.487373    -17.888528      3.121623
  H      38.008192    -17.686269     -0.358892
  H      36.958940    -19.744923     -1.224556
  H      37.982115    -15.473269      0.345002
  H      38.581582    -14.965591      1.949195
  H      39.225000    -16.450090      1.192794
59
Coordinates from ORCA-job ApixabanOptFreq E -1542.104673848084
  C      23.759855    -17.627397     -0.041422
  C      24.204523    -18.481454      1.140535
  C      25.505802    -19.253567      0.968265
  N      26.387829    -18.824149     -0.009934
  C      26.012212    -17.852348     -1.055100
  C      24.963758    -16.865320     -0.574621
  C      27.648625    -19.471218     -0.163688
  C      28.466841    -19.713326      0.944223
  C      29.705726    -20.309501      0.785082
  C      30.162354    -20.667056     -0.486019
  C      29.355511    -20.413224     -1.593035
  C      28.104222    -19.827835     -1.431540
  N      31.424063    -21.309194     -0.646589
  C      31.531075    -22.369239     -1.674063
  C      32.530794    -23.452889     -1.282686
  C      33.796516    -22.783671     -0.878938
  C      33.776056    -21.510649     -0.338262
  C      32.556157    -20.727018     -0.088582
  O      25.766153    -20.177117      1.724846
  O      32.528826    -19.696715      0.572295
  C      35.151668    -23.140717     -0.909356
  N      35.919511    -22.148736     -0.427633
  N      35.079838    -21.168346     -0.070601
  C      35.631171    -19.953465      0.441003
  C      35.735424    -24.413918     -1.390947
  N      37.091378    -24.486306     -1.334549
  O      35.023365    -25.313356     -1.825815
  C      35.217732    -19.444758      1.671560
  C      35.802467    -18.292574      2.161230
  C      36.808364    -17.645275      1.434206
  C      37.229138    -18.165203      0.208835
  C      36.633593    -19.323594     -0.282465
  O      37.315075    -16.519695      2.008980
  C      38.344636    -15.825695      1.310369
  H      23.350291    -18.265194     -0.836692
  H      22.957789    -16.945522      0.264522
  H      24.364973    -17.844389      2.022107
  H      23.451622    -19.218710      1.433998
  H      26.926248    -17.329163     -1.359045
  H      25.625908    -18.380264     -1.942017
  H      25.385976    -16.226918      0.213188
  H      24.691296    -16.213308     -1.412818
  H      28.122271    -19.447431      1.935623
  H      30.330556    -20.493714      1.650926
  H      29.697639    -20.666430     -2.591526
  H      27.489410    -19.655497     -2.308937
  H      30.532304    -22.795363     -1.801221
  H      31.840013    -21.929436     -2.636062
  H      32.141676    -24.059890     -0.453474
  H      32.698825    -24.134832     -2.120677
  H      37.626194    -23.740318     -0.920068
  H      37.537524    -25.345868     -1.606303
  H      34.438388    -19.944872      2.232490
  H      35.497267    -17.875515      3.115180
  H      38.006397    -17.684334     -0.372668
  H      36.949815    -19.740676     -1.232858
  H      37.993867    -15.469860      0.332427
  H      38.604207    -14.969551      1.934823
  H      39.231286    -16.459422      1.174498
59
Coordinates from ORCA-job ApixabanOptFreq E -1542.104704991383
  C      23.759207    -17.629646     -0.035822
  C      24.207780    -18.480210      1.147271
  C      25.509518    -19.250791      0.974778
  N      26.387794    -18.824811     -0.007926
  C      26.007437    -17.857973     -1.055921
  C      24.960961    -16.868650     -0.575606
  C      27.648866    -19.470952     -0.162812
  C      28.468518    -19.711970      0.944151
  C      29.707303    -20.307442      0.784103
  C      30.162314    -20.667077     -0.487060
  C      29.353447    -20.415742     -1.593022
  C      28.102423    -19.830402     -1.430611
  N      31.423370    -21.308653     -0.647721
  C      31.531245    -22.368503     -1.675329
  C      32.531040    -23.452596     -1.284452
  C      33.795930    -22.782796     -0.879774
  C      33.775415    -21.510779     -0.338109
  C      32.555794    -20.726363     -0.090385
  O      25.770613    -20.174934      1.730538
  O      32.529654    -19.691629      0.563649
  C      35.151714    -23.137804     -0.914260
  N      35.918998    -22.146549     -0.430142
  N      35.079840    -21.166493     -0.072866
  C      35.630238    -19.951182      0.437847
  C      35.735497    -24.408827     -1.399519
  N      37.091663    -24.481196     -1.340027
  O      35.024082    -25.311332     -1.829573
  C      35.198419    -19.428258      1.655745
  C      35.781284    -18.275396      2.145441
  C      36.803943    -17.641147      1.431108
  C      37.243672    -18.175244      0.218348
  C      36.649422    -19.333848     -0.273045
  O      37.307336    -16.513730      2.004381
  C      38.354143    -15.833520      1.318822
  H      23.347659    -18.269896     -0.828046
  H      22.957830    -16.947241      0.270218
  H      24.369288    -17.841035      2.027016
  H      23.455972    -19.217591      1.443176
  H      26.920255    -17.337350     -1.367051
  H      25.615792    -18.390029     -1.938223
  H      25.386017    -16.228024      0.208794
  H      24.684561    -16.219976     -1.415027
  H      28.125214    -19.444146      1.935428
  H      30.333445    -20.489870      1.649270
  H      29.693311    -20.670837     -2.591823
  H      27.485825    -19.660317     -2.307072
  H      30.533198    -22.796302     -1.802637
  H      31.839285    -21.927263     -2.636967
  H      32.141321    -24.058433     -0.454657
  H      32.699968    -24.133843     -2.122558
  H      37.624749    -23.736440     -0.921112
  H      37.538049    -25.342492     -1.605740
  H      34.405281    -19.917705      2.206797
  H      35.461270    -17.847330      3.089605
  H      38.034152    -17.704861     -0.353753
  H      36.980063    -19.761584     -1.213782
  H      38.023457    -15.483025      0.331939
  H      38.608765    -14.974187      1.940924
  H      39.238394    -16.474777      1.204080
59
Coordinates from ORCA-job ApixabanOptFreq E -1542.104708525240
  C      23.766003    -17.629404     -0.037518
  C      24.210737    -18.486177      1.142514
  C      25.514056    -19.252850      0.970224
  N      26.393292    -18.820513     -0.008087
  C      26.019548    -17.843219     -1.048426
  C      24.967909    -16.860394     -0.565862
  C      27.654398    -19.467078     -0.164688
  C      28.476463    -19.705286      0.940718
  C      29.714589    -20.301036      0.779247
  C      30.166220    -20.664779     -0.492003
  C      29.354319    -20.417193     -1.596528
  C      28.104161    -19.830694     -1.432619
  N      31.425982    -21.307907     -0.652794
  C      31.532324    -22.369809     -1.678205
  C      32.530010    -23.455540     -1.285201
  C      33.795377    -22.787583     -0.879698
  C      33.776855    -21.514959     -0.340422
  C      32.559177    -20.726025     -0.097296
  O      25.774219    -20.182789      1.719671
  O      32.534962    -19.686792      0.550079
  C      35.151173    -23.145233     -0.911165
  N      35.919271    -22.153142     -0.429922
  N      35.081838    -21.172107     -0.074184
  C      35.631439    -19.957003      0.438807
  C      35.733406    -24.417421     -1.394093
  N      37.089244    -24.492878     -1.328127
  O      35.020811    -25.322341     -1.817522
  C      35.213745    -19.447875      1.666948
  C      35.792786    -18.293814      2.157919
  C      36.798188    -17.643838      1.433412
  C      37.224810    -18.164354      0.209869
  C      36.634253    -19.324433     -0.281665
  O      37.298985    -16.516200      2.007903
  C      38.329117    -15.821038      1.312625
  H      23.361718    -18.266132     -0.836374
  H      22.960414    -16.952065      0.267884
  H      24.366973    -17.852011      2.026785
  H      23.458562    -19.226739      1.429371
  H      26.934424    -17.319162     -1.347485
  H      25.634906    -18.366547     -1.939113
  H      25.386884    -16.224834      0.225850
  H      24.692988    -16.206582     -1.401686
  H      28.134767    -19.434463      1.931766
  H      30.343107    -20.481157      1.643069
  H      29.690983    -20.676007     -2.595473
  H      27.483974    -19.663315     -2.307053
  H      30.533947    -22.797382     -1.803977
  H      31.839867    -21.930192     -2.640677
  H      32.138079    -24.058491     -0.454388
  H      32.698499    -24.137594     -2.122592
  H      37.622051    -23.748127     -0.908853
  H      37.534438    -25.357262     -1.585719
  H      34.433390    -19.949354      2.225573
  H      35.482620    -17.876293      3.110024
  H      38.001868    -17.681964     -0.370579
  H      36.954749    -19.741328     -1.230849
  H      37.980784    -15.465407      0.333639
  H      38.584468    -14.964419      1.938253
  H      39.217873    -16.452469      1.179693
59
Coordinates from ORCA-job ApixabanOptFreq E -1542.104720263141
  C      23.763128    -17.630498     -0.030932
  C      24.214359    -18.479321      1.152358
  C      25.516572    -19.247518      0.978878
  N      26.390483    -18.823097     -0.007721
  C      26.008822    -17.857003     -1.055608
  C      24.962530    -16.867895     -0.574349
  C      27.652014    -19.468637     -0.164833
  C      28.478046    -19.700747      0.939088
  C      29.716604    -20.294989      0.776440
  C      30.165618    -20.663609     -0.494535
  C      29.349950    -20.421656     -1.597581
  C      28.099281    -19.836473     -1.432527
  N      31.425649    -21.305891     -0.655720
  C      31.532843    -22.367326     -1.681466
  C      32.530346    -23.453035     -1.287825
  C      33.795579    -22.785152     -0.881709
  C      33.776632    -21.512791     -0.342174
  C      32.559195    -20.722703     -0.101722
  O      25.782443    -20.168453      1.737485
  O      32.534689    -19.682838      0.544751
  C      35.151612    -23.142778     -0.912962
  N      35.919386    -22.149755     -0.433316
  N      35.081797    -21.169639     -0.076088
  C      35.631229    -19.954855      0.437552
  C      35.733932    -24.415173     -1.395120
  N      37.090265    -24.487943     -1.335370
  O      35.021608    -25.319017     -1.821259
  C      35.202044    -19.437775      1.658356
  C      35.781190    -18.284417      2.150783
  C      36.798403    -17.642951      1.435052
  C      37.236548    -18.171454      0.218956
  C      36.645657    -19.330720     -0.274033
  O      37.298091    -16.515009      2.009858
  C      38.340199    -15.828708      1.323659
  H      23.351974    -18.272490     -0.822071
  H      22.961000    -16.949250      0.274983
  H      24.375449    -17.839397      2.031618
  H      23.463316    -19.217586      1.447968
  H      26.921921    -17.337751     -1.368197
  H      25.615547    -18.389279     -1.937209
  H      25.388298    -16.226345      0.208870
  H      24.682357    -16.221211     -1.413926
  H      28.138816    -19.426477      1.929981
  H      30.347644    -20.470403      1.639375
  H      29.683586    -20.683603     -2.596708
  H      27.476541    -19.673434     -2.305977
  H      30.534925    -22.795878     -1.807662
  H      31.840376    -21.927093     -2.643612
  H      32.137590    -24.054948     -0.456685
  H      32.699113    -24.135226     -2.125023
  H      37.622885    -23.743987     -0.914427
  H      37.535747    -25.352052     -1.593425
  H      34.412725    -19.932678      2.210223
  H      35.462235    -17.860861      3.097285
  H      38.022723    -17.695859     -0.354808
  H      36.975141    -19.753803     -1.217414
  H      38.005719    -15.476305      0.338693
  H      38.592239    -14.970150      1.948004
  H      39.227386    -16.465111      1.204781
59
Coordinates from ORCA-job ApixabanOptFreq E -1542.104723058593
  C      23.763855    -17.629723     -0.033246
  C      24.212361    -18.480799      1.149444
  C      25.514478    -19.249394      0.976344
  N      26.389670    -18.823694     -0.008450
  C      26.011540    -17.853888     -1.054222
  C      24.964529    -16.865878     -0.572286
  C      27.651003    -19.470045     -0.164830
  C      28.477250    -19.699809      0.939400
  C      29.715643    -20.294684      0.777619
  C      30.164210    -20.665653     -0.492889
  C      29.348312    -20.425737     -1.596256
  C      28.097604    -19.840302     -1.431916
  N      31.424362    -21.308261     -0.653070
  C      31.531760    -22.370444     -1.678069
  C      32.530145    -23.454920     -1.283523
  C      33.795411    -22.785599     -0.879549
  C      33.775778    -21.512937     -0.340523
  C      32.557948    -20.723404     -0.100456
  O      25.779395    -20.171518      1.733818
  O      32.533076    -19.682337      0.543960
  C      35.151798    -23.141328     -0.914018
  N      35.918997    -22.148667     -0.432820
  N      35.080981    -21.168230     -0.077070
  C      35.630323    -19.953437      0.436417
  C      35.734851    -24.413023     -1.397571
  N      37.091455    -24.483794     -1.342062
  O      35.022714    -25.316921     -1.823687
  C      35.200408    -19.435678      1.656773
  C      35.780264    -18.282707      2.149433
  C      36.798808    -17.642315      1.434501
  C      37.237479    -18.171452      0.218916
  C      36.645979    -19.330334     -0.274416
  O      37.299027    -16.514612      2.009494
  C      38.342723    -15.829627      1.324182
  H      23.354661    -18.270239     -0.826613
  H      22.960865    -16.949159      0.272118
  H      24.372274    -17.842412      2.030035
  H      23.460409    -19.219138      1.442587
  H      26.925907    -17.334260     -1.362602
  H      25.620449    -18.382860     -1.938703
  H      25.388784    -16.226553      0.213581
  H      24.686269    -16.216769     -1.410634
  H      28.137856    -19.423636      1.929773
  H      30.347100    -20.468613      1.640606
  H      29.681816    -20.689514     -2.594949
  H      27.474278    -19.678634     -2.305266
  H      30.534036    -22.799643     -1.803576
  H      31.838776    -21.930972     -2.640719
  H      32.138227    -24.055609     -0.451109
  H      32.698720    -24.138463     -2.119690
  H      37.623829    -23.740488     -0.919619
  H      37.537081    -25.347937     -1.599852
  H      34.410573    -19.929967      2.208439
  H      35.461096    -17.858800      3.095708
  H      38.024703    -17.696786     -0.354188
  H      36.975958    -19.753921     -1.217372
  H      38.009587    -15.476642      0.338991
  H      38.595564    -14.971495      1.948781
  H      39.229047    -16.467335      1.205903
59
Coordinates from ORCA-job ApixabanOptFreq E -1542.104724715868
  C      23.764281    -17.629654     -0.033447
  C      24.212616    -18.480789      1.149285
  C      25.515057    -19.248826      0.976457
  N      26.389669    -18.823460     -0.008845
  C      26.012066    -17.853157     -1.054375
  C      24.964850    -16.865439     -0.572305
  C      27.650985    -19.470009     -0.165128
  C      28.478078    -19.697659      0.938888
  C      29.716351    -20.292717      0.777195
  C      30.163986    -20.666057     -0.492992
  C      29.347040    -20.428520     -1.596100
  C      28.096429    -19.842825     -1.431825
  N      31.424052    -21.308998     -0.652795
  C      31.530940    -22.372194     -1.676775
  C      32.530016    -23.455863     -1.281705
  C      33.795389    -22.785770     -0.879340
  C      33.775655    -21.512857     -0.340876
  C      32.557914    -20.722939     -0.101772
  O      25.780696    -20.170407      1.734370
  O      32.533095    -19.680470      0.540358
  C      35.151924    -23.140900     -0.915120
  N      35.919128    -22.147396     -0.435699
  N      35.081038    -21.167453     -0.079047
  C      35.630213    -19.952939      0.435246
  C      35.735121    -24.412602     -1.398595
  N      37.091924    -24.482143     -1.346023
  O      35.022728    -25.317655     -1.821758
  C      35.200067    -19.435921      1.655850
  C      35.779766    -18.283247      2.149397
  C      36.798514    -17.642402      1.435078
  C      37.237546    -18.170910      0.219361
  C      36.646158    -19.329474     -0.274854
  O      37.298630    -16.515072      2.010912
  C      38.342809    -15.829917      1.326470
  H      23.355427    -18.270203     -0.826972
  H      22.961101    -16.949289      0.271816
  H      24.371850    -17.842550      2.030097
  H      23.460688    -19.219387      1.441862
  H      26.926696    -17.333555     -1.362039
  H      25.621436    -18.381635     -1.939330
  H      25.388854    -16.226154      0.213722
  H      24.686415    -16.216279     -1.410559
  H      28.139206    -19.419799      1.928999
  H      30.348554    -20.464950      1.639973
  H      29.679552    -20.694212     -2.594622
  H      27.472081    -19.682897     -2.304774
  H      30.533316    -22.802053     -1.800867
  H      31.836836    -21.933639     -2.640184
  H      32.138710    -24.055505     -0.448262
  H      32.698138    -24.140304     -2.117229
  H      37.624162    -23.739202     -0.922722
  H      37.537203    -25.347440     -1.600608
  H      34.410277    -19.930622      2.207218
  H      35.460395    -17.860026      3.095908
  H      38.025028    -17.696010     -0.353192
  H      36.976438    -19.752502     -1.217954
  H      38.010214    -15.476074      0.341407
  H      38.595678    -14.972319      1.951801
  H      39.229014    -16.467755      1.208024
