6
Coordinates from ORCA-job Monomer E -115.702617682148
  H      -2.209960     -1.565230     -0.369340
  C      -1.613540     -1.641360     -1.303550
  O      -0.250820     -1.731660     -1.004090
  H      -1.806330     -0.771690     -1.967820
  H      -1.925200     -2.561190     -1.839640
  H      -0.016300     -0.885580     -0.541920
6
Coordinates from ORCA-job Monomer E -115.704714818581
  H      -2.232102     -1.562131     -0.390441
  C      -1.620579     -1.635640     -1.302840
  O      -0.231911     -1.721975     -0.995481
  H      -1.835836     -0.781771     -1.963308
  H      -1.912245     -2.550431     -1.830736
  H       0.010522     -0.904762     -0.543554
6
Coordinates from ORCA-job Monomer E -115.704816754990
  H      -2.237452     -1.558762     -0.395057
  C      -1.624712     -1.634934     -1.303670
  O      -0.229140     -1.721908     -0.995369
  H      -1.843364     -0.782173     -1.960673
  H      -1.906653     -2.551537     -1.829563
  H       0.019171     -0.907396     -0.542029
6
Coordinates from ORCA-job Monomer E -115.704837778788
  H      -2.239232     -1.555879     -0.395736
  C      -1.627458     -1.634887     -1.304511
  O      -0.228742     -1.722368     -0.996221
  H      -1.846187     -0.780661     -1.959266
  H      -1.902380     -2.553998     -1.829378
  H       0.021849     -0.908918     -0.541248
6
Coordinates from ORCA-job Monomer E -115.704840670703
  H      -2.238670     -1.554725     -0.395223
  C      -1.628352     -1.635109     -1.304984
  O      -0.229116     -1.722522     -0.996963
  H      -1.846073     -0.779807     -1.958859
  H      -1.901036     -2.555137     -1.829376
  H       0.021096     -0.909410     -0.540955
6
Coordinates from ORCA-job Monomer E -115.704841135043
  H      -2.237901     -1.554372     -0.394817
  C      -1.628545     -1.635275     -1.305229
  O      -0.229265     -1.722445     -0.997445
  H      -1.845631     -0.779576     -1.958881
  H      -1.900981     -2.555505     -1.829366
  H       0.020173     -0.909537     -0.540621
6
Coordinates from ORCA-job Monomer E -115.704841238707
  H      -2.237373     -1.554216     -0.394629
  C      -1.628566     -1.635325     -1.305383
  O      -0.229170     -1.722262     -0.997868
  H      -1.845497     -0.779613     -1.959074
  H      -1.901192     -2.555613     -1.829281
  H       0.019649     -0.909680     -0.540124
