      -----------------------------------------------------------      
     |                   =====================                   |     
     |                           x T B                           |     
     |                   =====================                   |     
     |                         S. Grimme                         |     
     |          Mulliken Center for Theoretical Chemistry        |     
     |                    University of Bonn                     |     
      -----------------------------------------------------------      

   * xtb version 6.7.1pre (5071a88) compiled by 'Marcel@Raven' on 2024-07-23

   xtb is free software: you can redistribute it and/or modify it under
   the terms of the GNU Lesser General Public License as published by
   the Free Software Foundation, either version 3 of the License, or
   (at your option) any later version.
   
   xtb is distributed in the hope that it will be useful,
   but WITHOUT ANY WARRANTY; without even the implied warranty of
   MERCHANTABILITY or FITNESS FOR A PARTICULAR PURPOSE.  See the
   GNU Lesser General Public License for more details.
   
   Cite this work as:
   * C. Bannwarth, E. Caldeweyher, S. Ehlert, A. Hansen, P. Pracht,
     J. Seibert, S. Spicher, S. Grimme, WIREs Comput. Mol. Sci., 2020, 11,
     e01493. DOI: 10.1002/wcms.1493
   
   for GFN2-xTB:
   * C. Bannwarth, S. Ehlert and S. Grimme., J. Chem. Theory Comput., 2019,
     15, 1652-1671. DOI: 10.1021/acs.jctc.8b01176
   for GFN1-xTB:
   * S. Grimme, C. Bannwarth, P. Shushkov, J. Chem. Theory Comput., 2017,
     13, 1989-2009. DOI: 10.1021/acs.jctc.7b00118
   for GFN0-xTB:
   * P. Pracht, E. Caldeweyher, S. Ehlert, S. Grimme, ChemRxiv, 2019, preprint.
     DOI: 10.26434/chemrxiv.8326202.v1
   for GFN-FF:
   * S. Spicher and S. Grimme, Angew. Chem. Int. Ed., 2020, 59, 15665-15673.
     DOI: 10.1002/anie.202004239
   
   for ALPB and GBSA implicit solvation:
   * S. Ehlert, M. Stahn, S. Spicher, S. Grimme, J. Chem. Theory Comput.,
     2021, 17, 4250-4261. DOI: 10.1021/acs.jctc.1c00471
   
   for ddCOSMO and CPCM-X implicit solvation:
   * M. Stahn, S. Ehlert, S. Grimme, J. Phys. Chem. A,
     2023, XX, XXXX-XXXX. DOI: 10.1021/acs.jpca.3c04382
   
   for DFT-D4:
   * E. Caldeweyher, C. Bannwarth and S. Grimme, J. Chem. Phys., 2017,
     147, 034112. DOI: 10.1063/1.4993215
   * E. Caldeweyher, S. Ehlert, A. Hansen, H. Neugebauer, S. Spicher,
     C. Bannwarth and S. Grimme, J. Chem. Phys., 2019, 150, 154122.
     DOI: 10.1063/1.5090222
   * E. Caldeweyher, J.-M. Mewes, S. Ehlert and S. Grimme, Phys. Chem. Chem. Phys.
     2020, 22, 8499-8512. DOI: 10.1039/D0CP00502A
   
   for sTDA-xTB:
   * S. Grimme and C. Bannwarth, J. Chem. Phys., 2016, 145, 054103.
     DOI: 10.1063/1.4959605
   
   in the mass-spec context:
   * V. Asgeirsson, C. Bauer and S. Grimme, Chem. Sci., 2017, 8, 4879.
     DOI: 10.1039/c7sc00601b
   * J. Koopman and S. Grimme, ACS Omega 2019, 4, 12, 15120-15133.
     DOI: 10.1021/acsomega.9b02011
   
   for metadynamics refer to:
   * S. Grimme, J. Chem. Theory Comput., 2019, 155, 2847-2862
     DOI: 10.1021/acs.jctc.9b00143
   
   for SPH calculations refer to:
   * S. Spicher and S. Grimme, J. Chem. Theory Comput., 2021, 17, 1701-1714
     DOI: 10.1021/acs.jctc.0c01306
   
   for ONIOM refer to:
   * C. Plett, A. Katbashev, S. Ehlert, S. Grimme, M. Bursch,
     Phys. Chem. Chem. Phys., 2023, 25, 17860-17868. DOI: 10.1039/D3CP02178E
   
   for DIPRO refer to:
   * J. Kohn, N. Gildemeister, S. Grimme, D. Fazzi, A. Hansen,
     J. Chem. Phys., 2023, just accepted.
   
   for PTB refer to:
   * S. Grimme, M. Mueller, A. Hansen, J. Chem. Phys., 2023, 158, 124111.
     DOI: 10.1063/5.0137838
   
   with help from (in alphabetical order)
   P. Atkinson, C. Bannwarth, F. Bohle, G. Brandenburg, E. Caldeweyher
   M. Checinski, S. Dohm, S. Ehlert, S. Ehrlich, I. Gerasimov, C. Hölzer
   A. Katbashev, J. Kohn, J. Koopman, C. Lavigne, S. Lehtola, F. März, M. Müller,
   F. Musil, H. Neugebauer, J. Pisarek, C. Plett, P. Pracht, F. Pultar,
   J. Seibert, P. Shushkov, S. Spicher, M. Stahn, M. Steiner, T. Strunk,
   J. Stückrath, T. Rose, and J. Unsleber
   
 * started run on 2026/10/03 at 19:14:17.584     
   ID    Z sym.   atoms
    1    1 H      1, 3, 6, 11, 12, 17, 19, 22, 24, 26-30, 39, 40, 42, 43, 45,
                  46, 48, 49, 52, 56, 57, 61, 62, 64, 65, 67, 68, 70, 71, 74,
                  78, 79, 82, 84, 87, 92, 93, 98, 100, 103, 105, 107-111,
                  120, 121, 123, 124, 126, 127, 130, 133, 135, 137, 140, 142,
                  143, 148, 149, 154, 157-159, 167-169, 173, 175, 176
    2    6 C      2, 4, 5, 7-10, 13-16, 18, 20, 21, 23, 25, 38, 41, 44, 47,
                  50, 51, 53-55, 60, 63, 66, 69, 72, 73, 75-77, 83, 85, 86,
                  88-91, 94-97, 99, 101, 102, 104, 106, 119, 122, 125, 128,
                  129, 131, 132, 134, 136, 139, 141, 144-147, 150-153, 155,
                  156, 166, 171, 172, 174
    3    7 N      31-34, 58, 80, 112-115, 138, 160-163
    4    8 O      35-37, 59, 81, 116-118, 164, 165, 170, 177

           -------------------------------------------------
          |                Calculation Setup                |
           -------------------------------------------------

          program call               : C:\ORCA_6.1.1\xTB_bigstack\xtb.exe t_A_D3a_D5a.xyz -c 0 -u 0 -P 1 --acc 1.0 --namespace t_A_D3a_D5a
          calculation namespace      : t_A_D3a_D5a
          coordinate file            : t_A_D3a_D5a.xyz
          omp threads                :                     1


molecular fragmentation (1/2 indicates fragments):
111111111111111111111111111111111111111111111111111111111112222222222222
222222222222222222222222222222222222222222222222222222222222222222222222
222222222222222222222222222222222
# atoms in fragment 1/2:    59   118
 fragment masses (1/2) :      459.50      919.00
CMA distance (Bohr)    :   6.241
constraining FC (au)   :  0.0500

           -------------------------------------------------
          |                 G F N 2 - x T B                 |
           -------------------------------------------------

        Reference                      10.1021/acs.jctc.8b01176
      * Hamiltonian:
        H0-scaling (s, p, d)           1.850000    2.230000    2.230000
        zeta-weighting                 0.500000
      * Dispersion:
        s8                             2.700000
        a1                             0.520000
        a2                             5.000000
        s9                             5.000000
      * Repulsion:
        kExp                           1.500000    1.000000
        rExp                           1.000000
      * Coulomb:
        alpha                          2.000000
        third order                    shell-resolved
        anisotropic                    true
        a3                             3.000000
        a5                             4.000000
        cn-shift                       1.200000
        cn-exp                         4.000000
        max-rad                        5.000000


          ...................................................
          :                      SETUP                      :
          :.................................................:
          :  # basis functions                 483          :
          :  # atomic orbitals                 483          :
          :  # shells                          279          :
          :  # electrons                       522          :
          :  max. iterations                   250          :
          :  Hamiltonian                  GFN2-xTB          :
          :  restarted?                      false          :
          :  GBSA solvation                  false          :
          :  PC potential                    false          :
          :  electronic temp.          300.0000000     K    :
          :  accuracy                    1.0000000          :
          :  -> integral cutoff          0.2500000E+02      :
          :  -> integral neglect         0.1000000E-07      :
          :  -> SCF convergence          0.1000000E-05 Eh   :
          :  -> wf. convergence          0.1000000E-03 e    :
          :  Broyden damping             0.4000000          :
          :  net charge                          0          :
          :  unpaired electrons                  0          :
          ...................................................

 iter      E             dE          RMSdq      gap      omega  full diag
   1   -296.2177465 -0.296218E+03  0.412E+00    2.89       0.0  T
   2   -296.9979829 -0.780236E+00  0.242E+00    2.73       1.0  T
   3   -297.0717202 -0.737373E-01  0.129E+00    2.98       1.0  T
   4   -297.0836526 -0.119325E-01  0.435E-01    2.84       1.0  T
   5   -297.1059179 -0.222653E-01  0.921E-02    2.84       1.0  T
   6   -297.1062059 -0.287957E-03  0.524E-02    2.84       1.0  T
   7   -297.1064360 -0.230092E-03  0.219E-02    2.85       1.0  T
   8   -297.1064469 -0.108784E-04  0.829E-03    2.85       1.0  T
   9   -297.1064514 -0.457796E-05  0.368E-03    2.85       2.0  T
  10   -297.1064518 -0.331969E-06  0.148E-03    2.85       5.1  T
  11   -297.1064520 -0.201587E-06  0.542E-04    2.85      13.9  T
  12   -297.1064520 -0.143082E-07  0.258E-04    2.85      29.1  T

   *** convergence criteria satisfied after 12 iterations ***

         #    Occupation            Energy/Eh            Energy/eV
      -------------------------------------------------------------
         1        2.0000           -0.7212971             -19.6275
       ...           ...                  ...                  ...
       255        2.0000           -0.3807021             -10.3594
       256        2.0000           -0.3800398             -10.3414
       257        2.0000           -0.3792694             -10.3204
       258        2.0000           -0.3781927             -10.2911
       259        2.0000           -0.3776592             -10.2766
       260        2.0000           -0.3753746             -10.2145
       261        2.0000           -0.3698399             -10.0639 (HOMO)
       262                         -0.2651627              -7.2154 (LUMO)
       263                         -0.2619354              -7.1276
       264                         -0.2617748              -7.1233
       265                         -0.2395976              -6.5198
       266                         -0.2366918              -6.4407
       ...                                ...                  ...
       483                          0.8858786              24.1060
      -------------------------------------------------------------
                  HL-Gap            0.1046773 Eh            2.8484 eV
             Fermi-level           -0.3175013 Eh           -8.6397 eV

 SCC (total)                   0 d,  0 h,  0 min,  0.962 sec
 SCC setup                      ...        0 min,  0.003 sec (  0.312%)
 Dispersion                     ...        0 min,  0.006 sec (  0.624%)
 classical contributions        ...        0 min,  0.001 sec (  0.104%)
 integral evaluation            ...        0 min,  0.068 sec (  7.069%)
 iterations                     ...        0 min,  0.557 sec ( 57.900%)
 molecular gradient             ...        0 min,  0.321 sec ( 33.368%)
 printout                       ...        0 min,  0.006 sec (  0.624%)

         :::::::::::::::::::::::::::::::::::::::::::::::::::::
         ::                     SUMMARY                     ::
         :::::::::::::::::::::::::::::::::::::::::::::::::::::
         :: total energy            -290.527662035386 Eh    ::
         :: gradient norm              1.614712721605 Eh/a0 ::
         :: HOMO-LUMO gap              2.848413836991 eV    ::
         ::.................................................::
         :: SCC energy              -297.101889564217 Eh    ::
         :: -> isotropic ES            0.444573955749 Eh    ::
         :: -> anisotropic ES          0.001204864161 Eh    ::
         :: -> anisotropic XC          0.055357650462 Eh    ::
         :: -> dispersion             -0.237148461755 Eh    ::
         :: repulsion energy           6.574227528831 Eh    ::
         :: add. restraining           0.000000000000 Eh    ::
         :: total charge               0.000000000000 e     ::
         :::::::::::::::::::::::::::::::::::::::::::::::::::::

           -------------------------------------------------
          |                Property Printout                |
           -------------------------------------------------

    * Orbital Energies and Occupations

         #    Occupation            Energy/Eh            Energy/eV
      -------------------------------------------------------------
         1        2.0000           -0.7212971             -19.6275
       ...           ...                  ...                  ...
       249        2.0000           -0.3903957             -10.6232
       250        2.0000           -0.3890030             -10.5853
       251        2.0000           -0.3864989             -10.5172
       252        2.0000           -0.3863273             -10.5125
       253        2.0000           -0.3837006             -10.4410
       254        2.0000           -0.3836072             -10.4385
       255        2.0000           -0.3807021             -10.3594
       256        2.0000           -0.3800398             -10.3414
       257        2.0000           -0.3792694             -10.3204
       258        2.0000           -0.3781927             -10.2911
       259        2.0000           -0.3776592             -10.2766
       260        2.0000           -0.3753746             -10.2145
       261        2.0000           -0.3698399             -10.0639 (HOMO)
       262                         -0.2651627              -7.2154 (LUMO)
       263                         -0.2619354              -7.1276
       264                         -0.2617748              -7.1233
       265                         -0.2395976              -6.5198
       266                         -0.2366918              -6.4407
       267                         -0.2365691              -6.4374
       268                         -0.2318630              -6.3093
       269                         -0.2311660              -6.2903
       270                         -0.2293935              -6.2421
       271                         -0.2290084              -6.2316
       272                         -0.2282571              -6.2112
       ...                                ...                  ...
       483                          0.8858786              24.1060
      -------------------------------------------------------------
                  HL-Gap            0.1046773 Eh            2.8484 eV
             Fermi-level           -0.3175013 Eh           -8.6397 eV

     #   Z          covCN         q      C6AA      α(0)
     1   1 H        0.930     0.070     2.084     2.258
     2   6 C        2.936    -0.040    29.003     8.832
     3   1 H        0.930     0.094     1.839     2.120
     4   6 C        2.928     0.073    26.368     8.421
     5   6 C        3.764    -0.010    20.801     6.501
     6   1 H        0.930     0.059     2.207     2.323
     7   6 C        2.767     0.277    22.320     7.737
     8   6 C        3.096    -0.001    27.936     8.662
     9   6 C        3.070    -0.019    28.407     8.739
    10   6 C        3.821    -0.083    22.059     6.684
    11   1 H        0.930     0.073     2.053     2.240
    12   1 H        0.930     0.078     1.995     2.209
    13   6 C        3.172     0.023    27.110     8.505
    14   6 C        2.748     0.279    22.279     7.729
    15   6 C        2.920     0.045    26.981     8.518
    16   6 C        2.934    -0.042    29.043     8.838
    17   1 H        0.930     0.092     1.858     2.132
    18   6 C        2.932    -0.078    29.942     8.974
    19   1 H        0.930     0.070     2.089     2.260
    20   6 C        2.878     0.143    24.892     8.179
    21   6 C        2.936    -0.071    29.769     8.948
    22   1 H        0.930     0.073     2.054     2.241
    23   6 C        2.932    -0.048    29.196     8.861
    24   1 H        0.930     0.077     2.010     2.217
    25   6 C        3.664     0.013    20.624     6.514
    26   1 H        0.930     0.071     2.071     2.250
    27   1 H        0.930     0.060     2.203     2.321
    28   1 H        0.930     0.056     2.241     2.341
    29   1 H        0.862     0.204     1.086     1.632
    30   1 H        0.863     0.215     1.034     1.593
    31   7 N        2.745    -0.114    23.494     7.199
    32   7 N        3.019     0.092    19.642     6.582
    33   7 N        1.991    -0.245    27.186     7.733
    34   7 N        2.645    -0.283    27.314     7.762
    35   8 O        0.858    -0.437    22.435     6.350
    36   8 O        0.860    -0.460    22.916     6.418
    37   8 O        1.705    -0.284    18.723     5.842
    38   6 C        3.762    -0.011    20.818     6.504
    39   1 H        0.930     0.059     2.215     2.327
    40   1 H        0.930     0.062     2.174     2.305
    41   6 C        3.827    -0.083    22.066     6.684
    42   1 H        0.930     0.056     2.251     2.346
    43   1 H        0.930     0.058     2.217     2.328
    44   6 C        3.825    -0.079    21.993     6.673
    45   1 H        0.930     0.053     2.280     2.361
    46   1 H        0.930     0.051     2.306     2.375
    47   6 C        3.826    -0.103    22.452     6.742
    48   1 H        0.930     0.070     2.087     2.259
    49   1 H        0.930     0.074     2.044     2.236
    50   6 C        2.766     0.267    22.487     7.766
    51   6 C        2.935    -0.058    29.453     8.900
    52   1 H        0.930     0.063     2.165     2.301
    53   6 C        2.930     0.066    26.528     8.447
    54   6 C        2.938    -0.044    29.085     8.845
    55   6 C        2.935    -0.058    29.453     8.901
    56   1 H        0.930     0.067     2.114     2.273
    57   1 H        0.930     0.066     2.132     2.283
    58   7 N        2.739    -0.111    23.428     7.189
    59   8 O        0.859    -0.482    23.386     6.484
    60   6 C        3.762    -0.011    20.819     6.504
    61   1 H        0.930     0.059     2.212     2.326
    62   1 H        0.930     0.062     2.173     2.305
    63   6 C        3.827    -0.083    22.067     6.684
    64   1 H        0.930     0.055     2.255     2.348
    65   1 H        0.930     0.059     2.213     2.326
    66   6 C        3.825    -0.080    21.998     6.674
    67   1 H        0.930     0.054     2.269     2.355
    68   1 H        0.930     0.052     2.299     2.371
    69   6 C        3.826    -0.103    22.449     6.742
    70   1 H        0.930     0.069     2.096     2.264
    71   1 H        0.930     0.074     2.045     2.236
    72   6 C        2.766     0.267    22.492     7.767
    73   6 C        2.935    -0.058    29.453     8.901
    74   1 H        0.930     0.063     2.166     2.301
    75   6 C        2.930     0.065    26.538     8.448
    76   6 C        2.938    -0.044    29.096     8.847
    77   6 C        2.935    -0.058    29.444     8.899
    78   1 H        0.930     0.068     2.107     2.270
    79   1 H        0.930     0.066     2.132     2.283
    80   7 N        2.739    -0.111    23.425     7.188
    81   8 O        0.859    -0.483    23.420     6.488
    82   1 H        0.930     0.069     2.094     2.263
    83   6 C        2.936    -0.041    29.008     8.833
    84   1 H        0.930     0.094     1.843     2.123
    85   6 C        2.928     0.073    26.358     8.419
    86   6 C        3.764    -0.010    20.795     6.500
    87   1 H        0.930     0.058     2.220     2.330
    88   6 C        2.767     0.277    22.319     7.737
    89   6 C        3.096    -0.001    27.947     8.664
    90   6 C        3.070    -0.018    28.394     8.737
    91   6 C        3.821    -0.082    22.054     6.683
    92   1 H        0.930     0.075     2.027     2.226
    93   1 H        0.930     0.080     1.974     2.197
    94   6 C        3.172     0.023    27.116     8.506
    95   6 C        2.748     0.277    22.318     7.736
    96   6 C        2.920     0.045    26.999     8.521
    97   6 C        2.934    -0.043    29.072     8.843
    98   1 H        0.930     0.091     1.869     2.137
    99   6 C        2.932    -0.079    29.964     8.977
   100   1 H        0.930     0.069     2.100     2.266
   101   6 C        2.878     0.143    24.888     8.178
   102   6 C        2.936    -0.069    29.717     8.940
   103   1 H        0.930     0.076     2.022     2.223
   104   6 C        2.932    -0.048    29.197     8.862
   105   1 H        0.930     0.077     2.007     2.215
   106   6 C        3.664     0.013    20.618     6.513
   107   1 H        0.930     0.071     2.072     2.251
   108   1 H        0.930     0.059     2.207     2.323
   109   1 H        0.930     0.056     2.251     2.346
   110   1 H        0.862     0.204     1.085     1.631
   111   1 H        0.863     0.211     1.052     1.607
   112   7 N        2.745    -0.115    23.501     7.200
   113   7 N        3.019     0.092    19.655     6.585
   114   7 N        1.991    -0.247    27.251     7.742
   115   7 N        2.645    -0.286    27.373     7.770
   116   8 O        0.858    -0.437    22.440     6.351
   117   8 O        0.860    -0.452    22.746     6.394
   118   8 O        1.705    -0.284    18.708     5.840
   119   6 C        3.762    -0.011    20.819     6.504
   120   1 H        0.930     0.057     2.233     2.337
   121   1 H        0.930     0.061     2.185     2.312
   122   6 C        3.827    -0.083    22.062     6.684
   123   1 H        0.930     0.056     2.242     2.341
   124   1 H        0.930     0.058     2.227     2.334
   125   6 C        3.825    -0.080    22.001     6.675
   126   1 H        0.930     0.054     2.272     2.357
   127   1 H        0.930     0.050     2.319     2.381
   128   6 C        2.766     0.268    22.473     7.764
   129   6 C        2.935    -0.056    29.386     8.890
   130   1 H        0.930     0.065     2.138     2.286
   131   6 C        2.930     0.069    26.445     8.434
   132   6 C        2.938    -0.044    29.105     8.848
   133   1 H        0.930     0.078     2.004     2.214
   134   6 C        2.936    -0.047    29.167     8.857
   135   1 H        0.930     0.072     2.067     2.248
   136   6 C        2.935    -0.057    29.407     8.894
   137   1 H        0.930     0.095     1.835     2.118
   138   7 N        2.739    -0.112    23.445     7.191
   139   6 C        2.928     0.070    26.433     8.431
   140   1 H        0.930     0.069     2.094     2.263
   141   6 C        3.764    -0.012    20.835     6.506
   142   1 H        0.930     0.056     2.243     2.342
   143   1 H        0.930     0.069     2.098     2.265
   144   6 C        2.767     0.268    22.478     7.765
   145   6 C        3.096    -0.010    28.146     8.695
   146   6 C        3.070    -0.017    28.362     8.732
   147   6 C        3.821    -0.083    22.057     6.683
   148   1 H        0.930     0.077     2.011     2.218
   149   1 H        0.930     0.083     1.947     2.182
   150   6 C        3.172     0.025    27.076     8.500
   151   6 C        2.748     0.277    22.305     7.733
   152   6 C        2.920     0.042    27.050     8.529
   153   6 C        2.934    -0.040    28.998     8.832
   154   1 H        0.930     0.068     2.104     2.268
   155   6 C        2.932    -0.077    29.930     8.972
   156   6 C        2.932    -0.049    29.209     8.863
   157   1 H        0.930     0.076     2.018     2.221
   158   1 H        0.862     0.205     1.082     1.629
   159   1 H        0.863     0.211     1.049     1.604
   160   7 N        2.745    -0.122    23.651     7.223
   161   7 N        3.019     0.090    19.687     6.590
   162   7 N        1.991    -0.242    27.126     7.724
   163   7 N        2.645    -0.284    27.341     7.766
   164   8 O        0.858    -0.440    22.490     6.358
   165   8 O        0.860    -0.451    22.730     6.392
   166   6 C        3.664     0.010    20.681     6.523
   167   1 H        0.930     0.068     2.106     2.269
   168   1 H        0.930     0.065     2.143     2.289
   169   1 H        0.930     0.062     2.175     2.306
   170   8 O        1.705    -0.283    18.702     5.839
   171   6 C        2.878     0.145    24.854     8.173
   172   6 C        2.936    -0.069    29.717     8.940
   173   1 H        0.930     0.075     2.029     2.227
   174   6 C        3.826    -0.108    22.539     6.756
   175   1 H        0.930     0.077     2.014     2.219
   176   1 H        0.930     0.076     2.022     2.223
   177   8 O        0.859    -0.471    23.147     6.451

 Mol. C6AA /au·bohr⁶  :     376919.883871
 Mol. C8AA /au·bohr⁸  :    9002545.510404
 Mol. α(0) /au        :        951.563092


Wiberg/Mayer (AO) data.
largest (>0.10) Wiberg bond orders for each atom

 ---------------------------------------------------------------------------
     #   Z sym  total        # sym  WBO       # sym  WBO       # sym  WBO
 ---------------------------------------------------------------------------
     1   1 H    0.995 --    54 C    0.974
     2   6 C    3.988 --    54 C    1.440     4 C    1.403     3 H    0.968
                            51 C    0.110
     3   1 H    0.991 --     2 C    0.968
     4   6 C    3.966 --     2 C    1.403    55 C    1.402    31 N    0.998
     5   6 C    3.970 --    10 C    0.998    57 H    0.975     6 H    0.974
                            31 N    0.963
     6   1 H    0.996 --     5 C    0.974
     7   6 C    3.957 --    35 O    1.663    31 N    1.199     8 C    1.007
     8   6 C    3.955 --     9 C    1.432    32 N    1.225     7 C    1.007
                            33 N    0.133
     9   6 C    3.980 --     8 C    1.432    13 C    1.322    10 C    1.011
    10   6 C    3.991 --     9 C    1.011     5 C    0.998    12 H    0.964
                            11 H    0.962
    11   1 H    0.994 --    10 C    0.962
    12   1 H    0.993 --    10 C    0.964
    13   6 C    3.967 --    33 N    1.422     9 C    1.322    14 C    1.003
    14   6 C    3.950 --    36 O    1.648    34 N    1.256    13 C    1.003
    15   6 C    3.955 --    16 C    1.401    23 C    1.373    32 N    1.004
    16   6 C    3.987 --    18 C    1.435    15 C    1.401    17 H    0.967
                            21 C    0.108
    17   1 H    0.991 --    16 C    0.967
    18   6 C    3.991 --    16 C    1.435    20 C    1.381    19 H    0.971
                            23 C    0.100
    19   1 H    0.995 --    18 C    0.971
    20   6 C    3.932 --    18 C    1.381    21 C    1.345    37 O    1.067
    21   6 C    3.991 --    23 C    1.475    20 C    1.345    22 H    0.972
                            16 C    0.108
    22   1 H    0.994 --    21 C    0.972
    23   6 C    3.990 --    21 C    1.475    15 C    1.373    24 H    0.972
                            18 C    0.100
    24   1 H    0.994 --    23 C    0.972
    25   6 C    3.937 --    28 H    0.981    27 H    0.981    26 H    0.980
                            37 O    0.967
    26   1 H    0.995 --    25 C    0.980
    27   1 H    0.996 --    25 C    0.981
    28   1 H    0.997 --    25 C    0.981
    29   1 H    0.958 --    34 N    0.941
    30   1 H    0.954 --    34 N    0.940
    31   7 N    3.470 --     7 C    1.199     4 C    0.998     5 C    0.963
                            35 O    0.187
    32   7 N    3.694 --     8 C    1.225    33 N    1.220    15 C    1.004
    33   7 N    2.963 --    13 C    1.422    32 N    1.220     8 C    0.133
    34   7 N    3.372 --    14 C    1.256    29 H    0.941    30 H    0.940
                            36 O    0.190
    35   8 O    2.006 --     7 C    1.663    31 N    0.187
    36   8 O    1.962 --    14 C    1.648    34 N    0.190
    37   8 O    2.202 --    20 C    1.067    25 C    0.967
    38   6 C    3.970 --    41 C    1.007    40 H    0.973    39 H    0.972
                            58 N    0.960
    39   1 H    0.997 --    38 C    0.972
    40   1 H    0.996 --    38 C    0.973
    41   6 C    3.992 --    38 C    1.007    44 C    1.006    42 H    0.979
                            43 H    0.971
    42   1 H    0.997 --    41 C    0.979
    43   1 H    0.996 --    41 C    0.971
    44   6 C    3.994 --    41 C    1.006    47 C    1.001    46 H    0.981
                            45 H    0.976
    45   1 H    0.997 --    44 C    0.976
    46   1 H    0.997 --    44 C    0.981
    47   6 C    3.990 --    44 C    1.001    50 C    0.977    49 H    0.963
                            48 H    0.954
    48   1 H    0.995 --    47 C    0.954
    49   1 H    0.994 --    47 C    0.963
    50   6 C    3.951 --    59 O    1.639    58 N    1.252    47 C    0.977
    51   6 C    3.994 --    55 C    1.441    53 C    1.406    52 H    0.975
                             2 C    0.110
    52   1 H    0.996 --    51 C    0.975
    53   6 C    3.966 --    54 C    1.406    51 C    1.406    58 N    0.986
    54   6 C    3.994 --     2 C    1.440    53 C    1.406     1 H    0.974
                            55 C    0.109
    55   6 C    3.993 --    51 C    1.441     4 C    1.402    56 H    0.974
                            54 C    0.109
    56   1 H    0.995 --    55 C    0.974
    57   1 H    0.995 --     5 C    0.975
    58   7 N    3.490 --    50 C    1.252    53 C    0.986    38 C    0.960
                            59 O    0.190
    59   8 O    1.955 --    50 C    1.639    58 N    0.190
    60   6 C    3.970 --    63 C    1.007    62 H    0.973    61 H    0.972
                            80 N    0.960
    61   1 H    0.997 --    60 C    0.972
    62   1 H    0.996 --    60 C    0.973
    63   6 C    3.992 --    60 C    1.007    66 C    1.006    64 H    0.979
                            65 H    0.971
    64   1 H    0.997 --    63 C    0.979
    65   1 H    0.996 --    63 C    0.971
    66   6 C    3.994 --    63 C    1.006    69 C    1.001    68 H    0.981
                            67 H    0.976
    67   1 H    0.997 --    66 C    0.976
    68   1 H    0.997 --    66 C    0.981
    69   6 C    3.991 --    66 C    1.001    72 C    0.977    71 H    0.963
                            70 H    0.955
    70   1 H    0.995 --    69 C    0.955
    71   1 H    0.995 --    69 C    0.963
    72   6 C    3.951 --    81 O    1.637    80 N    1.254    69 C    0.977
    73   6 C    3.994 --    77 C    1.441    75 C    1.405    74 H    0.975
                            83 C    0.110
    74   1 H    0.996 --    73 C    0.975
    75   6 C    3.965 --    76 C    1.406    73 C    1.405    80 N    0.986
    76   6 C    3.994 --    83 C    1.440    75 C    1.406    82 H    0.974
                            77 C    0.109
    77   6 C    3.993 --    73 C    1.441    85 C    1.402    78 H    0.974
                            76 C    0.109
    78   1 H    0.995 --    77 C    0.974
    79   1 H    0.995 --    86 C    0.975
    80   7 N    3.491 --    72 C    1.254    75 C    0.986    60 C    0.960
                            81 O    0.191
    81   8 O    1.953 --    72 C    1.637    80 N    0.191
    82   1 H    0.995 --    76 C    0.974
    83   6 C    3.988 --    76 C    1.440    85 C    1.403    84 H    0.968
                            73 C    0.110
    84   1 H    0.991 --    83 C    0.968
    85   6 C    3.966 --    83 C    1.403    77 C    1.402   112 N    0.999
    86   6 C    3.969 --    91 C    0.998    79 H    0.975    87 H    0.974
                           112 N    0.962
    87   1 H    0.997 --    86 C    0.974
    88   6 C    3.957 --   116 O    1.663   112 N    1.198    89 C    1.008
    89   6 C    3.955 --    90 C    1.432   113 N    1.225    88 C    1.008
                           114 N    0.134
    90   6 C    3.980 --    89 C    1.432    94 C    1.322    91 C    1.011
    91   6 C    3.990 --    90 C    1.011    86 C    0.998    93 H    0.964
                            92 H    0.961
    92   1 H    0.994 --    91 C    0.961
    93   1 H    0.993 --    91 C    0.964
    94   6 C    3.967 --   114 N    1.422    90 C    1.322    95 C    1.002
    95   6 C    3.951 --   117 O    1.658   115 N    1.250    94 C    1.002
    96   6 C    3.955 --    97 C    1.401   104 C    1.372   113 N    1.004
    97   6 C    3.988 --    99 C    1.435    96 C    1.401    98 H    0.967
                           102 C    0.108
    98   1 H    0.992 --    97 C    0.967
    99   6 C    3.991 --    97 C    1.435   101 C    1.381   100 H    0.971
                           104 C    0.100
   100   1 H    0.995 --    99 C    0.971
   101   6 C    3.932 --    99 C    1.381   102 C    1.345   118 O    1.067
   102   6 C    3.991 --   104 C    1.475   101 C    1.345   103 H    0.973
                            97 C    0.108
   103   1 H    0.994 --   102 C    0.973
   104   6 C    3.990 --   102 C    1.475    96 C    1.372   105 H    0.972
                            99 C    0.100
   105   1 H    0.994 --   104 C    0.972
   106   6 C    3.937 --   109 H    0.981   108 H    0.981   107 H    0.980
                           118 O    0.967
   107   1 H    0.995 --   106 C    0.980
   108   1 H    0.996 --   106 C    0.981
   109   1 H    0.997 --   106 C    0.981
   110   1 H    0.958 --   115 N    0.942
   111   1 H    0.956 --   115 N    0.942
   112   7 N    3.470 --    88 C    1.198    85 C    0.999    86 C    0.962
                           116 O    0.187
   113   7 N    3.694 --    89 C    1.225   114 N    1.219    96 C    1.004
   114   7 N    2.963 --    94 C    1.422   113 N    1.219    89 C    0.134
   115   7 N    3.366 --    95 C    1.250   111 H    0.942   110 H    0.942
                           117 O    0.191
   116   8 O    2.006 --    88 C    1.663   112 N    0.187
   117   8 O    1.970 --    95 C    1.658   115 N    0.191
   118   8 O    2.203 --   101 C    1.067   106 C    0.967
   119   6 C    3.970 --   122 C    1.007   121 H    0.974   120 H    0.972
                           138 N    0.960
   120   1 H    0.997 --   119 C    0.972
   121   1 H    0.996 --   119 C    0.974
   122   6 C    3.991 --   119 C    1.007   125 C    1.006   123 H    0.978
                           124 H    0.971
   123   1 H    0.997 --   122 C    0.978
   124   1 H    0.996 --   122 C    0.971
   125   6 C    3.994 --   122 C    1.006   174 C    1.002   127 H    0.981
                           126 H    0.976
   126   1 H    0.997 --   125 C    0.976
   127   1 H    0.997 --   125 C    0.981
   128   6 C    3.950 --   177 O    1.655   138 N    1.239   174 C    0.977
   129   6 C    3.994 --   136 C    1.442   131 C    1.405   130 H    0.974
                           134 C    0.109
   130   1 H    0.995 --   129 C    0.974
   131   6 C    3.969 --   129 C    1.405   132 C    1.405   138 N    0.991
   132   6 C    3.993 --   134 C    1.441   131 C    1.405   133 H    0.972
                           136 C    0.110
   133   1 H    0.994 --   132 C    0.972
   134   6 C    3.992 --   132 C    1.441   139 C    1.403   135 H    0.971
                           129 C    0.109
   135   1 H    0.995 --   134 C    0.971
   136   6 C    3.993 --   129 C    1.442   139 C    1.401   140 H    0.974
                           132 C    0.110
   137   1 H    0.990 --   155 C    0.963
   138   7 N    3.482 --   128 C    1.239   131 C    0.991   119 C    0.960
                           177 O    0.189
   139   6 C    3.966 --   134 C    1.403   136 C    1.401   160 N    0.998
   140   1 H    0.995 --   136 C    0.974
   141   6 C    3.968 --   147 C    0.998   142 H    0.975   143 H    0.974
                           160 N    0.961
   142   1 H    0.997 --   141 C    0.975
   143   1 H    0.995 --   141 C    0.974
   144   6 C    3.957 --   164 O    1.660   160 N    1.197   145 C    1.011
   145   6 C    3.952 --   146 C    1.428   161 N    1.222   144 C    1.011
                           162 N    0.132
   146   6 C    3.980 --   145 C    1.428   150 C    1.324   147 C    1.012
   147   6 C    3.989 --   146 C    1.012   141 C    0.998   149 H    0.963
                           148 H    0.961
   148   1 H    0.994 --   147 C    0.961
   149   1 H    0.992 --   147 C    0.963
   150   6 C    3.968 --   162 N    1.423   146 C    1.324   151 C    1.001
   151   6 C    3.951 --   165 O    1.658   163 N    1.252   150 C    1.001
   152   6 C    3.953 --   153 C    1.399   156 C    1.371   161 N    1.003
   153   6 C    3.992 --   155 C    1.438   152 C    1.399   154 H    0.974
                           172 C    0.106
   154   1 H    0.995 --   153 C    0.974
   155   6 C    3.988 --   153 C    1.438   171 C    1.379   137 H    0.963
                           156 C    0.100
   156   6 C    3.990 --   172 C    1.475   152 C    1.371   157 H    0.973
                           155 C    0.100
   157   1 H    0.994 --   156 C    0.973
   158   1 H    0.958 --   163 N    0.942
   159   1 H    0.955 --   163 N    0.942
   160   7 N    3.467 --   144 C    1.197   139 C    0.998   141 C    0.961
                           164 O    0.188
   161   7 N    3.694 --   162 N    1.223   145 C    1.222   152 C    1.003
   162   7 N    2.966 --   150 C    1.423   161 N    1.223   145 C    0.132
   163   7 N    3.368 --   151 C    1.252   159 H    0.942   158 H    0.942
                           165 O    0.192
   164   8 O    2.005 --   144 C    1.660   160 N    0.188
   165   8 O    1.970 --   151 C    1.658   163 N    0.192
   166   6 C    3.934 --   167 H    0.980   169 H    0.980   168 H    0.980
                           170 O    0.966
   167   1 H    0.995 --   166 C    0.980
   168   1 H    0.996 --   166 C    0.980
   169   1 H    0.996 --   166 C    0.980
   170   8 O    2.205 --   171 C    1.071   166 C    0.966
   171   6 C    3.933 --   155 C    1.379   172 C    1.345   170 O    1.071
   172   6 C    3.991 --   156 C    1.475   171 C    1.345   173 H    0.973
                           153 C    0.106
   173   1 H    0.994 --   172 C    0.973
   174   6 C    3.990 --   125 C    1.002   128 C    0.977   176 H    0.964
                           175 H    0.953
   175   1 H    0.994 --   174 C    0.953
   176   1 H    0.994 --   174 C    0.964
   177   8 O    1.964 --   128 C    1.655   138 N    0.189
 ---------------------------------------------------------------------------

Topologies differ in total number of bonds
Writing topology from bond orders to xtbtopo.mol

molecular dipole:
                 x           y           z       tot (Debye)
 q only:        0.551       0.531      -1.806
   full:        0.717       0.240      -1.996       5.425
molecular quadrupole (traceless):
                xx          xy          yy          xz          yz          zz
 q only:       68.956      66.338     269.036      38.980    -127.445    -337.992
  q+dip:      113.927      60.632     234.584      53.841    -186.403    -348.511
   full:      118.525      60.797     228.670      61.358    -185.753    -347.195


           -------------------------------------------------
          | TOTAL ENERGY             -290.527662035386 Eh   |
          | GRADIENT NORM               1.614712721605 Eh/α |
          | HOMO-LUMO GAP               2.848413836991 eV   |
           -------------------------------------------------

------------------------------------------------------------------------
 * finished run on 2026/10/03 at 19:14:18.717     
------------------------------------------------------------------------
 total:
 * wall-time:     0 d,  0 h,  0 min,  1.131 sec
 *  cpu-time:     0 d,  0 h,  0 min,  1.062 sec
 * ratio c/w:     0.939 speedup
 SCF:
 * wall-time:     0 d,  0 h,  0 min,  0.963 sec
 *  cpu-time:     0 d,  0 h,  0 min,  0.969 sec
 * ratio c/w:     1.006 speedup

normal termination of xtb
