      -----------------------------------------------------------      
     |                   =====================                   |     
     |                           x T B                           |     
     |                   =====================                   |     
     |                         S. Grimme                         |     
     |          Mulliken Center for Theoretical Chemistry        |     
     |                    University of Bonn                     |     
      -----------------------------------------------------------      

   * xtb version 6.7.1pre (5071a88) compiled by 'Marcel@Raven' on 2024-07-23

   xtb is free software: you can redistribute it and/or modify it under
   the terms of the GNU Lesser General Public License as published by
   the Free Software Foundation, either version 3 of the License, or
   (at your option) any later version.
   
   xtb is distributed in the hope that it will be useful,
   but WITHOUT ANY WARRANTY; without even the implied warranty of
   MERCHANTABILITY or FITNESS FOR A PARTICULAR PURPOSE.  See the
   GNU Lesser General Public License for more details.
   
   Cite this work as:
   * C. Bannwarth, E. Caldeweyher, S. Ehlert, A. Hansen, P. Pracht,
     J. Seibert, S. Spicher, S. Grimme, WIREs Comput. Mol. Sci., 2020, 11,
     e01493. DOI: 10.1002/wcms.1493
   
   for GFN2-xTB:
   * C. Bannwarth, S. Ehlert and S. Grimme., J. Chem. Theory Comput., 2019,
     15, 1652-1671. DOI: 10.1021/acs.jctc.8b01176
   for GFN1-xTB:
   * S. Grimme, C. Bannwarth, P. Shushkov, J. Chem. Theory Comput., 2017,
     13, 1989-2009. DOI: 10.1021/acs.jctc.7b00118
   for GFN0-xTB:
   * P. Pracht, E. Caldeweyher, S. Ehlert, S. Grimme, ChemRxiv, 2019, preprint.
     DOI: 10.26434/chemrxiv.8326202.v1
   for GFN-FF:
   * S. Spicher and S. Grimme, Angew. Chem. Int. Ed., 2020, 59, 15665-15673.
     DOI: 10.1002/anie.202004239
   
   for ALPB and GBSA implicit solvation:
   * S. Ehlert, M. Stahn, S. Spicher, S. Grimme, J. Chem. Theory Comput.,
     2021, 17, 4250-4261. DOI: 10.1021/acs.jctc.1c00471
   
   for ddCOSMO and CPCM-X implicit solvation:
   * M. Stahn, S. Ehlert, S. Grimme, J. Phys. Chem. A,
     2023, XX, XXXX-XXXX. DOI: 10.1021/acs.jpca.3c04382
   
   for DFT-D4:
   * E. Caldeweyher, C. Bannwarth and S. Grimme, J. Chem. Phys., 2017,
     147, 034112. DOI: 10.1063/1.4993215
   * E. Caldeweyher, S. Ehlert, A. Hansen, H. Neugebauer, S. Spicher,
     C. Bannwarth and S. Grimme, J. Chem. Phys., 2019, 150, 154122.
     DOI: 10.1063/1.5090222
   * E. Caldeweyher, J.-M. Mewes, S. Ehlert and S. Grimme, Phys. Chem. Chem. Phys.
     2020, 22, 8499-8512. DOI: 10.1039/D0CP00502A
   
   for sTDA-xTB:
   * S. Grimme and C. Bannwarth, J. Chem. Phys., 2016, 145, 054103.
     DOI: 10.1063/1.4959605
   
   in the mass-spec context:
   * V. Asgeirsson, C. Bauer and S. Grimme, Chem. Sci., 2017, 8, 4879.
     DOI: 10.1039/c7sc00601b
   * J. Koopman and S. Grimme, ACS Omega 2019, 4, 12, 15120-15133.
     DOI: 10.1021/acsomega.9b02011
   
   for metadynamics refer to:
   * S. Grimme, J. Chem. Theory Comput., 2019, 155, 2847-2862
     DOI: 10.1021/acs.jctc.9b00143
   
   for SPH calculations refer to:
   * S. Spicher and S. Grimme, J. Chem. Theory Comput., 2021, 17, 1701-1714
     DOI: 10.1021/acs.jctc.0c01306
   
   for ONIOM refer to:
   * C. Plett, A. Katbashev, S. Ehlert, S. Grimme, M. Bursch,
     Phys. Chem. Chem. Phys., 2023, 25, 17860-17868. DOI: 10.1039/D3CP02178E
   
   for DIPRO refer to:
   * J. Kohn, N. Gildemeister, S. Grimme, D. Fazzi, A. Hansen,
     J. Chem. Phys., 2023, just accepted.
   
   for PTB refer to:
   * S. Grimme, M. Mueller, A. Hansen, J. Chem. Phys., 2023, 158, 124111.
     DOI: 10.1063/5.0137838
   
   with help from (in alphabetical order)
   P. Atkinson, C. Bannwarth, F. Bohle, G. Brandenburg, E. Caldeweyher
   M. Checinski, S. Dohm, S. Ehlert, S. Ehrlich, I. Gerasimov, C. Hölzer
   A. Katbashev, J. Kohn, J. Koopman, C. Lavigne, S. Lehtola, F. März, M. Müller,
   F. Musil, H. Neugebauer, J. Pisarek, C. Plett, P. Pracht, F. Pultar,
   J. Seibert, P. Shushkov, S. Spicher, M. Stahn, M. Steiner, T. Strunk,
   J. Stückrath, T. Rose, and J. Unsleber
   
 * started run on 2026/10/03 at 19:09:12.531     
   ID    Z sym.   atoms
    1    1 H      1, 3, 6, 11, 12, 17, 19, 22, 24, 26-30, 39, 40, 42, 43, 45,
                  46, 48, 49, 52, 56, 57, 61, 62, 64, 65, 67, 68, 70, 71, 74,
                  78, 79, 82, 84, 87, 92, 93, 98, 100, 103, 105, 107-111,
                  120, 121, 123, 124, 126, 127, 129, 130, 133, 137, 138, 141,
                  143, 146, 151, 152, 157, 159, 162, 164, 166-170, 179, 180,
                  184, 186-188, 191, 193, 194, 199, 200, 205, 208-210, 218,
                  219, 221, 222, 224, 225, 228, 231, 233, 235, 238, 239, 243,
                  245-247, 250, 252, 253, 258, 259, 264, 267-269, 277, 278,
                  280, 281, 283, 284, 287, 290, 292, 294, 297, 298, 300, 301,
                  303, 304, 307, 310, 312, 314, 317, 319, 320, 325, 326, 331,
                  334-336, 344-346, 350, 352, 353, 356, 357, 359, 360, 362,
                  363, 366, 369, 371, 373, 376, 378, 379, 384, 385, 390,
                  393-395, 403-405, 409, 411, 412, 415, 416, 420, 422-424,
                  427, 429, 430, 435, 436, 441, 444-446, 454, 455, 457, 458,
                  460, 461, 464, 467, 469, 471, 474, 475, 479, 481-483, 486,
                  488, 489, 494, 495, 500, 503-505, 513, 514, 516, 517, 519,
                  520, 523, 526, 528, 530, 533, 534, 536, 537, 539, 540, 542,
                  543, 546, 550, 551, 554, 556, 559, 564, 565, 570, 572, 575,
                  577, 579-583, 591, 593, 596, 601, 602, 607, 609, 612, 614,
                  616-620, 629, 630, 632, 633, 635, 636, 638, 639, 642, 646,
                  647, 650, 652, 655, 660, 661, 666, 668, 671, 673, 675-679,
                  688, 689, 691, 692, 694, 695, 697, 698, 701, 705, 706, 710,
                  711, 713, 714, 716, 717, 720, 723, 725, 727, 730, 732, 733,
                  738, 739, 744, 747-749, 757-759, 763, 765, 766, 769, 770,
                  772, 773, 775, 776, 779, 782, 784, 786, 789, 791, 792, 797,
                  798, 803, 806-808, 816-818, 822, 824, 825, 828, 829, 831,
                  832, 834, 835, 837, 838, 841, 845, 846, 849, 851, 854, 859,
                  860, 865, 867, 870, 872, 874-878
    2    6 C      2, 4, 5, 7-10, 13-16, 18, 20, 21, 23, 25, 38, 41, 44, 47,
                  50, 51, 53-55, 60, 63, 66, 69, 72, 73, 75-77, 83, 85, 86,
                  88-91, 94-97, 99, 101, 102, 104, 106, 119, 122, 125, 128,
                  131, 132, 134-136, 142, 144, 145, 147-150, 153-156, 158,
                  160, 161, 163, 165, 178, 182, 183, 185, 190, 192, 195-198,
                  201-204, 206, 207, 217, 220, 223, 226, 227, 229, 230, 232,
                  234, 237, 241, 242, 244, 249, 251, 254-257, 260-263, 265,
                  266, 276, 279, 282, 285, 286, 288, 289, 291, 293, 296, 299,
                  302, 305, 306, 308, 309, 311, 313, 316, 318, 321-324,
                  327-330, 332, 333, 343, 348, 349, 351, 355, 358, 361, 364,
                  365, 367, 368, 370, 372, 375, 377, 380-383, 386-389, 391,
                  392, 402, 407, 408, 410, 414, 418, 419, 421, 426, 428,
                  431-434, 437-440, 442, 443, 453, 456, 459, 462, 463, 465,
                  466, 468, 470, 473, 477, 478, 480, 485, 487, 490-493,
                  496-499, 501, 502, 512, 515, 518, 521, 522, 524, 525, 527,
                  529, 532, 535, 538, 541, 544, 545, 547-549, 555, 557, 558,
                  560-563, 566-569, 571, 573, 574, 576, 578, 592, 594, 595,
                  597-600, 603-606, 608, 610, 611, 613, 615, 628, 631, 634,
                  637, 640, 641, 643-645, 651, 653, 654, 656-659, 662-665,
                  667, 669, 670, 672, 674, 687, 690, 693, 696, 699, 700,
                  702-704, 709, 712, 715, 718, 719, 721, 722, 724, 726, 729,
                  731, 734-737, 740-743, 745, 746, 756, 761, 762, 764, 768,
                  771, 774, 777, 778, 780, 781, 783, 785, 788, 790, 793-796,
                  799-802, 804, 805, 815, 820, 821, 823, 827, 830, 833, 836,
                  839, 840, 842-844, 850, 852, 853, 855-858, 861-864, 866,
                  868, 869, 871, 873
    3    7 N      31-34, 58, 80, 112-115, 139, 171-174, 211-214, 236,
                  270-273, 295, 315, 337-340, 374, 396-399, 447-450, 472,
                  506-509, 531, 552, 584-587, 621-624, 648, 680-683, 707,
                  728, 750-753, 787, 809-812, 847, 879-882
    4    8 O      35-37, 59, 81, 116-118, 140, 175-177, 181, 189, 215, 216,
                  240, 248, 274, 275, 341, 342, 347, 354, 400, 401, 406, 413,
                  417, 425, 451, 452, 476, 484, 510, 511, 553, 588-590,
                  625-627, 649, 684-686, 708, 754, 755, 760, 767, 813, 814,
                  819, 826, 848, 883-885

           -------------------------------------------------
          |                Calculation Setup                |
           -------------------------------------------------

          program call               : C:\ORCA_6.1.1\xTB_bigstack\xtb.exe c_full.xyz -c 0 -u 0 -P 1 --acc 1.0 --namespace c_full
          calculation namespace      : c_full
          coordinate file            : c_full.xyz
          omp threads                :                     1


molecular fragmentation (1/2 indicates fragments):
111111111111111111111111111111111111111111111111111111111112222222222222
222222222222222222222222222222222222222222222222222222222222222222222222
222222222222222222222222222222222222222222222222222222222222222222222222
222222222222222222222222222222222222222222222222222222222222222222222222
222222222222222222222222222222222222222222222222222222222222222222222222
222222222222222222222222222222222222222222222222222222222222222222222222
222222222222222222222222222222222222222222222222222222222222222222222222
222222222222222222222222222222222222222222222222222222222222222222222222
222222222222222222222222222222222222222222222222222222222222222222222222
222222222222222222222222222222222222222222222222222222222222222222222222
222222222222222222222222222222222222222222222222222222222222222222222222
222222222222222222222222222222222222222222222222222222222222222222222222
222222222222222222222
# atoms in fragment 1/2:    59   826
 fragment masses (1/2) :      459.50     6432.97
CMA distance (Bohr)    :   1.597
constraining FC (au)   :  0.0500

           -------------------------------------------------
          |                 G F N 2 - x T B                 |
           -------------------------------------------------

        Reference                      10.1021/acs.jctc.8b01176
      * Hamiltonian:
        H0-scaling (s, p, d)           1.850000    2.230000    2.230000
        zeta-weighting                 0.500000
      * Dispersion:
        s8                             2.700000
        a1                             0.520000
        a2                             5.000000
        s9                             5.000000
      * Repulsion:
        kExp                           1.500000    1.000000
        rExp                           1.000000
      * Coulomb:
        alpha                          2.000000
        third order                    shell-resolved
        anisotropic                    true
        a3                             3.000000
        a5                             4.000000
        cn-shift                       1.200000
        cn-exp                         4.000000
        max-rad                        5.000000


          ...................................................
          :                      SETUP                      :
          :.................................................:
          :  # basis functions                2415          :
          :  # atomic orbitals                2415          :
          :  # shells                         1395          :
          :  # electrons                      2610          :
          :  max. iterations                   250          :
          :  Hamiltonian                  GFN2-xTB          :
          :  restarted?                      false          :
          :  GBSA solvation                  false          :
          :  PC potential                    false          :
          :  electronic temp.          300.0000000     K    :
          :  accuracy                    1.0000000          :
          :  -> integral cutoff          0.2500000E+02      :
          :  -> integral neglect         0.1000000E-07      :
          :  -> SCF convergence          0.1000000E-05 Eh   :
          :  -> wf. convergence          0.1000000E-03 e    :
          :  Broyden damping             0.4000000          :
          :  net charge                          0          :
          :  unpaired electrons                  0          :
          ...................................................

 iter      E             dE          RMSdq      gap      omega  full diag
   1  -1481.7675748 -0.148177E+04  0.411E+00    2.79       0.0  T
   2  -1485.5136802 -0.374611E+01  0.242E+00    2.03       1.0  T
   3  -1485.8665292 -0.352849E+00  0.128E+00    2.49       1.0  T
   4  -1485.9269060 -0.603769E-01  0.430E-01    2.16       1.0  T
   5  -1486.0421221 -0.115216E+00  0.943E-02    2.19       1.0  T
   6  -1486.0437024 -0.158031E-02  0.533E-02    2.20       1.0  T
   7  -1486.0448512 -0.114874E-02  0.219E-02    2.21       1.0  T
   8  -1486.0449106 -0.594603E-04  0.879E-03    2.21       1.0  T
   9  -1486.0449399 -0.292373E-04  0.398E-03    2.21       1.0  T
  10  -1486.0449424 -0.258077E-05  0.169E-03    2.21       2.0  T
  11  -1486.0449437 -0.127333E-05  0.537E-04    2.21       6.3  T
  12  -1486.0449438 -0.782288E-07  0.275E-04    2.21      12.2  T
  13  -1486.0449438 -0.154507E-07  0.108E-04    2.21      31.2  T

   *** convergence criteria satisfied after 13 iterations ***

         #    Occupation            Energy/Eh            Energy/eV
      -------------------------------------------------------------
         1        2.0000           -0.7284341             -19.8217
       ...           ...                  ...                  ...
      1299        2.0000           -0.3723861             -10.1331
      1300        2.0000           -0.3697599             -10.0617
      1301        2.0000           -0.3690252             -10.0417
      1302        2.0000           -0.3648572              -9.9283
      1303        2.0000           -0.3643550              -9.9146
      1304        2.0000           -0.3622919              -9.8585
      1305        2.0000           -0.3592939              -9.7769 (HOMO)
      1306                         -0.2781222              -7.5681 (LUMO)
      1307                         -0.2774606              -7.5501
      1308                         -0.2760924              -7.5129
      1309                         -0.2743105              -7.4644
      1310                         -0.2739662              -7.4550
       ...                                ...                  ...
      2415                          0.9009007              24.5148
      -------------------------------------------------------------
                  HL-Gap            0.0811717 Eh            2.2088 eV
             Fermi-level           -0.3187081 Eh           -8.6725 eV

 SCC (total)                   0 d,  0 h,  1 min, 10.631 sec
 SCC setup                      ...        0 min,  0.061 sec (  0.086%)
 Dispersion                     ...        0 min,  0.181 sec (  0.256%)
 classical contributions        ...        0 min,  0.022 sec (  0.031%)
 integral evaluation            ...        0 min,  1.591 sec (  2.253%)
 iterations                     ...        0 min, 55.358 sec ( 78.376%)
 molecular gradient             ...        0 min, 12.734 sec ( 18.029%)
 printout                       ...        0 min,  0.684 sec (  0.968%)

         :::::::::::::::::::::::::::::::::::::::::::::::::::::
         ::                     SUMMARY                     ::
         :::::::::::::::::::::::::::::::::::::::::::::::::::::
         :: total energy           -1453.019556441219 Eh    ::
         :: gradient norm              3.610741885091 Eh/a0 ::
         :: HOMO-LUMO gap              2.208795628398 eV    ::
         ::.................................................::
         :: SCC energy             -1485.890987000854 Eh    ::
         :: -> isotropic ES            2.176107850638 Eh    ::
         :: -> anisotropic ES         -0.018900238012 Eh    ::
         :: -> anisotropic XC          0.276294405762 Eh    ::
         :: -> dispersion             -1.492671383900 Eh    ::
         :: repulsion energy          32.871430559635 Eh    ::
         :: add. restraining           0.000000000000 Eh    ::
         :: total charge               0.000000000000 e     ::
         :::::::::::::::::::::::::::::::::::::::::::::::::::::

           -------------------------------------------------
          |                Property Printout                |
           -------------------------------------------------

    * Orbital Energies and Occupations

         #    Occupation            Energy/Eh            Energy/eV
      -------------------------------------------------------------
         1        2.0000           -0.7284341             -19.8217
       ...           ...                  ...                  ...
      1293        2.0000           -0.3743044             -10.1853
      1294        2.0000           -0.3739789             -10.1765
      1295        2.0000           -0.3738758             -10.1737
      1296        2.0000           -0.3737974             -10.1715
      1297        2.0000           -0.3724831             -10.1358
      1298        2.0000           -0.3724214             -10.1341
      1299        2.0000           -0.3723861             -10.1331
      1300        2.0000           -0.3697599             -10.0617
      1301        2.0000           -0.3690252             -10.0417
      1302        2.0000           -0.3648572              -9.9283
      1303        2.0000           -0.3643550              -9.9146
      1304        2.0000           -0.3622919              -9.8585
      1305        2.0000           -0.3592939              -9.7769 (HOMO)
      1306                         -0.2781222              -7.5681 (LUMO)
      1307                         -0.2774606              -7.5501
      1308                         -0.2760924              -7.5129
      1309                         -0.2743105              -7.4644
      1310                         -0.2739662              -7.4550
      1311                         -0.2698981              -7.3443
      1312                         -0.2694818              -7.3330
      1313                         -0.2675956              -7.2816
      1314                         -0.2665234              -7.2525
      1315                         -0.2644919              -7.1972
      1316                         -0.2619167              -7.1271
       ...                                ...                  ...
      2415                          0.9009007              24.5148
      -------------------------------------------------------------
                  HL-Gap            0.0811717 Eh            2.2088 eV
             Fermi-level           -0.3187081 Eh           -8.6725 eV

     #   Z          covCN         q      C6AA      α(0)
     1   1 H        0.930     0.075     2.031     2.229
     2   6 C        2.936    -0.051    29.266     8.872
     3   1 H        0.930     0.094     1.842     2.122
     4   6 C        2.928     0.067    26.492     8.441
     5   6 C        3.764    -0.017    20.921     6.520
     6   1 H        0.930     0.067     2.122     2.278
     7   6 C        2.767     0.274    22.360     7.744
     8   6 C        3.096    -0.004    28.007     8.673
     9   6 C        3.070    -0.022    28.490     8.752
    10   6 C        3.821    -0.085    22.106     6.691
    11   1 H        0.930     0.069     2.093     2.262
    12   1 H        0.930     0.079     1.985     2.203
    13   6 C        3.172     0.019    27.210     8.521
    14   6 C        2.748     0.277    22.313     7.735
    15   6 C        2.920     0.037    27.178     8.549
    16   6 C        2.934    -0.048    29.183     8.860
    17   1 H        0.930     0.092     1.863     2.135
    18   6 C        2.932    -0.076    29.902     8.968
    19   1 H        0.930     0.102     1.768     2.079
    20   6 C        2.878     0.147    24.803     8.164
    21   6 C        2.936    -0.075    29.874     8.964
    22   1 H        0.930     0.073     2.057     2.243
    23   6 C        2.932    -0.054    29.334     8.882
    24   1 H        0.930     0.070     2.081     2.256
    25   6 C        3.664     0.009    20.684     6.523
    26   1 H        0.930     0.065     2.140     2.287
    27   1 H        0.930     0.054     2.264     2.353
    28   1 H        0.930     0.082     1.961     2.190
    29   1 H        0.862     0.229     0.971     1.543
    30   1 H        0.863     0.210     1.056     1.610
    31   7 N        2.745    -0.112    23.447     7.192
    32   7 N        3.019     0.092    19.649     6.584
    33   7 N        1.991    -0.256    27.460     7.772
    34   7 N        2.645    -0.286    27.375     7.771
    35   8 O        0.858    -0.446    22.613     6.376
    36   8 O        0.860    -0.473    23.191     6.457
    37   8 O        1.705    -0.284    18.716     5.841
    38   6 C        3.762    -0.010    20.797     6.501
    39   1 H        0.930     0.055     2.261     2.351
    40   1 H        0.930     0.062     2.171     2.304
    41   6 C        3.827    -0.084    22.078     6.686
    42   1 H        0.930     0.064     2.155     2.295
    43   1 H        0.930     0.072     2.065     2.247
    44   6 C        3.825    -0.084    22.081     6.687
    45   1 H        0.930     0.073     2.055     2.242
    46   1 H        0.930     0.044     2.393     2.419
    47   6 C        3.826    -0.109    22.570     6.760
    48   1 H        0.930     0.078     2.002     2.212
    49   1 H        0.930     0.073     2.056     2.242
    50   6 C        2.766     0.266    22.507     7.770
    51   6 C        2.935    -0.058    29.434     8.898
    52   1 H        0.930     0.072     2.065     2.247
    53   6 C        2.930     0.062    26.614     8.460
    54   6 C        2.938    -0.053    29.305     8.878
    55   6 C        2.935    -0.059    29.464     8.902
    56   1 H        0.930     0.077     2.009     2.216
    57   1 H        0.930     0.073     2.057     2.243
    58   7 N        2.739    -0.114    23.490     7.198
    59   8 O        0.859    -0.493    23.633     6.518
    60   6 C        3.762    -0.009    20.781     6.498
    61   1 H        0.930     0.053     2.284     2.363
    62   1 H        0.930     0.060     2.202     2.320
    63   6 C        3.827    -0.085    22.093     6.688
    64   1 H        0.930     0.063     2.160     2.298
    65   1 H        0.930     0.075     2.027     2.226
    66   6 C        3.825    -0.085    22.105     6.690
    67   1 H        0.930     0.076     2.019     2.222
    68   1 H        0.930     0.042     2.426     2.435
    69   6 C        3.826    -0.111    22.598     6.764
    70   1 H        0.930     0.079     1.991     2.206
    71   1 H        0.930     0.070     2.080     2.255
    72   6 C        2.766     0.265    22.532     7.774
    73   6 C        2.935    -0.053    29.314     8.879
    74   1 H        0.930     0.074     2.040     2.233
    75   6 C        2.930     0.070    26.437     8.432
    76   6 C        2.938    -0.046    29.150     8.855
    77   6 C        2.935    -0.056    29.380     8.889
    78   1 H        0.930     0.079     1.986     2.204
    79   1 H        0.930     0.076     2.023     2.224
    80   7 N        2.739    -0.118    23.566     7.210
    81   8 O        0.859    -0.475    23.241     6.464
    82   1 H        0.930     0.075     2.035     2.231
    83   6 C        2.936    -0.049    29.228     8.867
    84   1 H        0.930     0.068     2.106     2.269
    85   6 C        2.928     0.064    26.559     8.452
    86   6 C        3.764    -0.016    20.896     6.516
    87   1 H        0.930     0.061     2.182     2.310
    88   6 C        2.767     0.267    22.492     7.767
    89   6 C        3.096    -0.010    28.141     8.694
    90   6 C        3.070    -0.019    28.410     8.740
    91   6 C        3.821    -0.085    22.107     6.691
    92   1 H        0.930     0.074     2.042     2.235
    93   1 H        0.930     0.084     1.933     2.174
    94   6 C        3.172     0.021    27.151     8.512
    95   6 C        2.748     0.276    22.323     7.736
    96   6 C        2.920     0.045    26.993     8.520
    97   6 C        2.934    -0.044    29.103     8.847
    98   1 H        0.930     0.070     2.083     2.257
    99   6 C        2.932    -0.082    30.051     8.990
   100   1 H        0.930     0.069     2.100     2.266
   101   6 C        2.878     0.145    24.836     8.170
   102   6 C        2.936    -0.066    29.641     8.929
   103   1 H        0.930     0.084     1.936     2.175
   104   6 C        2.932    -0.044    29.083     8.844
   105   1 H        0.930     0.081     1.968     2.194
   106   6 C        3.664     0.012    20.643     6.517
   107   1 H        0.930     0.077     2.007     2.215
   108   1 H        0.930     0.056     2.244     2.342
   109   1 H        0.930     0.058     2.221     2.330
   110   1 H        0.862     0.206     1.075     1.624
   111   1 H        0.863     0.218     1.020     1.582
   112   7 N        2.745    -0.116    23.518     7.203
   113   7 N        3.019     0.092    19.646     6.583
   114   7 N        1.991    -0.242    27.120     7.723
   115   7 N        2.645    -0.284    27.327     7.764
   116   8 O        0.858    -0.454    22.783     6.400
   117   8 O        0.860    -0.461    22.927     6.420
   118   8 O        1.705    -0.276    18.581     5.820
   119   6 C        3.762    -0.014    20.871     6.512
   120   1 H        0.930     0.063     2.166     2.301
   121   1 H        0.930     0.066     2.129     2.282
   122   6 C        3.827    -0.085    22.103     6.690
   123   1 H        0.930     0.058     2.224     2.332
   124   1 H        0.930     0.061     2.187     2.313
   125   6 C        3.825    -0.081    22.024     6.678
   126   1 H        0.930     0.053     2.284     2.363
   127   1 H        0.930     0.052     2.291     2.367
   128   6 C        3.826    -0.108    22.541     6.756
   129   1 H        0.930     0.074     2.037     2.232
   130   1 H        0.930     0.076     2.024     2.225
   131   6 C        2.766     0.266    22.516     7.771
   132   6 C        2.935    -0.059    29.476     8.904
   133   1 H        0.930     0.074     2.042     2.234
   134   6 C        2.930     0.060    26.665     8.469
   135   6 C        2.938    -0.051    29.264     8.872
   136   6 C        2.935    -0.059    29.456     8.901
   137   1 H        0.930     0.072     2.060     2.244
   138   1 H        0.930     0.069     2.099     2.266
   139   7 N        2.739    -0.109    23.387     7.182
   140   8 O        0.859    -0.494    23.659     6.521
   141   1 H        0.930     0.073     2.048     2.238
   142   6 C        2.936    -0.048    29.180     8.859
   143   1 H        0.930     0.096     1.823     2.111
   144   6 C        2.928     0.072    26.383     8.423
   145   6 C        3.764    -0.015    20.889     6.515
   146   1 H        0.930     0.063     2.166     2.301
   147   6 C        2.767     0.275    22.346     7.742
   148   6 C        3.096    -0.003    27.990     8.671
   149   6 C        3.070    -0.019    28.410     8.740
   150   6 C        3.821    -0.084    22.086     6.688
   151   1 H        0.930     0.075     2.027     2.226
   152   1 H        0.930     0.080     1.981     2.201
   153   6 C        3.172     0.024    27.097     8.503
   154   6 C        2.748     0.278    22.292     7.731
   155   6 C        2.920     0.038    27.144     8.544
   156   6 C        2.934    -0.046    29.154     8.855
   157   1 H        0.930     0.091     1.869     2.138
   158   6 C        2.932    -0.075    29.882     8.965
   159   1 H        0.930     0.099     1.793     2.094
   160   6 C        2.878     0.145    24.843     8.171
   161   6 C        2.936    -0.075    29.867     8.963
   162   1 H        0.930     0.070     2.085     2.258
   163   6 C        2.932    -0.056    29.383     8.890
   164   1 H        0.930     0.072     2.059     2.244
   165   6 C        3.664     0.007    20.726     6.530
   166   1 H        0.930     0.061     2.187     2.313
   167   1 H        0.930     0.064     2.157     2.296
   168   1 H        0.930     0.074     2.045     2.236
   169   1 H        0.862     0.228     0.973     1.545
   170   1 H        0.863     0.205     1.082     1.629
   171   7 N        2.745    -0.115    23.513     7.202
   172   7 N        3.019     0.089    19.701     6.592
   173   7 N        1.991    -0.255    27.441     7.769
   174   7 N        2.645    -0.285    27.355     7.768
   175   8 O        0.858    -0.435    22.395     6.345
   176   8 O        0.860    -0.462    22.968     6.426
   177   8 O        1.705    -0.288    18.777     5.851
   178   6 C        3.826    -0.107    22.514     6.752
   179   1 H        0.930     0.074     2.036     2.231
   180   1 H        0.930     0.077     2.013     2.219
   181   8 O        0.859    -0.492    23.598     6.513
   182   6 C        2.878     0.146    24.833     8.169
   183   6 C        2.936    -0.075    29.870     8.963
   184   1 H        0.930     0.069     2.098     2.265
   185   6 C        3.664     0.010    20.673     6.521
   186   1 H        0.930     0.065     2.142     2.289
   187   1 H        0.930     0.057     2.228     2.334
   188   1 H        0.930     0.071     2.076     2.253
   189   8 O        1.705    -0.287    18.760     5.848
   190   6 C        2.928     0.072    26.382     8.423
   191   1 H        0.930     0.068     2.110     2.271
   192   6 C        3.764    -0.016    20.902     6.517
   193   1 H        0.930     0.066     2.125     2.279
   194   1 H        0.930     0.068     2.106     2.269
   195   6 C        2.767     0.276    22.328     7.739
   196   6 C        3.096    -0.003    27.972     8.668
   197   6 C        3.070    -0.019    28.403     8.739
   198   6 C        3.821    -0.085    22.105     6.691
   199   1 H        0.930     0.071     2.071     2.251
   200   1 H        0.930     0.082     1.959     2.188
   201   6 C        3.172     0.026    27.055     8.497
   202   6 C        2.748     0.280    22.268     7.727
   203   6 C        2.920     0.042    27.065     8.531
   204   6 C        2.934    -0.044    29.103     8.847
   205   1 H        0.930     0.094     1.842     2.122
   206   6 C        2.932    -0.072    29.805     8.953
   207   6 C        2.932    -0.054    29.338     8.883
   208   1 H        0.930     0.074     2.039     2.233
   209   1 H        0.862     0.230     0.965     1.539
   210   1 H        0.863     0.208     1.067     1.618
   211   7 N        2.745    -0.115    23.504     7.201
   212   7 N        3.019     0.089    19.695     6.591
   213   7 N        1.991    -0.251    27.344     7.755
   214   7 N        2.645    -0.283    27.318     7.762
   215   8 O        0.858    -0.439    22.465     6.355
   216   8 O        0.860    -0.462    22.966     6.425
   217   6 C        3.762    -0.013    20.853     6.509
   218   1 H        0.930     0.061     2.187     2.312
   219   1 H        0.930     0.065     2.139     2.287
   220   6 C        3.827    -0.085    22.102     6.690
   221   1 H        0.930     0.058     2.227     2.334
   222   1 H        0.930     0.061     2.187     2.312
   223   6 C        3.825    -0.082    22.046     6.681
   224   1 H        0.930     0.057     2.239     2.340
   225   1 H        0.930     0.051     2.302     2.373
   226   6 C        2.766     0.266    22.519     7.772
   227   6 C        2.935    -0.061    29.513     8.910
   228   1 H        0.930     0.071     2.069     2.249
   229   6 C        2.930     0.060    26.655     8.467
   230   6 C        2.938    -0.047    29.174     8.858
   231   1 H        0.930     0.071     2.075     2.253
   232   6 C        2.936    -0.043    29.066     8.842
   233   1 H        0.930     0.098     1.807     2.102
   234   6 C        2.935    -0.060    29.502     8.908
   235   1 H        0.930     0.077     2.008     2.216
   236   7 N        2.739    -0.112    23.440     7.191
   237   6 C        3.826    -0.104    22.466     6.745
   238   1 H        0.930     0.072     2.058     2.243
   239   1 H        0.930     0.079     1.993     2.208
   240   8 O        0.859    -0.489    23.531     6.504
   241   6 C        2.878     0.145    24.835     8.170
   242   6 C        2.936    -0.076    29.893     8.967
   243   1 H        0.930     0.069     2.097     2.264
   244   6 C        3.664     0.013    20.630     6.515
   245   1 H        0.930     0.065     2.143     2.289
   246   1 H        0.930     0.053     2.283     2.363
   247   1 H        0.930     0.074     2.043     2.235
   248   8 O        1.705    -0.287    18.776     5.850
   249   6 C        2.928     0.072    26.389     8.424
   250   1 H        0.930     0.069     2.100     2.266
   251   6 C        3.764    -0.015    20.890     6.515
   252   1 H        0.930     0.066     2.125     2.280
   253   1 H        0.930     0.068     2.108     2.270
   254   6 C        2.767     0.276    22.329     7.739
   255   6 C        3.096    -0.002    27.957     8.666
   256   6 C        3.070    -0.018    28.382     8.735
   257   6 C        3.821    -0.085    22.103     6.690
   258   1 H        0.930     0.073     2.052     2.240
   259   1 H        0.930     0.081     1.966     2.192
   260   6 C        3.172     0.026    27.056     8.497
   261   6 C        2.748     0.280    22.267     7.727
   262   6 C        2.920     0.043    27.046     8.528
   263   6 C        2.934    -0.046    29.136     8.852
   264   1 H        0.930     0.094     1.843     2.123
   265   6 C        2.932    -0.074    29.845     8.959
   266   6 C        2.932    -0.054    29.343     8.884
   267   1 H        0.930     0.075     2.034     2.230
   268   1 H        0.862     0.230     0.966     1.539
   269   1 H        0.863     0.208     1.066     1.618
   270   7 N        2.745    -0.114    23.476     7.196
   271   7 N        3.019     0.089    19.704     6.593
   272   7 N        1.991    -0.252    27.376     7.760
   273   7 N        2.645    -0.285    27.346     7.767
   274   8 O        0.858    -0.440    22.486     6.358
   275   8 O        0.860    -0.463    22.971     6.426
   276   6 C        3.762    -0.012    20.828     6.506
   277   1 H        0.930     0.060     2.201     2.320
   278   1 H        0.930     0.063     2.166     2.302
   279   6 C        3.827    -0.084    22.079     6.686
   280   1 H        0.930     0.056     2.245     2.343
   281   1 H        0.930     0.059     2.209     2.324
   282   6 C        3.825    -0.080    22.012     6.676
   283   1 H        0.930     0.055     2.264     2.353
   284   1 H        0.930     0.053     2.282     2.362
   285   6 C        2.766     0.269    22.463     7.762
   286   6 C        2.935    -0.061    29.523     8.911
   287   1 H        0.930     0.064     2.151     2.293
   288   6 C        2.930     0.062    26.621     8.462
   289   6 C        2.938    -0.047    29.161     8.856
   290   1 H        0.930     0.072     2.063     2.246
   291   6 C        2.936    -0.043    29.057     8.840
   292   1 H        0.930     0.098     1.806     2.102
   293   6 C        2.935    -0.061    29.513     8.910
   294   1 H        0.930     0.075     2.032     2.229
   295   7 N        2.739    -0.110    23.412     7.186
   296   6 C        3.762    -0.012    20.829     6.506
   297   1 H        0.930     0.058     2.226     2.333
   298   1 H        0.930     0.054     2.269     2.356
   299   6 C        3.827    -0.084    22.072     6.685
   300   1 H        0.930     0.060     2.197     2.318
   301   1 H        0.930     0.068     2.110     2.271
   302   6 C        3.825    -0.082    22.036     6.680
   303   1 H        0.930     0.072     2.068     2.248
   304   1 H        0.930     0.046     2.364     2.404
   305   6 C        2.766     0.268    22.471     7.763
   306   6 C        2.935    -0.058    29.446     8.899
   307   1 H        0.930     0.065     2.138     2.286
   308   6 C        2.930     0.066    26.514     8.444
   309   6 C        2.938    -0.049    29.220     8.865
   310   1 H        0.930     0.073     2.047     2.237
   311   6 C        2.936    -0.048    29.184     8.860
   312   1 H        0.930     0.091     1.868     2.137
   313   6 C        2.935    -0.059    29.464     8.902
   314   1 H        0.930     0.092     1.856     2.130
   315   7 N        2.739    -0.112    23.435     7.190
   316   6 C        2.928     0.071    26.412     8.428
   317   1 H        0.930     0.068     2.103     2.267
   318   6 C        3.764    -0.011    20.812     6.503
   319   1 H        0.930     0.058     2.224     2.332
   320   1 H        0.930     0.067     2.119     2.276
   321   6 C        2.767     0.275    22.347     7.742
   322   6 C        3.096    -0.004    28.002     8.673
   323   6 C        3.070    -0.019    28.408     8.739
   324   6 C        3.821    -0.083    22.071     6.686
   325   1 H        0.930     0.076     2.020     2.223
   326   1 H        0.930     0.081     1.970     2.195
   327   6 C        3.172     0.022    27.128     8.508
   328   6 C        2.748     0.276    22.327     7.737
   329   6 C        2.920     0.041    27.074     8.533
   330   6 C        2.934    -0.046    29.147     8.854
   331   1 H        0.930     0.089     1.890     2.150
   332   6 C        2.932    -0.083    30.072     8.993
   333   6 C        2.932    -0.050    29.251     8.870
   334   1 H        0.930     0.076     2.020     2.222
   335   1 H        0.862     0.205     1.082     1.629
   336   1 H        0.863     0.211     1.050     1.605
   337   7 N        2.745    -0.115    23.503     7.200
   338   7 N        3.019     0.091    19.660     6.585
   339   7 N        1.991    -0.247    27.233     7.739
   340   7 N        2.645    -0.286    27.372     7.770
   341   8 O        0.858    -0.443    22.568     6.369
   342   8 O        0.860    -0.452    22.745     6.394
   343   6 C        3.664     0.013    20.629     6.514
   344   1 H        0.930     0.070     2.081     2.255
   345   1 H        0.930     0.057     2.231     2.336
   346   1 H        0.930     0.065     2.143     2.289
   347   8 O        1.705    -0.286    18.749     5.846
   348   6 C        2.878     0.142    24.906     8.181
   349   6 C        2.936    -0.071    29.779     8.950
   350   1 H        0.930     0.074     2.037     2.232
   351   6 C        3.826    -0.107    22.517     6.752
   352   1 H        0.930     0.074     2.045     2.236
   353   1 H        0.930     0.071     2.071     2.250
   354   8 O        0.859    -0.486    23.481     6.497
   355   6 C        3.762    -0.008    20.760     6.495
   356   1 H        0.930     0.054     2.267     2.354
   357   1 H        0.930     0.067     2.123     2.278
   358   6 C        3.827    -0.082    22.046     6.681
   359   1 H        0.930     0.058     2.219     2.329
   360   1 H        0.930     0.060     2.198     2.318
   361   6 C        3.825    -0.081    22.023     6.678
   362   1 H        0.930     0.052     2.288     2.365
   363   1 H        0.930     0.051     2.302     2.372
   364   6 C        2.766     0.270    22.446     7.759
   365   6 C        2.935    -0.056    29.391     8.891
   366   1 H        0.930     0.066     2.128     2.281
   367   6 C        2.930     0.066    26.512     8.444
   368   6 C        2.938    -0.046    29.138     8.853
   369   1 H        0.930     0.077     2.012     2.218
   370   6 C        2.936    -0.047    29.170     8.858
   371   1 H        0.930     0.075     2.034     2.230
   372   6 C        2.935    -0.058    29.448     8.900
   373   1 H        0.930     0.079     1.986     2.203
   374   7 N        2.739    -0.113    23.464     7.194
   375   6 C        2.928     0.066    26.526     8.446
   376   1 H        0.930     0.077     2.015     2.219
   377   6 C        3.764    -0.019    20.953     6.525
   378   1 H        0.930     0.068     2.110     2.271
   379   1 H        0.930     0.075     2.027     2.226
   380   6 C        2.767     0.267    22.485     7.766
   381   6 C        3.096    -0.010    28.139     8.694
   382   6 C        3.070    -0.019    28.412     8.740
   383   6 C        3.821    -0.086    22.123     6.694
   384   1 H        0.930     0.071     2.077     2.254
   385   1 H        0.930     0.086     1.918     2.166
   386   6 C        3.172     0.022    27.134     8.509
   387   6 C        2.748     0.277    22.311     7.734
   388   6 C        2.920     0.041    27.083     8.534
   389   6 C        2.934    -0.043    29.079     8.844
   390   1 H        0.930     0.073     2.057     2.243
   391   6 C        2.932    -0.071    29.778     8.949
   392   6 C        2.932    -0.050    29.247     8.869
   393   1 H        0.930     0.075     2.032     2.229
   394   1 H        0.862     0.230     0.963     1.537
   395   1 H        0.863     0.210     1.057     1.610
   396   7 N        2.745    -0.118    23.559     7.209
   397   7 N        3.019     0.089    19.693     6.591
   398   7 N        1.991    -0.251    27.355     7.757
   399   7 N        2.645    -0.286    27.377     7.771
   400   8 O        0.858    -0.447    22.644     6.380
   401   8 O        0.860    -0.465    23.019     6.433
   402   6 C        3.664     0.012    20.634     6.515
   403   1 H        0.930     0.066     2.124     2.279
   404   1 H        0.930     0.052     2.292     2.367
   405   1 H        0.930     0.078     2.003     2.213
   406   8 O        1.705    -0.281    18.666     5.833
   407   6 C        2.878     0.150    24.747     8.155
   408   6 C        2.936    -0.071    29.780     8.950
   409   1 H        0.930     0.077     2.013     2.219
   410   6 C        3.826    -0.107    22.523     6.753
   411   1 H        0.930     0.075     2.026     2.226
   412   1 H        0.930     0.080     1.979     2.200
   413   8 O        0.859    -0.476    23.252     6.465
   414   6 C        3.826    -0.113    22.631     6.769
   415   1 H        0.930     0.078     1.999     2.211
   416   1 H        0.930     0.070     2.088     2.260
   417   8 O        0.859    -0.475    23.240     6.463
   418   6 C        2.878     0.145    24.854     8.173
   419   6 C        2.936    -0.068    29.694     8.937
   420   1 H        0.930     0.078     1.994     2.208
   421   6 C        3.664     0.008    20.705     6.526
   422   1 H        0.930     0.073     2.055     2.242
   423   1 H        0.930     0.061     2.184     2.311
   424   1 H        0.930     0.064     2.152     2.294
   425   8 O        1.705    -0.281    18.656     5.832
   426   6 C        2.928     0.065    26.546     8.450
   427   1 H        0.930     0.082     1.959     2.188
   428   6 C        3.764    -0.014    20.872     6.512
   429   1 H        0.930     0.058     2.217     2.328
   430   1 H        0.930     0.075     2.027     2.226
   431   6 C        2.767     0.266    22.504     7.769
   432   6 C        3.096    -0.011    28.174     8.699
   433   6 C        3.070    -0.019    28.401     8.738
   434   6 C        3.821    -0.084    22.088     6.688
   435   1 H        0.930     0.077     2.015     2.219
   436   1 H        0.930     0.085     1.932     2.173
   437   6 C        3.172     0.022    27.149     8.511
   438   6 C        2.748     0.275    22.347     7.741
   439   6 C        2.920     0.041    27.083     8.534
   440   6 C        2.934    -0.042    29.051     8.840
   441   1 H        0.930     0.069     2.094     2.263
   442   6 C        2.932    -0.080    30.010     8.984
   443   6 C        2.932    -0.049    29.216     8.864
   444   1 H        0.930     0.077     2.007     2.215
   445   1 H        0.862     0.206     1.075     1.624
   446   1 H        0.863     0.213     1.040     1.597
   447   7 N        2.745    -0.117    23.545     7.207
   448   7 N        3.019     0.089    19.698     6.592
   449   7 N        1.991    -0.245    27.184     7.733
   450   7 N        2.645    -0.286    27.369     7.770
   451   8 O        0.858    -0.454    22.783     6.400
   452   8 O        0.860    -0.454    22.792     6.401
   453   6 C        3.762    -0.011    20.810     6.503
   454   1 H        0.930     0.054     2.266     2.354
   455   1 H        0.930     0.062     2.179     2.308
   456   6 C        3.827    -0.086    22.111     6.691
   457   1 H        0.930     0.063     2.165     2.301
   458   1 H        0.930     0.077     2.007     2.215
   459   6 C        3.825    -0.085    22.095     6.689
   460   1 H        0.930     0.072     2.064     2.247
   461   1 H        0.930     0.042     2.416     2.431
   462   6 C        2.766     0.265    22.531     7.774
   463   6 C        2.935    -0.051    29.276     8.874
   464   1 H        0.930     0.075     2.028     2.227
   465   6 C        2.930     0.070    26.445     8.433
   466   6 C        2.938    -0.050    29.229     8.867
   467   1 H        0.930     0.076     2.022     2.223
   468   6 C        2.936    -0.053    29.320     8.880
   469   1 H        0.930     0.067     2.122     2.278
   470   6 C        2.935    -0.053    29.328     8.882
   471   1 H        0.930     0.095     1.833     2.117
   472   7 N        2.739    -0.116    23.530     7.204
   473   6 C        3.826    -0.110    22.572     6.761
   474   1 H        0.930     0.077     2.005     2.214
   475   1 H        0.930     0.073     2.049     2.238
   476   8 O        0.859    -0.475    23.246     6.464
   477   6 C        2.878     0.145    24.836     8.170
   478   6 C        2.936    -0.067    29.679     8.935
   479   1 H        0.930     0.082     1.958     2.188
   480   6 C        3.664     0.011    20.649     6.518
   481   1 H        0.930     0.073     2.054     2.241
   482   1 H        0.930     0.056     2.245     2.343
   483   1 H        0.930     0.068     2.111     2.272
   484   8 O        1.705    -0.280    18.649     5.831
   485   6 C        2.928     0.065    26.539     8.448
   486   1 H        0.930     0.080     1.982     2.202
   487   6 C        3.764    -0.014    20.863     6.511
   488   1 H        0.930     0.059     2.215     2.327
   489   1 H        0.930     0.073     2.047     2.237
   490   6 C        2.767     0.267    22.497     7.768
   491   6 C        3.096    -0.011    28.176     8.699
   492   6 C        3.070    -0.020    28.424     8.742
   493   6 C        3.821    -0.084    22.083     6.688
   494   1 H        0.930     0.075     2.030     2.228
   495   1 H        0.930     0.084     1.933     2.174
   496   6 C        3.172     0.020    27.176     8.516
   497   6 C        2.748     0.275    22.355     7.742
   498   6 C        2.920     0.041    27.085     8.534
   499   6 C        2.934    -0.043    29.078     8.844
   500   1 H        0.930     0.068     2.106     2.269
   501   6 C        2.932    -0.081    30.029     8.987
   502   6 C        2.932    -0.047    29.155     8.855
   503   1 H        0.930     0.076     2.016     2.220
   504   1 H        0.862     0.206     1.076     1.625
   505   1 H        0.863     0.214     1.038     1.596
   506   7 N        2.745    -0.118    23.571     7.211
   507   7 N        3.019     0.092    19.648     6.583
   508   7 N        1.991    -0.244    27.183     7.732
   509   7 N        2.645    -0.286    27.379     7.771
   510   8 O        0.858    -0.452    22.741     6.394
   511   8 O        0.860    -0.456    22.825     6.406
   512   6 C        3.762    -0.008    20.771     6.497
   513   1 H        0.930     0.052     2.295     2.369
   514   1 H        0.930     0.059     2.215     2.327
   515   6 C        3.827    -0.082    22.050     6.682
   516   1 H        0.930     0.061     2.187     2.312
   517   1 H        0.930     0.069     2.095     2.263
   518   6 C        3.825    -0.084    22.075     6.686
   519   1 H        0.930     0.074     2.043     2.235
   520   1 H        0.930     0.044     2.394     2.419
   521   6 C        2.766     0.268    22.474     7.764
   522   6 C        2.935    -0.053    29.315     8.880
   523   1 H        0.930     0.066     2.127     2.280
   524   6 C        2.930     0.070    26.429     8.431
   525   6 C        2.938    -0.049    29.215     8.865
   526   1 H        0.930     0.077     2.012     2.218
   527   6 C        2.936    -0.052    29.303     8.878
   528   1 H        0.930     0.068     2.105     2.269
   529   6 C        2.935    -0.055    29.372     8.888
   530   1 H        0.930     0.095     1.828     2.114
   531   7 N        2.739    -0.115    23.506     7.201
   532   6 C        3.762    -0.008    20.766     6.496
   533   1 H        0.930     0.055     2.258     2.350
   534   1 H        0.930     0.066     2.133     2.284
   535   6 C        3.827    -0.082    22.040     6.680
   536   1 H        0.930     0.057     2.230     2.335
   537   1 H        0.930     0.060     2.199     2.319
   538   6 C        3.825    -0.081    22.017     6.677
   539   1 H        0.930     0.052     2.297     2.370
   540   1 H        0.930     0.050     2.316     2.380
   541   6 C        3.826    -0.107    22.521     6.753
   542   1 H        0.930     0.074     2.044     2.236
   543   1 H        0.930     0.076     2.022     2.224
   544   6 C        2.766     0.268    22.475     7.764
   545   6 C        2.935    -0.052    29.288     8.876
   546   1 H        0.930     0.068     2.110     2.271
   547   6 C        2.930     0.070    26.426     8.430
   548   6 C        2.938    -0.046    29.137     8.853
   549   6 C        2.935    -0.054    29.349     8.885
   550   1 H        0.930     0.082     1.963     2.191
   551   1 H        0.930     0.074     2.037     2.232
   552   7 N        2.739    -0.114    23.482     7.197
   553   8 O        0.859    -0.470    23.121     6.447
   554   1 H        0.930     0.074     2.042     2.234
   555   6 C        2.936    -0.049    29.209     8.864
   556   1 H        0.930     0.069     2.098     2.265
   557   6 C        2.928     0.066    26.529     8.447
   558   6 C        3.764    -0.014    20.874     6.512
   559   1 H        0.930     0.061     2.192     2.315
   560   6 C        2.767     0.268    22.482     7.765
   561   6 C        3.096    -0.009    28.132     8.693
   562   6 C        3.070    -0.019    28.405     8.739
   563   6 C        3.821    -0.084    22.092     6.689
   564   1 H        0.930     0.074     2.036     2.231
   565   1 H        0.930     0.083     1.952     2.185
   566   6 C        3.172     0.021    27.155     8.512
   567   6 C        2.748     0.277    22.316     7.735
   568   6 C        2.920     0.045    26.993     8.520
   569   6 C        2.934    -0.044    29.100     8.847
   570   1 H        0.930     0.070     2.089     2.260
   571   6 C        2.932    -0.081    30.036     8.988
   572   1 H        0.930     0.069     2.095     2.263
   573   6 C        2.878     0.146    24.830     8.169
   574   6 C        2.936    -0.067    29.657     8.931
   575   1 H        0.930     0.084     1.933     2.174
   576   6 C        2.932    -0.044    29.081     8.844
   577   1 H        0.930     0.081     1.964     2.191
   578   6 C        3.664     0.015    20.590     6.508
   579   1 H        0.930     0.077     2.012     2.218
   580   1 H        0.930     0.051     2.301     2.372
   581   1 H        0.930     0.062     2.179     2.308
   582   1 H        0.862     0.206     1.076     1.625
   583   1 H        0.863     0.218     1.018     1.581
   584   7 N        2.745    -0.115    23.512     7.202
   585   7 N        3.019     0.093    19.637     6.582
   586   7 N        1.991    -0.241    27.106     7.721
   587   7 N        2.645    -0.283    27.317     7.762
   588   8 O        0.858    -0.452    22.756     6.396
   589   8 O        0.860    -0.463    22.985     6.428
   590   8 O        1.705    -0.278    18.609     5.824
   591   1 H        0.930     0.072     2.065     2.247
   592   6 C        2.936    -0.045    29.118     8.850
   593   1 H        0.930     0.094     1.835     2.118
   594   6 C        2.928     0.068    26.479     8.439
   595   6 C        3.764    -0.016    20.903     6.517
   596   1 H        0.930     0.067     2.116     2.274
   597   6 C        2.767     0.276    22.340     7.741
   598   6 C        3.096    -0.002    27.954     8.665
   599   6 C        3.070    -0.020    28.436     8.744
   600   6 C        3.821    -0.084    22.092     6.689
   601   1 H        0.930     0.071     2.073     2.252
   602   1 H        0.930     0.081     1.963     2.191
   603   6 C        3.172     0.020    27.187     8.517
   604   6 C        2.748     0.278    22.301     7.733
   605   6 C        2.920     0.043    27.036     8.527
   606   6 C        2.934    -0.043    29.063     8.841
   607   1 H        0.930     0.094     1.844     2.123
   608   6 C        2.932    -0.078    29.950     8.975
   609   1 H        0.930     0.071     2.075     2.253
   610   6 C        2.878     0.144    24.870     8.175
   611   6 C        2.936    -0.069    29.718     8.941
   612   1 H        0.930     0.077     2.015     2.219
   613   6 C        2.932    -0.050    29.233     8.867
   614   1 H        0.930     0.076     2.024     2.225
   615   6 C        3.664     0.012    20.638     6.516
   616   1 H        0.930     0.072     2.060     2.244
   617   1 H        0.930     0.060     2.196     2.317
   618   1 H        0.930     0.057     2.235     2.338
   619   1 H        0.862     0.205     1.080     1.628
   620   1 H        0.863     0.213     1.040     1.597
   621   7 N        2.745    -0.112    23.435     7.190
   622   7 N        3.019     0.092    19.654     6.584
   623   7 N        1.991    -0.250    27.325     7.753
   624   7 N        2.645    -0.285    27.356     7.768
   625   8 O        0.858    -0.443    22.564     6.369
   626   8 O        0.860    -0.463    22.976     6.427
   627   8 O        1.705    -0.282    18.686     5.836
   628   6 C        3.762    -0.009    20.781     6.498
   629   1 H        0.930     0.054     2.265     2.353
   630   1 H        0.930     0.061     2.183     2.310
   631   6 C        3.827    -0.083    22.069     6.685
   632   1 H        0.930     0.063     2.164     2.300
   633   1 H        0.930     0.071     2.073     2.252
   634   6 C        3.825    -0.084    22.075     6.686
   635   1 H        0.930     0.072     2.058     2.243
   636   1 H        0.930     0.045     2.383     2.414
   637   6 C        3.826    -0.108    22.545     6.756
   638   1 H        0.930     0.075     2.026     2.226
   639   1 H        0.930     0.073     2.050     2.239
   640   6 C        2.766     0.266    22.504     7.769
   641   6 C        2.935    -0.058    29.445     8.899
   642   1 H        0.930     0.071     2.071     2.250
   643   6 C        2.930     0.062    26.616     8.461
   644   6 C        2.938    -0.049    29.210     8.864
   645   6 C        2.935    -0.059    29.465     8.902
   646   1 H        0.930     0.076     2.021     2.223
   647   1 H        0.930     0.073     2.050     2.239
   648   7 N        2.739    -0.115    23.498     7.199
   649   8 O        0.859    -0.493    23.624     6.517
   650   1 H        0.930     0.078     1.999     2.211
   651   6 C        2.936    -0.050    29.235     8.868
   652   1 H        0.930     0.071     2.074     2.252
   653   6 C        2.928     0.069    26.464     8.436
   654   6 C        3.764    -0.014    20.859     6.510
   655   1 H        0.930     0.058     2.227     2.333
   656   6 C        2.767     0.267    22.490     7.767
   657   6 C        3.096    -0.011    28.170     8.699
   658   6 C        3.070    -0.018    28.391     8.737
   659   6 C        3.821    -0.084    22.077     6.687
   660   1 H        0.930     0.075     2.028     2.227
   661   1 H        0.930     0.082     1.961     2.190
   662   6 C        3.172     0.025    27.069     8.499
   663   6 C        2.748     0.277    22.308     7.734
   664   6 C        2.920     0.040    27.114     8.539
   665   6 C        2.934    -0.046    29.145     8.854
   666   1 H        0.930     0.068     2.111     2.272
   667   6 C        2.932    -0.076    29.910     8.969
   668   1 H        0.930     0.100     1.786     2.090
   669   6 C        2.878     0.148    24.788     8.162
   670   6 C        2.936    -0.073    29.828     8.957
   671   1 H        0.930     0.075     2.032     2.229
   672   6 C        2.932    -0.051    29.258     8.871
   673   1 H        0.930     0.074     2.036     2.231
   674   6 C        3.664     0.009    20.689     6.524
   675   1 H        0.930     0.066     2.126     2.280
   676   1 H        0.930     0.054     2.268     2.355
   677   1 H        0.930     0.082     1.963     2.191
   678   1 H        0.862     0.229     0.970     1.543
   679   1 H        0.863     0.208     1.064     1.616
   680   7 N        2.745    -0.121    23.625     7.219
   681   7 N        3.019     0.089    19.694     6.591
   682   7 N        1.991    -0.247    27.246     7.741
   683   7 N        2.645    -0.284    27.340     7.766
   684   8 O        0.858    -0.446    22.619     6.376
   685   8 O        0.860    -0.460    22.925     6.420
   686   8 O        1.705    -0.282    18.687     5.836
   687   6 C        3.762    -0.012    20.828     6.506
   688   1 H        0.930     0.058     2.225     2.333
   689   1 H        0.930     0.061     2.190     2.314
   690   6 C        3.827    -0.084    22.072     6.685
   691   1 H        0.930     0.056     2.244     2.342
   692   1 H        0.930     0.059     2.213     2.326
   693   6 C        3.825    -0.080    22.012     6.676
   694   1 H        0.930     0.055     2.263     2.352
   695   1 H        0.930     0.051     2.310     2.377
   696   6 C        3.826    -0.108    22.548     6.757
   697   1 H        0.930     0.077     2.008     2.216
   698   1 H        0.930     0.077     2.009     2.216
   699   6 C        2.766     0.268    22.473     7.764
   700   6 C        2.935    -0.055    29.376     8.889
   701   1 H        0.930     0.067     2.121     2.277
   702   6 C        2.930     0.070    26.433     8.432
   703   6 C        2.938    -0.046    29.144     8.854
   704   6 C        2.935    -0.057    29.418     8.895
   705   1 H        0.930     0.070     2.086     2.258
   706   1 H        0.930     0.069     2.094     2.263
   707   7 N        2.739    -0.113    23.461     7.194
   708   8 O        0.859    -0.469    23.099     6.444
   709   6 C        3.762    -0.013    20.850     6.509
   710   1 H        0.930     0.058     2.217     2.328
   711   1 H        0.930     0.056     2.249     2.345
   712   6 C        3.827    -0.084    22.087     6.687
   713   1 H        0.930     0.060     2.197     2.318
   714   1 H        0.930     0.068     2.103     2.267
   715   6 C        3.825    -0.083    22.064     6.684
   716   1 H        0.930     0.073     2.056     2.242
   717   1 H        0.930     0.045     2.388     2.416
   718   6 C        2.766     0.265    22.537     7.775
   719   6 C        2.935    -0.058    29.435     8.898
   720   1 H        0.930     0.071     2.069     2.249
   721   6 C        2.930     0.064    26.566     8.453
   722   6 C        2.938    -0.048    29.204     8.863
   723   1 H        0.930     0.071     2.069     2.249
   724   6 C        2.936    -0.046    29.135     8.852
   725   1 H        0.930     0.092     1.859     2.132
   726   6 C        2.935    -0.057    29.426     8.896
   727   1 H        0.930     0.095     1.832     2.117
   728   7 N        2.739    -0.113    23.473     7.196
   729   6 C        2.928     0.073    26.379     8.423
   730   1 H        0.930     0.070     2.089     2.260
   731   6 C        3.764    -0.011    20.807     6.502
   732   1 H        0.930     0.056     2.242     2.341
   733   1 H        0.930     0.067     2.122     2.278
   734   6 C        2.767     0.276    22.339     7.741
   735   6 C        3.096    -0.003    27.975     8.669
   736   6 C        3.070    -0.020    28.430     8.743
   737   6 C        3.821    -0.083    22.064     6.685
   738   1 H        0.930     0.075     2.028     2.227
   739   1 H        0.930     0.079     1.986     2.204
   740   6 C        3.172     0.021    27.156     8.512
   741   6 C        2.748     0.276    22.327     7.737
   742   6 C        2.920     0.041    27.081     8.534
   743   6 C        2.934    -0.042    29.049     8.839
   744   1 H        0.930     0.090     1.879     2.144
   745   6 C        2.932    -0.078    29.946     8.975
   746   6 C        2.932    -0.051    29.263     8.872
   747   1 H        0.930     0.074     2.042     2.235
   748   1 H        0.862     0.203     1.089     1.635
   749   1 H        0.863     0.211     1.053     1.607
   750   7 N        2.745    -0.116    23.529     7.204
   751   7 N        3.019     0.092    19.644     6.583
   752   7 N        1.991    -0.249    27.282     7.746
   753   7 N        2.645    -0.287    27.396     7.774
   754   8 O        0.858    -0.436    22.404     6.346
   755   8 O        0.860    -0.454    22.792     6.401
   756   6 C        3.664     0.010    20.681     6.523
   757   1 H        0.930     0.067     2.122     2.278
   758   1 H        0.930     0.064     2.148     2.292
   759   1 H        0.930     0.061     2.181     2.309
   760   8 O        1.705    -0.286    18.750     5.846
   761   6 C        2.878     0.143    24.894     8.179
   762   6 C        2.936    -0.071    29.778     8.949
   763   1 H        0.930     0.073     2.056     2.242
   764   6 C        3.826    -0.109    22.558     6.758
   765   1 H        0.930     0.074     2.039     2.233
   766   1 H        0.930     0.069     2.096     2.264
   767   8 O        0.859    -0.487    23.496     6.499
   768   6 C        3.762    -0.009    20.782     6.498
   769   1 H        0.930     0.055     2.256     2.349
   770   1 H        0.930     0.069     2.098     2.265
   771   6 C        3.827    -0.083    22.069     6.685
   772   1 H        0.930     0.060     2.200     2.319
   773   1 H        0.930     0.062     2.171     2.304
   774   6 C        3.825    -0.083    22.055     6.683
   775   1 H        0.930     0.055     2.256     2.349
   776   1 H        0.930     0.049     2.328     2.386
   777   6 C        2.766     0.266    22.506     7.769
   778   6 C        2.935    -0.055    29.355     8.886
   779   1 H        0.930     0.074     2.041     2.234
   780   6 C        2.930     0.066    26.525     8.446
   781   6 C        2.938    -0.046    29.143     8.854
   782   1 H        0.930     0.076     2.020     2.222
   783   6 C        2.936    -0.048    29.180     8.859
   784   1 H        0.930     0.073     2.056     2.242
   785   6 C        2.935    -0.056    29.401     8.893
   786   1 H        0.930     0.071     2.079     2.255
   787   7 N        2.739    -0.115    23.507     7.201
   788   6 C        2.928     0.066    26.531     8.447
   789   1 H        0.930     0.079     1.992     2.207
   790   6 C        3.764    -0.019    20.959     6.526
   791   1 H        0.930     0.068     2.103     2.267
   792   1 H        0.930     0.078     2.001     2.212
   793   6 C        2.767     0.267    22.488     7.766
   794   6 C        3.096    -0.009    28.130     8.692
   795   6 C        3.070    -0.017    28.357     8.732
   796   6 C        3.821    -0.086    22.125     6.694
   797   1 H        0.930     0.073     2.057     2.243
   798   1 H        0.930     0.087     1.906     2.159
   799   6 C        3.172     0.024    27.085     8.501
   800   6 C        2.748     0.280    22.264     7.726
   801   6 C        2.920     0.046    26.975     8.517
   802   6 C        2.934    -0.041    29.008     8.833
   803   1 H        0.930     0.073     2.053     2.241
   804   6 C        2.932    -0.077    29.934     8.973
   805   6 C        2.932    -0.048    29.185     8.860
   806   1 H        0.930     0.078     1.998     2.210
   807   1 H        0.862     0.207     1.072     1.622
   808   1 H        0.863     0.217     1.024     1.585
   809   7 N        2.745    -0.116    23.528     7.204
   810   7 N        3.019     0.088    19.710     6.594
   811   7 N        1.991    -0.242    27.133     7.725
   812   7 N        2.645    -0.282    27.275     7.756
   813   8 O        0.858    -0.450    22.700     6.388
   814   8 O        0.860    -0.459    22.901     6.416
   815   6 C        3.664     0.012    20.647     6.517
   816   1 H        0.930     0.074     2.047     2.237
   817   1 H        0.930     0.060     2.195     2.317
   818   1 H        0.930     0.058     2.221     2.330
   819   8 O        1.705    -0.281    18.665     5.833
   820   6 C        2.878     0.145    24.848     8.172
   821   6 C        2.936    -0.069    29.720     8.941
   822   1 H        0.930     0.076     2.023     2.224
   823   6 C        3.826    -0.110    22.570     6.760
   824   1 H        0.930     0.078     1.997     2.210
   825   1 H        0.930     0.078     1.997     2.210
   826   8 O        0.859    -0.476    23.270     6.468
   827   6 C        3.762    -0.012    20.833     6.506
   828   1 H        0.930     0.058     2.217     2.328
   829   1 H        0.930     0.063     2.158     2.297
   830   6 C        3.827    -0.084    22.074     6.685
   831   1 H        0.930     0.057     2.234     2.337
   832   1 H        0.930     0.058     2.220     2.330
   833   6 C        3.825    -0.080    21.997     6.674
   834   1 H        0.930     0.053     2.279     2.360
   835   1 H        0.930     0.050     2.318     2.381
   836   6 C        3.826    -0.104    22.471     6.745
   837   1 H        0.930     0.071     2.071     2.250
   838   1 H        0.930     0.072     2.067     2.248
   839   6 C        2.766     0.267    22.499     7.768
   840   6 C        2.935    -0.059    29.475     8.904
   841   1 H        0.930     0.062     2.178     2.308
   842   6 C        2.930     0.064    26.561     8.452
   843   6 C        2.938    -0.047    29.164     8.857
   844   6 C        2.935    -0.059    29.457     8.901
   845   1 H        0.930     0.068     2.105     2.269
   846   1 H        0.930     0.064     2.147     2.291
   847   7 N        2.739    -0.110    23.395     7.184
   848   8 O        0.859    -0.486    23.471     6.496
   849   1 H        0.930     0.073     2.052     2.240
   850   6 C        2.936    -0.044    29.099     8.847
   851   1 H        0.930     0.095     1.830     2.115
   852   6 C        2.928     0.074    26.344     8.417
   853   6 C        3.764    -0.011    20.809     6.502
   854   1 H        0.930     0.058     2.223     2.331
   855   6 C        2.767     0.276    22.339     7.741
   856   6 C        3.096    -0.004    27.995     8.672
   857   6 C        3.070    -0.019    28.420     8.741
   858   6 C        3.821    -0.083    22.066     6.685
   859   1 H        0.930     0.075     2.036     2.231
   860   1 H        0.930     0.081     1.964     2.191
   861   6 C        3.172     0.024    27.095     8.503
   862   6 C        2.748     0.275    22.344     7.740
   863   6 C        2.920     0.039    27.136     8.543
   864   6 C        2.934    -0.046    29.146     8.854
   865   1 H        0.930     0.091     1.873     2.140
   866   6 C        2.932    -0.075    29.872     8.963
   867   1 H        0.930     0.099     1.791     2.092
   868   6 C        2.878     0.145    24.845     8.171
   869   6 C        2.936    -0.075    29.884     8.965
   870   1 H        0.930     0.069     2.091     2.261
   871   6 C        2.932    -0.056    29.380     8.889
   872   1 H        0.930     0.073     2.055     2.242
   873   6 C        3.664     0.009    20.687     6.524
   874   1 H        0.930     0.061     2.191     2.315
   875   1 H        0.930     0.059     2.213     2.326
   876   1 H        0.930     0.077     2.005     2.214
   877   1 H        0.862     0.228     0.974     1.545
   878   1 H        0.863     0.204     1.084     1.631
   879   7 N        2.745    -0.117    23.537     7.206
   880   7 N        3.019     0.088    19.711     6.594
   881   7 N        1.991    -0.254    27.426     7.767
   882   7 N        2.645    -0.287    27.397     7.774
   883   8 O        0.858    -0.436    22.415     6.348
   884   8 O        0.860    -0.455    22.801     6.402
   885   8 O        1.705    -0.290    18.814     5.856

 Mol. C6AA /au·bohr⁶  :    9415406.687977
 Mol. C8AA /au·bohr⁸  :  225030272.745614
 Mol. α(0) /au        :       4755.763113


Wiberg/Mayer (AO) data.
largest (>0.10) Wiberg bond orders for each atom

 ---------------------------------------------------------------------------
     #   Z sym  total        # sym  WBO       # sym  WBO       # sym  WBO
 ---------------------------------------------------------------------------
     1   1 H    0.994 --    54 C    0.972
     2   6 C    3.988 --    54 C    1.440     4 C    1.403     3 H    0.966
                            51 C    0.110
     3   1 H    0.991 --     2 C    0.966
     4   6 C    3.966 --     2 C    1.403    55 C    1.402    31 N    0.998
     5   6 C    3.967 --    10 C    0.998    57 H    0.972     6 H    0.972
                            31 N    0.962
     6   1 H    0.995 --     5 C    0.972
     7   6 C    3.957 --    35 O    1.650    31 N    1.206     8 C    1.009
     8   6 C    3.955 --     9 C    1.428    32 N    1.228     7 C    1.009
                            33 N    0.131
     9   6 C    3.980 --     8 C    1.428    13 C    1.326    10 C    1.011
    10   6 C    3.990 --     9 C    1.011     5 C    0.998    12 H    0.962
                            11 H    0.962
    11   1 H    0.995 --    10 C    0.962
    12   1 H    0.993 --    10 C    0.962
    13   6 C    3.967 --    33 N    1.417     9 C    1.326    14 C    1.001
    14   6 C    3.952 --    36 O    1.631    34 N    1.277    13 C    1.001
    15   6 C    3.951 --    16 C    1.396    23 C    1.370    32 N    1.001
    16   6 C    3.987 --    18 C    1.440    15 C    1.396    17 H    0.967
                            21 C    0.104
    17   1 H    0.992 --    16 C    0.967
    18   6 C    3.987 --    16 C    1.440    20 C    1.375    19 H    0.962
                            23 C    0.100
    19   1 H    0.989 --    18 C    0.962
    20   6 C    3.933 --    18 C    1.375    21 C    1.342    37 O    1.076
    21   6 C    3.991 --    23 C    1.475    20 C    1.342    22 H    0.971
                            16 C    0.104
    22   1 H    0.994 --    21 C    0.971
    23   6 C    3.991 --    21 C    1.475    15 C    1.370    24 H    0.973
                            18 C    0.100
    24   1 H    0.995 --    23 C    0.973
    25   6 C    3.930 --    27 H    0.981    26 H    0.977    28 H    0.975
                            37 O    0.963
    26   1 H    0.995 --    25 C    0.977
    27   1 H    0.997 --    25 C    0.981
    28   1 H    0.993 --    25 C    0.975
    29   1 H    0.947 --    34 N    0.919
    30   1 H    0.956 --    34 N    0.941
    31   7 N    3.477 --     7 C    1.206     4 C    0.998     5 C    0.962
                            35 O    0.187
    32   7 N    3.695 --     8 C    1.228    33 N    1.220    15 C    1.001
    33   7 N    2.959 --    13 C    1.417    32 N    1.220     8 C    0.131
    34   7 N    3.388 --    14 C    1.277    30 H    0.941    29 H    0.919
                            36 O    0.195
    35   8 O    1.996 --     7 C    1.650    31 N    0.187
    36   8 O    1.950 --    14 C    1.631    34 N    0.195
    37   8 O    2.210 --    20 C    1.076    25 C    0.963
    38   6 C    3.966 --    41 C    1.007    40 H    0.972    39 H    0.970
                            58 N    0.956
    39   1 H    0.997 --    38 C    0.970
    40   1 H    0.996 --    38 C    0.972
    41   6 C    3.988 --    44 C    1.007    38 C    1.007    42 H    0.976
                            43 H    0.966
    42   1 H    0.996 --    41 C    0.976
    43   1 H    0.994 --    41 C    0.966
    44   6 C    3.992 --    41 C    1.007    47 C    1.001    46 H    0.981
                            45 H    0.971
    45   1 H    0.995 --    44 C    0.971
    46   1 H    0.998 --    44 C    0.981
    47   6 C    3.990 --    44 C    1.001    50 C    0.981    49 H    0.962
                            48 H    0.950
    48   1 H    0.993 --    47 C    0.950
    49   1 H    0.995 --    47 C    0.962
    50   6 C    3.948 --    59 O    1.620    58 N    1.257    47 C    0.981
    51   6 C    3.993 --    55 C    1.441    53 C    1.405    52 H    0.972
                             2 C    0.110
    52   1 H    0.994 --    51 C    0.972
    53   6 C    3.967 --    54 C    1.406    51 C    1.405    58 N    0.988
    54   6 C    3.993 --     2 C    1.440    53 C    1.406     1 H    0.972
                            55 C    0.110
    55   6 C    3.992 --    51 C    1.441     4 C    1.402    56 H    0.970
                            54 C    0.110
    56   1 H    0.994 --    55 C    0.970
    57   1 H    0.994 --     5 C    0.972
    58   7 N    3.493 --    50 C    1.257    53 C    0.988    38 C    0.956
                            59 O    0.187
    59   8 O    1.947 --    50 C    1.620    58 N    0.187
    60   6 C    3.966 --    63 C    1.007    62 H    0.973    61 H    0.971
                            80 N    0.955
    61   1 H    0.997 --    60 C    0.971
    62   1 H    0.996 --    60 C    0.973
    63   6 C    3.987 --    66 C    1.007    60 C    1.007    64 H    0.978
                            65 H    0.966
    64   1 H    0.996 --    63 C    0.978
    65   1 H    0.994 --    63 C    0.966
    66   6 C    3.992 --    63 C    1.007    69 C    1.001    68 H    0.981
                            67 H    0.971
    67   1 H    0.994 --    66 C    0.971
    68   1 H    0.998 --    66 C    0.981
    69   6 C    3.990 --    66 C    1.001    72 C    0.978    71 H    0.964
                            70 H    0.952
    70   1 H    0.993 --    69 C    0.952
    71   1 H    0.995 --    69 C    0.964
    72   6 C    3.949 --    81 O    1.650    80 N    1.237    69 C    0.978
    73   6 C    3.993 --    77 C    1.441    75 C    1.405    74 H    0.972
                            83 C    0.109
    74   1 H    0.994 --    73 C    0.972
    75   6 C    3.970 --    73 C    1.405    76 C    1.404    80 N    0.994
    76   6 C    3.993 --    83 C    1.440    75 C    1.404    82 H    0.973
                            77 C    0.110
    77   6 C    3.991 --    73 C    1.441    85 C    1.402    78 H    0.970
                            76 C    0.110
    78   1 H    0.993 --    77 C    0.970
    79   1 H    0.994 --    86 C    0.972
    80   7 N    3.481 --    72 C    1.237    75 C    0.994    60 C    0.955
                            81 O    0.188
    81   8 O    1.960 --    72 C    1.650    80 N    0.188
    82   1 H    0.994 --    76 C    0.973
    83   6 C    3.993 --    76 C    1.440    85 C    1.404    84 H    0.974
                            73 C    0.109
    84   1 H    0.995 --    83 C    0.974
    85   6 C    3.963 --    83 C    1.404    77 C    1.402   112 N    0.992
    86   6 C    3.967 --    91 C    0.998    87 H    0.974    79 H    0.972
                           112 N    0.962
    87   1 H    0.996 --    86 C    0.974
    88   6 C    3.958 --   116 O    1.640   112 N    1.214    89 C    1.011
    89   6 C    3.953 --    90 C    1.428   113 N    1.223    88 C    1.011
                           114 N    0.132
    90   6 C    3.980 --    89 C    1.428    94 C    1.323    91 C    1.012
    91   6 C    3.990 --    90 C    1.012    86 C    0.998    93 H    0.962
                            92 H    0.960
    92   1 H    0.994 --    91 C    0.960
    93   1 H    0.992 --    91 C    0.962
    94   6 C    3.968 --   114 N    1.421    90 C    1.323    95 C    1.003
    95   6 C    3.951 --   117 O    1.646   115 N    1.259    94 C    1.003
    96   6 C    3.954 --    97 C    1.402   104 C    1.370   113 N    1.004
    97   6 C    3.991 --    99 C    1.435    96 C    1.402    98 H    0.974
                           102 C    0.108
    98   1 H    0.995 --    97 C    0.974
    99   6 C    3.990 --    97 C    1.435   101 C    1.378   100 H    0.971
   100   1 H    0.995 --    99 C    0.971
   101   6 C    3.933 --    99 C    1.378   102 C    1.341   118 O    1.076
   102   6 C    3.991 --   104 C    1.479   101 C    1.341   103 H    0.969
                            97 C    0.108
   103   1 H    0.992 --   102 C    0.969
   104   6 C    3.990 --   102 C    1.479    96 C    1.370   105 H    0.971
   105   1 H    0.993 --   104 C    0.971
   106   6 C    3.935 --   109 H    0.980   108 H    0.980   107 H    0.979
                           118 O    0.967
   107   1 H    0.994 --   106 C    0.979
   108   1 H    0.997 --   106 C    0.980
   109   1 H    0.996 --   106 C    0.980
   110   1 H    0.957 --   115 N    0.940
   111   1 H    0.953 --   115 N    0.939
   112   7 N    3.482 --    88 C    1.214    85 C    0.992    86 C    0.962
                           116 O    0.191
   113   7 N    3.695 --   114 N    1.223    89 C    1.223    96 C    1.004
   114   7 N    2.966 --    94 C    1.421   113 N    1.223    89 C    0.132
   115   7 N    3.375 --    95 C    1.259   110 H    0.940   111 H    0.939
                           117 O    0.192
   116   8 O    1.989 --    88 C    1.640   112 N    0.191
   117   8 O    1.961 --    95 C    1.646   115 N    0.192
   118   8 O    2.214 --   101 C    1.076   106 C    0.967
   119   6 C    3.968 --   122 C    1.007   121 H    0.972   120 H    0.970
                           139 N    0.960
   120   1 H    0.996 --   119 C    0.970
   121   1 H    0.996 --   119 C    0.972
   122   6 C    3.991 --   119 C    1.007   125 C    1.007   123 H    0.978
                           124 H    0.970
   123   1 H    0.997 --   122 C    0.978
   124   1 H    0.996 --   122 C    0.970
   125   6 C    3.994 --   122 C    1.007   128 C    1.001   127 H    0.980
                           126 H    0.975
   126   1 H    0.997 --   125 C    0.975
   127   1 H    0.997 --   125 C    0.980
   128   6 C    3.990 --   125 C    1.001   131 C    0.979   130 H    0.962
                           129 H    0.953
   129   1 H    0.994 --   128 C    0.953
   130   1 H    0.994 --   128 C    0.962
   131   6 C    3.950 --   140 O    1.616   139 N    1.266   128 C    0.979
   132   6 C    3.993 --   136 C    1.441   134 C    1.405   133 H    0.972
                           142 C    0.110
   133   1 H    0.994 --   132 C    0.972
   134   6 C    3.964 --   135 C    1.406   132 C    1.405   139 N    0.983
   135   6 C    3.993 --   142 C    1.440   134 C    1.406   141 H    0.973
                           136 C    0.109
   136   6 C    3.993 --   132 C    1.441   144 C    1.401   137 H    0.973
                           135 C    0.109
   137   1 H    0.994 --   136 C    0.973
   138   1 H    0.995 --   145 C    0.974
   139   7 N    3.500 --   131 C    1.266   134 C    0.983   119 C    0.960
                           140 O    0.190
   140   8 O    1.945 --   131 C    1.616   139 N    0.190
   141   1 H    0.994 --   135 C    0.973
   142   6 C    3.988 --   135 C    1.440   144 C    1.402   143 H    0.966
                           132 C    0.110
   143   1 H    0.991 --   142 C    0.966
   144   6 C    3.968 --   142 C    1.402   136 C    1.401   171 N    1.003
   145   6 C    3.968 --   150 C    0.998   138 H    0.974   146 H    0.973
                           171 N    0.961
   146   1 H    0.996 --   145 C    0.973
   147   6 C    3.956 --   175 O    1.666   171 N    1.193   148 C    1.009
   148   6 C    3.954 --   149 C    1.430   172 N    1.225   147 C    1.009
                           173 N    0.134
   149   6 C    3.980 --   148 C    1.430   153 C    1.325   150 C    1.011
   150   6 C    3.990 --   149 C    1.011   145 C    0.998   152 H    0.962
                           151 H    0.961
   151   1 H    0.994 --   150 C    0.961
   152   1 H    0.993 --   150 C    0.962
   153   6 C    3.967 --   173 N    1.423   149 C    1.325   154 C    0.998
   154   6 C    3.953 --   176 O    1.643   174 N    1.272   153 C    0.998
   155   6 C    3.953 --   156 C    1.398   163 C    1.372   172 N    1.003
   156   6 C    3.988 --   158 C    1.439   155 C    1.398   157 H    0.967
                           161 C    0.105
   157   1 H    0.992 --   156 C    0.967
   158   6 C    3.988 --   156 C    1.439   160 C    1.378   159 H    0.962
                           163 C    0.101
   159   1 H    0.990 --   158 C    0.962
   160   6 C    3.932 --   158 C    1.378   161 C    1.346   177 O    1.069
   161   6 C    3.991 --   163 C    1.472   160 C    1.346   162 H    0.974
                           156 C    0.105
   162   1 H    0.995 --   161 C    0.974
   163   6 C    3.991 --   161 C    1.472   155 C    1.372   164 H    0.973
                           158 C    0.101
   164   1 H    0.994 --   163 C    0.973
   165   6 C    3.933 --   166 H    0.981   167 H    0.980   168 H    0.977
                           177 O    0.965
   166   1 H    0.996 --   165 C    0.981
   167   1 H    0.996 --   165 C    0.980
   168   1 H    0.994 --   165 C    0.977
   169   1 H    0.948 --   174 N    0.921
   170   1 H    0.958 --   174 N    0.944
   171   7 N    3.468 --   147 C    1.193   144 C    1.003   145 C    0.961
                           175 O    0.185
   172   7 N    3.691 --   148 C    1.225   173 N    1.216   155 C    1.003
   173   7 N    2.959 --   153 C    1.423   172 N    1.216   148 C    0.134
   174   7 N    3.384 --   154 C    1.272   170 H    0.944   169 H    0.921
                           176 O    0.197
   175   8 O    2.008 --   147 C    1.666   171 N    0.185
   176   8 O    1.960 --   154 C    1.643   174 N    0.197
   177   8 O    2.202 --   160 C    1.069   165 C    0.965
   178   6 C    3.990 --   223 C    1.001   226 C    0.979   180 H    0.962
                           179 H    0.952
   179   1 H    0.994 --   178 C    0.952
   180   1 H    0.994 --   178 C    0.962
   181   8 O    1.948 --   226 C    1.620   236 N    0.189
   182   6 C    3.932 --   206 C    1.379   183 C    1.345   189 O    1.069
   183   6 C    3.991 --   207 C    1.473   182 C    1.345   184 H    0.972
                           204 C    0.106
   184   1 H    0.995 --   183 C    0.972
   185   6 C    3.934 --   187 H    0.981   186 H    0.981   188 H    0.977
                           189 O    0.966
   186   1 H    0.995 --   185 C    0.981
   187   1 H    0.996 --   185 C    0.981
   188   1 H    0.995 --   185 C    0.977
   189   8 O    2.202 --   182 C    1.069   185 C    0.966
   190   6 C    3.968 --   232 C    1.401   234 C    1.401   211 N    1.003
   191   1 H    0.995 --   234 C    0.973
   192   6 C    3.967 --   198 C    0.998   194 H    0.973   193 H    0.973
                           211 N    0.961
   193   1 H    0.996 --   192 C    0.973
   194   1 H    0.995 --   192 C    0.973
   195   6 C    3.956 --   215 O    1.664   211 N    1.194   196 C    1.010
   196   6 C    3.955 --   197 C    1.431   212 N    1.223   195 C    1.010
                           213 N    0.135
   197   6 C    3.980 --   196 C    1.431   201 C    1.324   198 C    1.011
   198   6 C    3.990 --   197 C    1.011   192 C    0.998   199 H    0.962
                           200 H    0.962
   199   1 H    0.995 --   198 C    0.962
   200   1 H    0.992 --   198 C    0.962
   201   6 C    3.968 --   213 N    1.427   197 C    1.324   202 C    0.997
   202   6 C    3.953 --   216 O    1.639   214 N    1.276   201 C    0.997
   203   6 C    3.955 --   204 C    1.399   207 C    1.373   212 N    1.005
   204   6 C    3.987 --   206 C    1.438   203 C    1.399   205 H    0.966
                           183 C    0.106
   205   1 H    0.991 --   204 C    0.966
   206   6 C    3.991 --   204 C    1.438   182 C    1.379   235 H    0.969
                           207 C    0.101
   207   6 C    3.991 --   183 C    1.473   203 C    1.373   208 H    0.973
                           206 C    0.101
   208   1 H    0.994 --   207 C    0.973
   209   1 H    0.947 --   214 N    0.919
   210   1 H    0.957 --   214 N    0.942
   211   7 N    3.467 --   195 C    1.194   190 C    1.003   192 C    0.961
                           215 O    0.184
   212   7 N    3.690 --   196 C    1.223   213 N    1.214   203 C    1.005
   213   7 N    2.960 --   201 C    1.427   212 N    1.214   196 C    0.135
   214   7 N    3.389 --   202 C    1.276   210 H    0.942   209 H    0.919
                           216 O    0.198
   215   8 O    2.005 --   195 C    1.664   211 N    0.184
   216   8 O    1.960 --   202 C    1.639   214 N    0.198
   217   6 C    3.968 --   220 C    1.007   219 H    0.973   218 H    0.971
                           236 N    0.960
   218   1 H    0.996 --   217 C    0.971
   219   1 H    0.996 --   217 C    0.973
   220   6 C    3.991 --   217 C    1.007   223 C    1.007   221 H    0.979
                           222 H    0.970
   221   1 H    0.997 --   220 C    0.979
   222   1 H    0.996 --   220 C    0.970
   223   6 C    3.993 --   220 C    1.007   178 C    1.001   225 H    0.980
                           224 H    0.976
   224   1 H    0.997 --   223 C    0.976
   225   1 H    0.997 --   223 C    0.980
   226   6 C    3.950 --   181 O    1.620   236 N    1.262   178 C    0.979
   227   6 C    3.993 --   234 C    1.441   229 C    1.405   228 H    0.973
                           232 C    0.110
   228   1 H    0.995 --   227 C    0.973
   229   6 C    3.964 --   230 C    1.406   227 C    1.405   236 N    0.984
   230   6 C    3.994 --   232 C    1.440   229 C    1.406   231 H    0.973
                           234 C    0.109
   231   1 H    0.995 --   230 C    0.973
   232   6 C    3.988 --   230 C    1.440   190 C    1.401   233 H    0.967
                           227 C    0.110
   233   1 H    0.990 --   232 C    0.967
   234   6 C    3.993 --   227 C    1.441   190 C    1.401   191 H    0.973
                           230 C    0.109
   235   1 H    0.994 --   206 C    0.969
   236   7 N    3.496 --   226 C    1.262   229 C    0.984   217 C    0.960
                           181 O    0.189
   237   6 C    3.990 --   282 C    1.001   285 C    0.980   239 H    0.961
                           238 H    0.953
   238   1 H    0.994 --   237 C    0.953
   239   1 H    0.994 --   237 C    0.961
   240   8 O    1.952 --   285 C    1.625   295 N    0.188
   241   6 C    3.932 --   265 C    1.379   242 C    1.345   248 O    1.069
   242   6 C    3.991 --   266 C    1.472   241 C    1.345   243 H    0.972
                           263 C    0.107
   243   1 H    0.995 --   242 C    0.972
   244   6 C    3.933 --   246 H    0.981   245 H    0.977   247 H    0.976
                           248 O    0.965
   245   1 H    0.995 --   244 C    0.977
   246   1 H    0.997 --   244 C    0.981
   247   1 H    0.994 --   244 C    0.976
   248   8 O    2.202 --   241 C    1.069   244 C    0.965
   249   6 C    3.968 --   291 C    1.402   293 C    1.401   270 N    1.002
   250   1 H    0.995 --   293 C    0.974
   251   6 C    3.967 --   257 C    0.998   253 H    0.974   252 H    0.972
                           270 N    0.961
   252   1 H    0.996 --   251 C    0.972
   253   1 H    0.995 --   251 C    0.974
   254   6 C    3.956 --   274 O    1.662   270 N    1.198   255 C    1.009
   255   6 C    3.955 --   256 C    1.432   271 N    1.223   254 C    1.009
                           272 N    0.136
   256   6 C    3.980 --   255 C    1.432   260 C    1.324   257 C    1.011
   257   6 C    3.990 --   256 C    1.011   251 C    0.998   259 H    0.962
                           258 H    0.962
   258   1 H    0.994 --   257 C    0.962
   259   1 H    0.992 --   257 C    0.962
   260   6 C    3.968 --   272 N    1.427   256 C    1.324   261 C    0.998
   261   6 C    3.953 --   275 O    1.640   273 N    1.275   260 C    0.998
   262   6 C    3.956 --   263 C    1.399   266 C    1.373   271 N    1.006
   263   6 C    3.987 --   265 C    1.437   262 C    1.399   264 H    0.966
                           242 C    0.107
   264   1 H    0.991 --   263 C    0.966
   265   6 C    3.991 --   263 C    1.437   241 C    1.379   294 H    0.969
                           266 C    0.101
   266   6 C    3.991 --   242 C    1.472   262 C    1.373   267 H    0.973
                           265 C    0.101
   267   1 H    0.994 --   266 C    0.973
   268   1 H    0.947 --   273 N    0.919
   269   1 H    0.957 --   273 N    0.942
   270   7 N    3.471 --   254 C    1.198   249 C    1.002   251 C    0.961
                           274 O    0.185
   271   7 N    3.689 --   255 C    1.223   272 N    1.213   262 C    1.006
   272   7 N    2.959 --   260 C    1.427   271 N    1.213   255 C    0.136
   273   7 N    3.387 --   261 C    1.275   269 H    0.942   268 H    0.919
                           275 O    0.197
   274   8 O    2.004 --   254 C    1.662   270 N    0.185
   275   8 O    1.960 --   261 C    1.640   273 N    0.197
   276   6 C    3.969 --   279 C    1.007   278 H    0.973   277 H    0.972
                           295 N    0.960
   277   1 H    0.996 --   276 C    0.972
   278   1 H    0.996 --   276 C    0.973
   279   6 C    3.991 --   276 C    1.007   282 C    1.006   280 H    0.979
                           281 H    0.971
   280   1 H    0.997 --   279 C    0.979
   281   1 H    0.996 --   279 C    0.971
   282   6 C    3.993 --   279 C    1.006   237 C    1.001   284 H    0.981
                           283 H    0.976
   283   1 H    0.997 --   282 C    0.976
   284   1 H    0.997 --   282 C    0.981
   285   6 C    3.949 --   240 O    1.625   295 N    1.258   237 C    0.980
   286   6 C    3.994 --   293 C    1.441   288 C    1.405   287 H    0.975
                           291 C    0.110
   287   1 H    0.996 --   286 C    0.975
   288   6 C    3.965 --   289 C    1.406   286 C    1.405   295 N    0.986
   289   6 C    3.993 --   291 C    1.440   288 C    1.406   290 H    0.973
                           293 C    0.109
   290   1 H    0.995 --   289 C    0.973
   291   6 C    3.988 --   289 C    1.440   249 C    1.402   292 H    0.967
                           286 C    0.110
   292   1 H    0.990 --   291 C    0.967
   293   6 C    3.993 --   286 C    1.441   249 C    1.401   250 H    0.974
                           289 C    0.109
   294   1 H    0.994 --   265 C    0.969
   295   7 N    3.493 --   285 C    1.258   288 C    0.986   276 C    0.960
                           240 O    0.188
   296   6 C    3.969 --   299 C    1.007   298 H    0.974   297 H    0.972
                           315 N    0.958
   297   1 H    0.997 --   296 C    0.972
   298   1 H    0.997 --   296 C    0.974
   299   6 C    3.989 --   302 C    1.007   296 C    1.007   300 H    0.977
                           301 H    0.968
   300   1 H    0.996 --   299 C    0.977
   301   1 H    0.995 --   299 C    0.968
   302   6 C    3.992 --   299 C    1.007   351 C    1.001   304 H    0.981
                           303 H    0.971
   303   1 H    0.995 --   302 C    0.971
   304   1 H    0.998 --   302 C    0.981
   305   6 C    3.949 --   354 O    1.637   315 N    1.249   351 C    0.979
   306   6 C    3.994 --   313 C    1.442   308 C    1.405   307 H    0.974
                           311 C    0.110
   307   1 H    0.995 --   306 C    0.974
   308   6 C    3.968 --   309 C    1.406   306 C    1.405   315 N    0.990
   309   6 C    3.993 --   311 C    1.440   308 C    1.406   310 H    0.973
                           313 C    0.109
   310   1 H    0.994 --   309 C    0.973
   311   6 C    3.989 --   309 C    1.440   316 C    1.403   312 H    0.967
                           306 C    0.110
   312   1 H    0.992 --   311 C    0.967
   313   6 C    3.993 --   306 C    1.442   316 C    1.402   317 H    0.974
                           309 C    0.109
   314   1 H    0.991 --   332 C    0.964
   315   7 N    3.488 --   305 C    1.249   308 C    0.990   296 C    0.958
                           354 O    0.188
   316   6 C    3.966 --   311 C    1.403   313 C    1.402   337 N    0.998
   317   1 H    0.995 --   313 C    0.974
   318   6 C    3.969 --   324 C    0.998   320 H    0.974   319 H    0.974
                           337 N    0.962
   319   1 H    0.997 --   318 C    0.974
   320   1 H    0.995 --   318 C    0.974
   321   6 C    3.957 --   341 O    1.655   337 N    1.202   322 C    1.010
   322   6 C    3.954 --   323 C    1.430   338 N    1.225   321 C    1.010
                           339 N    0.132
   323   6 C    3.980 --   322 C    1.430   327 C    1.324   324 C    1.012
   324   6 C    3.990 --   323 C    1.012   318 C    0.998   326 H    0.964
                           325 H    0.961
   325   1 H    0.994 --   324 C    0.961
   326   1 H    0.993 --   324 C    0.964
   327   6 C    3.968 --   339 N    1.421   323 C    1.324   328 C    1.002
   328   6 C    3.951 --   342 O    1.658   340 N    1.250   327 C    1.002
   329   6 C    3.953 --   330 C    1.400   333 C    1.372   338 N    1.003
   330   6 C    3.988 --   332 C    1.437   329 C    1.400   331 H    0.967
                           349 C    0.107
   331   1 H    0.992 --   330 C    0.967
   332   6 C    3.988 --   330 C    1.437   348 C    1.380   314 H    0.964
                           333 C    0.101
   333   6 C    3.990 --   349 C    1.475   329 C    1.372   334 H    0.973
                           332 C    0.101
   334   1 H    0.994 --   333 C    0.973
   335   1 H    0.958 --   340 N    0.942
   336   1 H    0.955 --   340 N    0.942
   337   7 N    3.472 --   321 C    1.202   316 C    0.998   318 C    0.962
                           341 O    0.186
   338   7 N    3.694 --   322 C    1.225   339 N    1.221   329 C    1.003
   339   7 N    2.964 --   327 C    1.421   338 N    1.221   322 C    0.132
   340   7 N    3.367 --   328 C    1.250   336 H    0.942   335 H    0.942
                           342 O    0.191
   341   8 O    1.999 --   321 C    1.655   337 N    0.186
   342   8 O    1.970 --   328 C    1.658   340 N    0.191
   343   6 C    3.934 --   345 H    0.980   346 H    0.979   344 H    0.976
                           347 O    0.965
   344   1 H    0.995 --   343 C    0.976
   345   1 H    0.997 --   343 C    0.980
   346   1 H    0.996 --   343 C    0.979
   347   8 O    2.203 --   348 C    1.069   343 C    0.965
   348   6 C    3.933 --   332 C    1.380   349 C    1.345   347 O    1.069
   349   6 C    3.991 --   333 C    1.475   348 C    1.345   350 H    0.973
                           330 C    0.107
   350   1 H    0.994 --   349 C    0.973
   351   6 C    3.990 --   302 C    1.001   305 C    0.979   353 H    0.963
                           352 H    0.952
   352   1 H    0.994 --   351 C    0.952
   353   1 H    0.995 --   351 C    0.963
   354   8 O    1.951 --   305 C    1.637   315 N    0.188
   355   6 C    3.967 --   358 C    1.007   357 H    0.972   356 H    0.971
                           374 N    0.958
   356   1 H    0.997 --   355 C    0.971
   357   1 H    0.996 --   355 C    0.972
   358   6 C    3.991 --   355 C    1.007   361 C    1.006   359 H    0.979
                           360 H    0.970
   359   1 H    0.997 --   358 C    0.979
   360   1 H    0.996 --   358 C    0.970
   361   6 C    3.994 --   358 C    1.006   410 C    1.002   363 H    0.981
                           362 H    0.977
   362   1 H    0.997 --   361 C    0.977
   363   1 H    0.997 --   361 C    0.981
   364   6 C    3.949 --   413 O    1.642   374 N    1.245   410 C    0.979
   365   6 C    3.994 --   372 C    1.441   367 C    1.405   366 H    0.974
                           370 C    0.109
   366   1 H    0.995 --   365 C    0.974
   367   6 C    3.969 --   368 C    1.405   365 C    1.405   374 N    0.992
   368   6 C    3.993 --   370 C    1.440   367 C    1.405   369 H    0.973
                           372 C    0.110
   369   1 H    0.994 --   368 C    0.973
   370   6 C    3.992 --   368 C    1.440   375 C    1.403   371 H    0.973
                           365 C    0.109
   371   1 H    0.994 --   370 C    0.973
   372   6 C    3.992 --   365 C    1.441   375 C    1.401   376 H    0.970
                           368 C    0.110
   373   1 H    0.993 --   391 C    0.969
   374   7 N    3.486 --   364 C    1.245   367 C    0.992   355 C    0.958
                           413 O    0.187
   375   6 C    3.965 --   370 C    1.403   372 C    1.401   396 N    0.997
   376   1 H    0.994 --   372 C    0.970
   377   6 C    3.964 --   383 C    0.998   378 H    0.972   379 H    0.972
                           396 N    0.960
   378   1 H    0.995 --   377 C    0.972
   379   1 H    0.994 --   377 C    0.972
   380   6 C    3.957 --   400 O    1.650   396 N    1.206   381 C    1.011
   381   6 C    3.953 --   382 C    1.428   397 N    1.223   380 C    1.011
                           398 N    0.133
   382   6 C    3.980 --   381 C    1.428   386 C    1.325   383 C    1.012
   383   6 C    3.989 --   382 C    1.012   377 C    0.998   384 H    0.961
                           385 H    0.960
   384   1 H    0.995 --   383 C    0.961
   385   1 H    0.992 --   383 C    0.960
   386   6 C    3.967 --   398 N    1.422   382 C    1.325   387 C    0.999
   387   6 C    3.953 --   401 O    1.637   399 N    1.276   386 C    0.999
   388   6 C    3.953 --   389 C    1.398   392 C    1.370   397 N    1.004
   389   6 C    3.991 --   391 C    1.439   388 C    1.398   390 H    0.973
                           408 C    0.106
   390   1 H    0.995 --   389 C    0.973
   391   6 C    3.991 --   389 C    1.439   407 C    1.376   373 H    0.969
   392   6 C    3.991 --   408 C    1.476   388 C    1.370   393 H    0.973
   393   1 H    0.994 --   392 C    0.973
   394   1 H    0.947 --   399 N    0.919
   395   1 H    0.956 --   399 N    0.941
   396   7 N    3.476 --   380 C    1.206   375 C    0.997   377 C    0.960
                           400 O    0.189
   397   7 N    3.692 --   381 C    1.223   398 N    1.218   388 C    1.004
   398   7 N    2.961 --   386 C    1.422   397 N    1.218   381 C    0.133
   399   7 N    3.387 --   387 C    1.276   395 H    0.941   394 H    0.919
                           401 O    0.197
   400   8 O    1.996 --   380 C    1.650   396 N    0.189
   401   8 O    1.957 --   387 C    1.637   399 N    0.197
   402   6 C    3.931 --   404 H    0.981   403 H    0.977   405 H    0.976
                           406 O    0.964
   403   1 H    0.995 --   402 C    0.977
   404   1 H    0.997 --   402 C    0.981
   405   1 H    0.994 --   402 C    0.976
   406   8 O    2.212 --   407 C    1.077   402 C    0.964
   407   6 C    3.934 --   391 C    1.376   408 C    1.342   406 O    1.077
   408   6 C    3.991 --   392 C    1.476   407 C    1.342   409 H    0.971
                           389 C    0.106
   409   1 H    0.994 --   408 C    0.971
   410   6 C    3.990 --   361 C    1.002   364 C    0.979   412 H    0.963
                           411 H    0.953
   411   1 H    0.994 --   410 C    0.953
   412   1 H    0.994 --   410 C    0.963
   413   8 O    1.963 --   364 C    1.642   374 N    0.187
   414   6 C    3.990 --   459 C    1.001   462 C    0.977   416 H    0.964
                           415 H    0.952
   415   1 H    0.993 --   414 C    0.952
   416   1 H    0.995 --   414 C    0.964
   417   8 O    1.960 --   462 C    1.650   472 N    0.189
   418   6 C    3.933 --   442 C    1.377   419 C    1.344   425 O    1.074
   419   6 C    3.991 --   443 C    1.476   418 C    1.344   420 H    0.972
                           440 C    0.106
   420   1 H    0.993 --   419 C    0.972
   421   6 C    3.933 --   423 H    0.980   424 H    0.980   422 H    0.979
                           425 O    0.965
   422   1 H    0.994 --   421 C    0.979
   423   1 H    0.996 --   421 C    0.980
   424   1 H    0.996 --   421 C    0.980
   425   8 O    2.210 --   418 C    1.074   421 C    0.965
   426   6 C    3.963 --   468 C    1.404   470 C    1.402   447 N    0.993
   427   1 H    0.993 --   470 C    0.970
   428   6 C    3.967 --   434 C    0.998   429 H    0.974   430 H    0.973
                           447 N    0.962
   429   1 H    0.997 --   428 C    0.974
   430   1 H    0.994 --   428 C    0.973
   431   6 C    3.958 --   451 O    1.640   447 N    1.213   432 C    1.011
   432   6 C    3.952 --   433 C    1.427   448 N    1.222   431 C    1.011
                           449 N    0.132
   433   6 C    3.981 --   432 C    1.427   437 C    1.324   434 C    1.013
   434   6 C    3.989 --   433 C    1.013   428 C    0.998   436 H    0.962
                           435 H    0.960
   435   1 H    0.994 --   434 C    0.960
   436   1 H    0.992 --   434 C    0.962
   437   6 C    3.968 --   449 N    1.420   433 C    1.324   438 C    1.002
   438   6 C    3.951 --   452 O    1.654   450 N    1.253   437 C    1.002
   439   6 C    3.952 --   440 C    1.399   443 C    1.371   448 N    1.002
   440   6 C    3.991 --   442 C    1.438   439 C    1.399   441 H    0.973
                           419 C    0.106
   441   1 H    0.995 --   440 C    0.973
   442   6 C    3.988 --   440 C    1.438   418 C    1.377   471 H    0.963
   443   6 C    3.990 --   419 C    1.476   439 C    1.371   444 H    0.972
   444   1 H    0.994 --   443 C    0.972
   445   1 H    0.957 --   450 N    0.941
   446   1 H    0.954 --   450 N    0.941
   447   7 N    3.481 --   431 C    1.213   426 C    0.993   428 C    0.962
                           451 O    0.191
   448   7 N    3.693 --   449 N    1.223   432 C    1.222   439 C    1.002
   449   7 N    2.965 --   437 C    1.420   448 N    1.223   432 C    0.132
   450   7 N    3.370 --   438 C    1.253   445 H    0.941   446 H    0.941
                           452 O    0.192
   451   8 O    1.989 --   431 C    1.640   447 N    0.191
   452   8 O    1.968 --   438 C    1.654   450 N    0.192
   453   6 C    3.966 --   456 C    1.007   455 H    0.972   454 H    0.971
                           472 N    0.955
   454   1 H    0.997 --   453 C    0.971
   455   1 H    0.996 --   453 C    0.972
   456   6 C    3.987 --   459 C    1.007   453 C    1.007   457 H    0.976
                           458 H    0.965
   457   1 H    0.996 --   456 C    0.976
   458   1 H    0.993 --   456 C    0.965
   459   6 C    3.992 --   456 C    1.007   414 C    1.001   461 H    0.981
                           460 H    0.971
   460   1 H    0.995 --   459 C    0.971
   461   1 H    0.998 --   459 C    0.981
   462   6 C    3.950 --   417 O    1.650   472 N    1.240   414 C    0.977
   463   6 C    3.993 --   470 C    1.442   465 C    1.405   464 H    0.972
                           468 C    0.109
   464   1 H    0.994 --   463 C    0.972
   465   6 C    3.970 --   463 C    1.405   466 C    1.404   472 N    0.993
   466   6 C    3.993 --   468 C    1.440   465 C    1.404   467 H    0.972
                           470 C    0.110
   467   1 H    0.994 --   466 C    0.972
   468   6 C    3.993 --   466 C    1.440   426 C    1.404   469 H    0.972
                           463 C    0.109
   469   1 H    0.995 --   468 C    0.972
   470   6 C    3.991 --   463 C    1.442   426 C    1.402   427 H    0.970
                           466 C    0.110
   471   1 H    0.990 --   442 C    0.963
   472   7 N    3.483 --   462 C    1.240   465 C    0.993   453 C    0.955
                           417 O    0.189
   473   6 C    3.990 --   518 C    1.001   521 C    0.978   475 H    0.964
                           474 H    0.952
   474   1 H    0.994 --   473 C    0.952
   475   1 H    0.995 --   473 C    0.964
   476   8 O    1.960 --   521 C    1.652   531 N    0.187
   477   6 C    3.934 --   501 C    1.377   478 C    1.342   484 O    1.076
   478   6 C    3.991 --   502 C    1.477   477 C    1.342   479 H    0.971
                           499 C    0.106
   479   1 H    0.993 --   478 C    0.971
   480   6 C    3.932 --   482 H    0.980   483 H    0.979   481 H    0.976
                           484 O    0.964
   481   1 H    0.994 --   480 C    0.976
   482   1 H    0.997 --   480 C    0.980
   483   1 H    0.995 --   480 C    0.979
   484   8 O    2.212 --   477 C    1.076   480 C    0.964
   485   6 C    3.963 --   527 C    1.404   529 C    1.401   506 N    0.994
   486   1 H    0.993 --   529 C    0.971
   487   6 C    3.967 --   493 C    0.998   488 H    0.974   489 H    0.973
                           506 N    0.962
   488   1 H    0.996 --   487 C    0.974
   489   1 H    0.994 --   487 C    0.973
   490   6 C    3.957 --   510 O    1.642   506 N    1.210   491 C    1.012
   491   6 C    3.952 --   492 C    1.426   507 N    1.224   490 C    1.012
                           508 N    0.130
   492   6 C    3.980 --   491 C    1.426   496 C    1.325   493 C    1.012
   493   6 C    3.989 --   492 C    1.012   487 C    0.998   495 H    0.962
                           494 H    0.960
   494   1 H    0.994 --   493 C    0.960
   495   1 H    0.992 --   493 C    0.962
   496   6 C    3.967 --   508 N    1.418   492 C    1.325   497 C    1.002
   497   6 C    3.951 --   511 O    1.653   509 N    1.253   496 C    1.002
   498   6 C    3.951 --   499 C    1.399   502 C    1.370   507 N    1.002
   499   6 C    3.991 --   501 C    1.438   498 C    1.399   500 H    0.974
                           478 C    0.106
   500   1 H    0.995 --   499 C    0.974
   501   6 C    3.988 --   499 C    1.438   477 C    1.377   530 H    0.963
   502   6 C    3.990 --   478 C    1.477   498 C    1.370   503 H    0.972
   503   1 H    0.994 --   502 C    0.972
   504   1 H    0.957 --   509 N    0.941
   505   1 H    0.954 --   509 N    0.941
   506   7 N    3.478 --   490 C    1.210   485 C    0.994   487 C    0.962
                           510 O    0.189
   507   7 N    3.696 --   508 N    1.226   491 C    1.224   498 C    1.002
   508   7 N    2.965 --   496 C    1.418   507 N    1.226   491 C    0.130
   509   7 N    3.369 --   497 C    1.253   504 H    0.941   505 H    0.941
                           511 O    0.192
   510   8 O    1.991 --   490 C    1.642   506 N    0.189
   511   8 O    1.966 --   497 C    1.653   509 N    0.192
   512   6 C    3.967 --   515 C    1.006   514 H    0.973   513 H    0.972
                           531 N    0.956
   513   1 H    0.997 --   512 C    0.972
   514   1 H    0.997 --   512 C    0.973
   515   6 C    3.989 --   518 C    1.007   512 C    1.006   516 H    0.977
                           517 H    0.967
   516   1 H    0.996 --   515 C    0.977
   517   1 H    0.995 --   515 C    0.967
   518   6 C    3.992 --   515 C    1.007   473 C    1.001   520 H    0.981
                           519 H    0.971
   519   1 H    0.995 --   518 C    0.971
   520   1 H    0.998 --   518 C    0.981
   521   6 C    3.949 --   476 O    1.652   531 N    1.237   473 C    0.978
   522   6 C    3.994 --   529 C    1.442   524 C    1.405   523 H    0.974
                           527 C    0.109
   523   1 H    0.995 --   522 C    0.974
   524   6 C    3.971 --   522 C    1.405   525 C    1.404   531 N    0.995
   525   6 C    3.993 --   527 C    1.440   524 C    1.404   526 H    0.972
                           529 C    0.110
   526   1 H    0.994 --   525 C    0.972
   527   6 C    3.993 --   525 C    1.440   485 C    1.404   528 H    0.972
                           522 C    0.109
   528   1 H    0.995 --   527 C    0.972
   529   6 C    3.991 --   522 C    1.442   485 C    1.401   486 H    0.971
                           525 C    0.110
   530   1 H    0.990 --   501 C    0.963
   531   7 N    3.480 --   521 C    1.237   524 C    0.995   512 C    0.956
                           476 O    0.187
   532   6 C    3.968 --   535 C    1.007   534 H    0.973   533 H    0.971
                           552 N    0.958
   533   1 H    0.997 --   532 C    0.971
   534   1 H    0.996 --   532 C    0.973
   535   6 C    3.991 --   532 C    1.007   538 C    1.006   536 H    0.979
                           537 H    0.970
   536   1 H    0.997 --   535 C    0.979
   537   1 H    0.996 --   535 C    0.970
   538   6 C    3.994 --   535 C    1.006   541 C    1.002   540 H    0.981
                           539 H    0.977
   539   1 H    0.997 --   538 C    0.977
   540   1 H    0.997 --   538 C    0.981
   541   6 C    3.990 --   538 C    1.002   544 C    0.976   543 H    0.964
                           542 H    0.954
   542   1 H    0.994 --   541 C    0.954
   543   1 H    0.994 --   541 C    0.964
   544   6 C    3.950 --   553 O    1.656   552 N    1.239   541 C    0.976
   545   6 C    3.994 --   549 C    1.441   547 C    1.406   546 H    0.973
                           555 C    0.109
   546   1 H    0.995 --   545 C    0.973
   547   6 C    3.969 --   545 C    1.406   548 C    1.404   552 N    0.993
   548   6 C    3.993 --   555 C    1.440   547 C    1.404   554 H    0.973
                           549 C    0.110
   549   6 C    3.991 --   545 C    1.441   557 C    1.402   550 H    0.970
                           548 C    0.110
   550   1 H    0.993 --   549 C    0.970
   551   1 H    0.994 --   558 C    0.973
   552   7 N    3.482 --   544 C    1.239   547 C    0.993   532 C    0.958
                           553 O    0.189
   553   8 O    1.965 --   544 C    1.656   552 N    0.189
   554   1 H    0.994 --   548 C    0.973
   555   6 C    3.993 --   548 C    1.440   557 C    1.404   556 H    0.973
                           545 C    0.109
   556   1 H    0.995 --   555 C    0.973
   557   6 C    3.963 --   555 C    1.404   549 C    1.402   584 N    0.993
   558   6 C    3.967 --   563 C    0.998   559 H    0.974   551 H    0.973
                           584 N    0.962
   559   1 H    0.996 --   558 C    0.974
   560   6 C    3.958 --   588 O    1.641   584 N    1.213   561 C    1.011
   561   6 C    3.953 --   562 C    1.428   585 N    1.223   560 C    1.011
                           586 N    0.132
   562   6 C    3.981 --   561 C    1.428   566 C    1.323   563 C    1.012
   563   6 C    3.990 --   562 C    1.012   558 C    0.998   565 H    0.963
                           564 H    0.960
   564   1 H    0.994 --   563 C    0.960
   565   1 H    0.992 --   563 C    0.963
   566   6 C    3.967 --   586 N    1.420   562 C    1.323   567 C    1.003
   567   6 C    3.951 --   589 O    1.644   587 N    1.260   566 C    1.003
   568   6 C    3.954 --   569 C    1.401   576 C    1.370   585 N    1.003
   569   6 C    3.991 --   571 C    1.435   568 C    1.401   570 H    0.974
                           574 C    0.108
   570   1 H    0.995 --   569 C    0.974
   571   6 C    3.990 --   569 C    1.435   573 C    1.378   572 H    0.971
   572   1 H    0.995 --   571 C    0.971
   573   6 C    3.934 --   571 C    1.378   574 C    1.341   590 O    1.076
   574   6 C    3.991 --   576 C    1.478   573 C    1.341   575 H    0.969
                           569 C    0.108
   575   1 H    0.992 --   574 C    0.969
   576   6 C    3.990 --   574 C    1.478   568 C    1.370   577 H    0.971
   577   1 H    0.993 --   576 C    0.971
   578   6 C    3.934 --   580 H    0.981   581 H    0.980   579 H    0.975
                           590 O    0.966
   579   1 H    0.994 --   578 C    0.975
   580   1 H    0.997 --   578 C    0.981
   581   1 H    0.996 --   578 C    0.980
   582   1 H    0.957 --   587 N    0.940
   583   1 H    0.952 --   587 N    0.939
   584   7 N    3.482 --   560 C    1.213   557 C    0.993   558 C    0.962
                           588 O    0.191
   585   7 N    3.696 --   586 N    1.224   561 C    1.223   568 C    1.003
   586   7 N    2.966 --   566 C    1.420   585 N    1.224   561 C    0.132
   587   7 N    3.375 --   567 C    1.260   582 H    0.940   583 H    0.939
                           589 O    0.191
   588   8 O    1.990 --   560 C    1.641   584 N    0.191
   589   8 O    1.959 --   567 C    1.644   587 N    0.191
   590   8 O    2.213 --   573 C    1.076   578 C    0.966
   591   1 H    0.995 --   644 C    0.973
   592   6 C    3.988 --   644 C    1.440   594 C    1.403   593 H    0.968
                           641 C    0.110
   593   1 H    0.991 --   592 C    0.968
   594   6 C    3.965 --   592 C    1.403   645 C    1.402   621 N    0.997
   595   6 C    3.966 --   600 C    0.998   647 H    0.972   596 H    0.972
                           621 N    0.962
   596   1 H    0.995 --   595 C    0.972
   597   6 C    3.958 --   625 O    1.655   621 N    1.207   598 C    1.007
   598   6 C    3.955 --   599 C    1.432   622 N    1.226   597 C    1.007
                           623 N    0.133
   599   6 C    3.981 --   598 C    1.432   603 C    1.322   600 C    1.012
   600   6 C    3.990 --   599 C    1.012   595 C    0.998   602 H    0.962
                           601 H    0.961
   601   1 H    0.995 --   600 C    0.961
   602   1 H    0.992 --   600 C    0.962
   603   6 C    3.967 --   623 N    1.418   599 C    1.322   604 C    1.004
   604   6 C    3.950 --   626 O    1.647   624 N    1.255   603 C    1.004
   605   6 C    3.954 --   606 C    1.400   613 C    1.372   622 N    1.003
   606   6 C    3.987 --   608 C    1.436   605 C    1.400   607 H    0.967
                           611 C    0.108
   607   1 H    0.991 --   606 C    0.967
   608   6 C    3.991 --   606 C    1.436   610 C    1.380   609 H    0.970
   609   1 H    0.994 --   608 C    0.970
   610   6 C    3.932 --   608 C    1.380   611 C    1.344   627 O    1.070
   611   6 C    3.991 --   613 C    1.475   610 C    1.344   612 H    0.973
                           606 C    0.108
   612   1 H    0.994 --   611 C    0.973
   613   6 C    3.990 --   611 C    1.475   605 C    1.372   614 H    0.973
   614   1 H    0.994 --   613 C    0.973
   615   6 C    3.936 --   618 H    0.981   617 H    0.981   616 H    0.979
                           627 O    0.967
   616   1 H    0.994 --   615 C    0.979
   617   1 H    0.996 --   615 C    0.981
   618   1 H    0.997 --   615 C    0.981
   619   1 H    0.958 --   624 N    0.941
   620   1 H    0.954 --   624 N    0.941
   621   7 N    3.478 --   597 C    1.207   594 C    0.997   595 C    0.962
                           625 O    0.189
   622   7 N    3.694 --   598 C    1.226   623 N    1.220   605 C    1.003
   623   7 N    2.961 --   603 C    1.418   622 N    1.220   598 C    0.133
   624   7 N    3.370 --   604 C    1.255   619 H    0.941   620 H    0.941
                           626 O    0.190
   625   8 O    1.999 --   597 C    1.655   621 N    0.189
   626   8 O    1.960 --   604 C    1.647   624 N    0.190
   627   8 O    2.206 --   610 C    1.070   615 C    0.967
   628   6 C    3.966 --   631 C    1.007   630 H    0.972   629 H    0.970
                           648 N    0.956
   629   1 H    0.997 --   628 C    0.970
   630   1 H    0.996 --   628 C    0.972
   631   6 C    3.988 --   634 C    1.007   628 C    1.007   632 H    0.978
                           633 H    0.966
   632   1 H    0.996 --   631 C    0.978
   633   1 H    0.994 --   631 C    0.966
   634   6 C    3.992 --   631 C    1.007   637 C    1.001   636 H    0.981
                           635 H    0.971
   635   1 H    0.995 --   634 C    0.971
   636   1 H    0.998 --   634 C    0.981
   637   6 C    3.990 --   634 C    1.001   640 C    0.980   639 H    0.962
                           638 H    0.951
   638   1 H    0.994 --   637 C    0.951
   639   1 H    0.995 --   637 C    0.962
   640   6 C    3.948 --   649 O    1.621   648 N    1.257   637 C    0.980
   641   6 C    3.993 --   645 C    1.440   643 C    1.405   642 H    0.972
                           592 C    0.110
   642   1 H    0.995 --   641 C    0.972
   643   6 C    3.967 --   644 C    1.406   641 C    1.405   648 N    0.988
   644   6 C    3.993 --   592 C    1.440   643 C    1.406   591 H    0.973
                           645 C    0.110
   645   6 C    3.992 --   641 C    1.440   594 C    1.402   646 H    0.970
                           644 C    0.110
   646   1 H    0.994 --   645 C    0.970
   647   1 H    0.994 --   595 C    0.972
   648   7 N    3.493 --   640 C    1.257   643 C    0.988   628 C    0.956
                           649 O    0.187
   649   8 O    1.947 --   640 C    1.621   648 N    0.187
   650   1 H    0.994 --   703 C    0.972
   651   6 C    3.992 --   703 C    1.441   653 C    1.403   652 H    0.971
                           700 C    0.109
   652   1 H    0.995 --   651 C    0.971
   653   6 C    3.965 --   651 C    1.403   704 C    1.401   680 N    0.997
   654   6 C    3.968 --   659 C    0.998   655 H    0.974   706 H    0.974
                           680 N    0.961
   655   1 H    0.997 --   654 C    0.974
   656   6 C    3.957 --   684 O    1.651   680 N    1.200   657 C    1.013
   657   6 C    3.952 --   658 C    1.426   681 N    1.222   656 C    1.013
                           682 N    0.132
   658   6 C    3.980 --   657 C    1.426   662 C    1.327   659 C    1.011
   659   6 C    3.989 --   658 C    1.011   654 C    0.998   661 H    0.963
                           660 H    0.961
   660   1 H    0.994 --   659 C    0.961
   661   1 H    0.992 --   659 C    0.963
   662   6 C    3.967 --   682 N    1.425   658 C    1.327   663 C    0.997
   663   6 C    3.953 --   685 O    1.642   683 N    1.275   662 C    0.997
   664   6 C    3.952 --   665 C    1.398   672 C    1.370   681 N    1.003
   665   6 C    3.992 --   667 C    1.440   664 C    1.398   666 H    0.974
                           670 C    0.105
   666   1 H    0.995 --   665 C    0.974
   667   6 C    3.987 --   665 C    1.440   669 C    1.375   668 H    0.962
                           672 C    0.100
   668   1 H    0.989 --   667 C    0.962
   669   6 C    3.934 --   667 C    1.375   670 C    1.342   686 O    1.077
   670   6 C    3.991 --   672 C    1.475   669 C    1.342   671 H    0.971
                           665 C    0.105
   671   1 H    0.994 --   670 C    0.971
   672   6 C    3.991 --   670 C    1.475   664 C    1.370   673 H    0.973
                           667 C    0.100
   673   1 H    0.994 --   672 C    0.973
   674   6 C    3.929 --   676 H    0.981   675 H    0.977   677 H    0.975
                           686 O    0.963
   675   1 H    0.995 --   674 C    0.977
   676   1 H    0.997 --   674 C    0.981
   677   1 H    0.993 --   674 C    0.975
   678   1 H    0.947 --   683 N    0.919
   679   1 H    0.957 --   683 N    0.942
   680   7 N    3.470 --   656 C    1.200   653 C    0.997   654 C    0.961
                           684 O    0.186
   681   7 N    3.692 --   657 C    1.222   682 N    1.220   664 C    1.003
   682   7 N    2.963 --   662 C    1.425   681 N    1.220   657 C    0.132
   683   7 N    3.388 --   663 C    1.275   679 H    0.942   678 H    0.919
                           685 O    0.198
   684   8 O    1.998 --   656 C    1.651   680 N    0.186
   685   8 O    1.961 --   663 C    1.642   683 N    0.198
   686   8 O    2.211 --   669 C    1.077   674 C    0.963
   687   6 C    3.970 --   690 C    1.007   689 H    0.974   688 H    0.972
                           707 N    0.960
   688   1 H    0.997 --   687 C    0.972
   689   1 H    0.996 --   687 C    0.974
   690   6 C    3.991 --   687 C    1.007   693 C    1.006   691 H    0.978
                           692 H    0.971
   691   1 H    0.997 --   690 C    0.978
   692   1 H    0.996 --   690 C    0.971
   693   6 C    3.994 --   690 C    1.006   696 C    1.002   695 H    0.981
                           694 H    0.976
   694   1 H    0.997 --   693 C    0.976
   695   1 H    0.997 --   693 C    0.981
   696   6 C    3.990 --   693 C    1.002   699 C    0.977   698 H    0.963
                           697 H    0.953
   697   1 H    0.994 --   696 C    0.953
   698   1 H    0.994 --   696 C    0.963
   699   6 C    3.950 --   708 O    1.658   707 N    1.236   696 C    0.977
   700   6 C    3.994 --   704 C    1.442   702 C    1.405   701 H    0.974
                           651 C    0.109
   701   1 H    0.995 --   700 C    0.974
   702   6 C    3.969 --   700 C    1.405   703 C    1.405   707 N    0.992
   703   6 C    3.993 --   651 C    1.441   702 C    1.405   650 H    0.972
                           704 C    0.110
   704   6 C    3.993 --   700 C    1.442   653 C    1.401   705 H    0.974
                           703 C    0.110
   705   1 H    0.995 --   704 C    0.974
   706   1 H    0.995 --   654 C    0.974
   707   7 N    3.480 --   699 C    1.236   702 C    0.992   687 C    0.960
                           708 O    0.188
   708   8 O    1.967 --   699 C    1.658   707 N    0.188
   709   6 C    3.969 --   712 C    1.007   711 H    0.974   710 H    0.971
                           728 N    0.959
   710   1 H    0.997 --   709 C    0.971
   711   1 H    0.997 --   709 C    0.974
   712   6 C    3.989 --   715 C    1.007   709 C    1.007   713 H    0.977
                           714 H    0.968
   713   1 H    0.996 --   712 C    0.977
   714   1 H    0.995 --   712 C    0.968
   715   6 C    3.992 --   712 C    1.007   764 C    1.001   717 H    0.981
                           716 H    0.971
   716   1 H    0.995 --   715 C    0.971
   717   1 H    0.998 --   715 C    0.981
   718   6 C    3.950 --   767 O    1.634   728 N    1.253   764 C    0.978
   719   6 C    3.993 --   726 C    1.441   721 C    1.406   720 H    0.973
                           724 C    0.110
   720   1 H    0.995 --   719 C    0.973
   721   6 C    3.966 --   722 C    1.406   719 C    1.406   728 N    0.986
   722   6 C    3.994 --   724 C    1.440   721 C    1.406   723 H    0.973
                           726 C    0.110
   723   1 H    0.995 --   722 C    0.973
   724   6 C    3.989 --   722 C    1.440   729 C    1.403   725 H    0.967
                           719 C    0.110
   725   1 H    0.991 --   724 C    0.967
   726   6 C    3.993 --   719 C    1.441   729 C    1.402   730 H    0.974
                           722 C    0.110
   727   1 H    0.990 --   745 C    0.963
   728   7 N    3.491 --   718 C    1.253   721 C    0.986   709 C    0.959
                           767 O    0.190
   729   6 C    3.966 --   724 C    1.403   726 C    1.402   750 N    0.999
   730   1 H    0.995 --   726 C    0.974
   731   6 C    3.970 --   737 C    0.998   732 H    0.975   733 H    0.975
                           750 N    0.963
   732   1 H    0.997 --   731 C    0.975
   733   1 H    0.995 --   731 C    0.975
   734   6 C    3.957 --   754 O    1.665   750 N    1.197   735 C    1.008
   735   6 C    3.955 --   736 C    1.430   751 N    1.227   734 C    1.008
                           752 N    0.132
   736   6 C    3.980 --   735 C    1.430   740 C    1.324   737 C    1.011
   737   6 C    3.990 --   736 C    1.011   731 C    0.998   739 H    0.964
                           738 H    0.961
   738   1 H    0.994 --   737 C    0.961
   739   1 H    0.993 --   737 C    0.964
   740   6 C    3.967 --   752 N    1.419   736 C    1.324   741 C    1.003
   741   6 C    3.950 --   755 O    1.657   753 N    1.248   740 C    1.003
   742   6 C    3.952 --   743 C    1.399   746 C    1.372   751 N    1.002
   743   6 C    3.988 --   745 C    1.437   742 C    1.399   744 H    0.967
                           762 C    0.106
   744   1 H    0.992 --   743 C    0.967
   745   6 C    3.988 --   743 C    1.437   761 C    1.380   727 H    0.963
                           746 C    0.101
   746   6 C    3.991 --   762 C    1.474   742 C    1.372   747 H    0.973
                           745 C    0.101
   747   1 H    0.994 --   746 C    0.973
   748   1 H    0.958 --   753 N    0.942
   749   1 H    0.956 --   753 N    0.942
   750   7 N    3.468 --   734 C    1.197   729 C    0.999   731 C    0.963
                           754 O    0.187
   751   7 N    3.696 --   735 C    1.227   752 N    1.222   742 C    1.002
   752   7 N    2.963 --   740 C    1.419   751 N    1.222   735 C    0.132
   753   7 N    3.365 --   741 C    1.248   748 H    0.942   749 H    0.942
                           755 O    0.190
   754   8 O    2.008 --   734 C    1.665   750 N    0.187
   755   8 O    1.968 --   741 C    1.657   753 N    0.190
   756   6 C    3.936 --   757 H    0.980   759 H    0.980   758 H    0.980
                           760 O    0.966
   757   1 H    0.995 --   756 C    0.980
   758   1 H    0.996 --   756 C    0.980
   759   1 H    0.996 --   756 C    0.980
   760   8 O    2.201 --   761 C    1.067   756 C    0.966
   761   6 C    3.932 --   745 C    1.380   762 C    1.345   760 O    1.067
   762   6 C    3.991 --   746 C    1.474   761 C    1.345   763 H    0.973
                           743 C    0.106
   763   1 H    0.994 --   762 C    0.973
   764   6 C    3.990 --   715 C    1.001   718 C    0.978   766 H    0.963
                           765 H    0.952
   765   1 H    0.994 --   764 C    0.952
   766   1 H    0.995 --   764 C    0.963
   767   8 O    1.950 --   718 C    1.634   728 N    0.190
   768   6 C    3.966 --   771 C    1.007   770 H    0.972   769 H    0.971
                           787 N    0.957
   769   1 H    0.997 --   768 C    0.971
   770   1 H    0.995 --   768 C    0.972
   771   6 C    3.990 --   768 C    1.007   774 C    1.006   772 H    0.979
                           773 H    0.969
   772   1 H    0.996 --   771 C    0.979
   773   1 H    0.996 --   771 C    0.969
   774   6 C    3.994 --   771 C    1.006   823 C    1.001   776 H    0.981
                           775 H    0.976
   775   1 H    0.997 --   774 C    0.976
   776   1 H    0.998 --   774 C    0.981
   777   6 C    3.950 --   826 O    1.639   787 N    1.246   823 C    0.978
   778   6 C    3.993 --   785 C    1.441   780 C    1.405   779 H    0.972
                           783 C    0.109
   779   1 H    0.994 --   778 C    0.972
   780   6 C    3.968 --   778 C    1.405   781 C    1.405   787 N    0.990
   781   6 C    3.993 --   783 C    1.440   780 C    1.405   782 H    0.973
                           785 C    0.110
   782   1 H    0.994 --   781 C    0.973
   783   6 C    3.992 --   781 C    1.440   788 C    1.403   784 H    0.973
                           778 C    0.109
   784   1 H    0.995 --   783 C    0.973
   785   6 C    3.991 --   778 C    1.441   788 C    1.402   789 H    0.970
                           781 C    0.110
   786   1 H    0.994 --   804 C    0.970
   787   7 N    3.487 --   777 C    1.246   780 C    0.990   768 C    0.957
                           826 O    0.188
   788   6 C    3.964 --   783 C    1.403   785 C    1.402   809 N    0.996
   789   1 H    0.993 --   785 C    0.970
   790   6 C    3.964 --   796 C    0.998   791 H    0.972   792 H    0.971
                           809 N    0.960
   791   1 H    0.995 --   790 C    0.972
   792   1 H    0.994 --   790 C    0.971
   793   6 C    3.958 --   813 O    1.646   809 N    1.210   794 C    1.010
   794   6 C    3.953 --   795 C    1.430   810 N    1.220   793 C    1.010
                           811 N    0.134
   795   6 C    3.981 --   794 C    1.430   799 C    1.321   796 C    1.012
   796   6 C    3.989 --   795 C    1.012   790 C    0.998   797 H    0.960
                           798 H    0.960
   797   1 H    0.994 --   796 C    0.960
   798   1 H    0.991 --   796 C    0.960
   799   6 C    3.968 --   811 N    1.424   795 C    1.321   800 C    1.001
   800   6 C    3.951 --   814 O    1.646   812 N    1.260   799 C    1.001
   801   6 C    3.956 --   802 C    1.401   805 C    1.372   810 N    1.005
   802   6 C    3.991 --   804 C    1.436   801 C    1.401   803 H    0.973
                           821 C    0.107
   803   1 H    0.995 --   802 C    0.973
   804   6 C    3.991 --   802 C    1.436   820 C    1.379   786 H    0.970
   805   6 C    3.990 --   821 C    1.476   801 C    1.372   806 H    0.972
   806   1 H    0.993 --   805 C    0.972
   807   1 H    0.957 --   812 N    0.939
   808   1 H    0.953 --   812 N    0.939
   809   7 N    3.480 --   793 C    1.210   788 C    0.996   790 C    0.960
                           813 O    0.191
   810   7 N    3.691 --   794 C    1.220   811 N    1.219   801 C    1.005
   811   7 N    2.964 --   799 C    1.424   810 N    1.219   794 C    0.134
   812   7 N    3.376 --   800 C    1.260   807 H    0.939   808 H    0.939
                           814 O    0.192
   813   8 O    1.994 --   793 C    1.646   809 N    0.191
   814   8 O    1.963 --   800 C    1.646   812 N    0.192
   815   6 C    3.935 --   817 H    0.981   818 H    0.981   816 H    0.979
                           819 O    0.966
   816   1 H    0.994 --   815 C    0.979
   817   1 H    0.996 --   815 C    0.981
   818   1 H    0.996 --   815 C    0.981
   819   8 O    2.208 --   820 C    1.072   815 C    0.966
   820   6 C    3.933 --   804 C    1.379   821 C    1.344   819 O    1.072
   821   6 C    3.991 --   805 C    1.476   820 C    1.344   822 H    0.971
                           802 C    0.107
   822   1 H    0.994 --   821 C    0.971
   823   6 C    3.990 --   774 C    1.001   777 C    0.978   825 H    0.963
                           824 H    0.953
   824   1 H    0.993 --   823 C    0.953
   825   1 H    0.994 --   823 C    0.963
   826   8 O    1.962 --   777 C    1.639   787 N    0.188
   827   6 C    3.970 --   830 C    1.007   829 H    0.973   828 H    0.972
                           847 N    0.961
   828   1 H    0.997 --   827 C    0.972
   829   1 H    0.996 --   827 C    0.973
   830   6 C    3.991 --   827 C    1.007   833 C    1.006   831 H    0.978
                           832 H    0.971
   831   1 H    0.997 --   830 C    0.978
   832   1 H    0.996 --   830 C    0.971
   833   6 C    3.994 --   830 C    1.006   836 C    1.001   835 H    0.981
                           834 H    0.976
   834   1 H    0.997 --   833 C    0.976
   835   1 H    0.997 --   833 C    0.981
   836   6 C    3.991 --   833 C    1.001   839 C    0.977   838 H    0.963
                           837 H    0.954
   837   1 H    0.994 --   836 C    0.954
   838   1 H    0.995 --   836 C    0.963
   839   6 C    3.951 --   848 O    1.634   847 N    1.257   836 C    0.977
   840   6 C    3.994 --   844 C    1.441   842 C    1.405   841 H    0.975
                           850 C    0.110
   841   1 H    0.996 --   840 C    0.975
   842   6 C    3.965 --   843 C    1.406   840 C    1.405   847 N    0.985
   843   6 C    3.993 --   850 C    1.440   842 C    1.406   849 H    0.973
                           844 C    0.109
   844   6 C    3.993 --   840 C    1.441   852 C    1.401   845 H    0.974
                           843 C    0.109
   845   1 H    0.995 --   844 C    0.974
   846   1 H    0.996 --   853 C    0.975
   847   7 N    3.493 --   839 C    1.257   842 C    0.985   827 C    0.961
                           848 O    0.191
   848   8 O    1.951 --   839 C    1.634   847 N    0.191
   849   1 H    0.994 --   843 C    0.973
   850   6 C    3.988 --   843 C    1.440   852 C    1.402   851 H    0.966
                           840 C    0.110
   851   1 H    0.991 --   850 C    0.966
   852   6 C    3.968 --   850 C    1.402   844 C    1.401   879 N    1.001
   853   6 C    3.969 --   858 C    0.998   846 H    0.975   854 H    0.974
                           879 N    0.962
   854   1 H    0.997 --   853 C    0.974
   855   6 C    3.956 --   883 O    1.666   879 N    1.194   856 C    1.009
   856   6 C    3.955 --   857 C    1.430   880 N    1.225   855 C    1.009
                           881 N    0.134
   857   6 C    3.980 --   856 C    1.430   861 C    1.325   858 C    1.011
   858   6 C    3.990 --   857 C    1.011   853 C    0.998   860 H    0.963
                           859 H    0.962
   859   1 H    0.994 --   858 C    0.962
   860   1 H    0.992 --   858 C    0.963
   861   6 C    3.967 --   881 N    1.424   857 C    1.325   862 C    0.997
   862   6 C    3.954 --   884 O    1.650   882 N    1.268   861 C    0.997
   863   6 C    3.953 --   864 C    1.398   871 C    1.373   880 N    1.003
   864   6 C    3.988 --   866 C    1.439   863 C    1.398   865 H    0.967
                           869 C    0.105
   865   1 H    0.992 --   864 C    0.967
   866   6 C    3.988 --   864 C    1.439   868 C    1.379   867 H    0.962
                           871 C    0.102
   867   1 H    0.990 --   866 C    0.962
   868   6 C    3.932 --   866 C    1.379   869 C    1.346   885 O    1.068
   869   6 C    3.991 --   871 C    1.472   868 C    1.346   870 H    0.974
                           864 C    0.105
   870   1 H    0.995 --   869 C    0.974
   871   6 C    3.991 --   869 C    1.472   863 C    1.373   872 H    0.973
                           866 C    0.102
   872   1 H    0.994 --   871 C    0.973
   873   6 C    3.932 --   875 H    0.981   874 H    0.978   876 H    0.976
                           885 O    0.964
   874   1 H    0.996 --   873 C    0.978
   875   1 H    0.996 --   873 C    0.981
   876   1 H    0.994 --   873 C    0.976
   877   1 H    0.948 --   882 N    0.921
   878   1 H    0.958 --   882 N    0.944
   879   7 N    3.466 --   855 C    1.194   852 C    1.001   853 C    0.962
                           883 O    0.185
   880   7 N    3.691 --   856 C    1.225   881 N    1.215   863 C    1.003
   881   7 N    2.959 --   861 C    1.424   880 N    1.215   856 C    0.134
   882   7 N    3.382 --   862 C    1.268   878 H    0.944   877 H    0.921
                           884 O    0.199
   883   8 O    2.007 --   855 C    1.666   879 N    0.185
   884   8 O    1.967 --   862 C    1.650   882 N    0.199
   885   8 O    2.200 --   868 C    1.068   873 C    0.964
 ---------------------------------------------------------------------------

Topologies differ in total number of bonds
Writing topology from bond orders to xtbtopo.mol

molecular dipole:
                 x           y           z       tot (Debye)
 q only:        0.154       0.447       0.904
   full:        0.001       0.137       1.174       3.004
molecular quadrupole (traceless):
                xx          xy          yy          xz          yz          zz
 q only:     -494.765      98.575     219.127     177.900      57.802     275.638
  q+dip:     -507.491      81.348     138.594     171.591      38.494     368.897
   full:     -484.573      81.161     109.118     209.420      37.822     375.455


           -------------------------------------------------
          | TOTAL ENERGY            -1453.019556441219 Eh   |
          | GRADIENT NORM               3.610741885091 Eh/α |
          | HOMO-LUMO GAP               2.208795628398 eV   |
           -------------------------------------------------

------------------------------------------------------------------------
 * finished run on 2026/10/03 at 19:10:25.146     
------------------------------------------------------------------------
 total:
 * wall-time:     0 d,  0 h,  1 min, 12.613 sec
 *  cpu-time:     0 d,  0 h,  1 min, 12.234 sec
 * ratio c/w:     0.995 speedup
 SCF:
 * wall-time:     0 d,  0 h,  1 min, 10.690 sec
 *  cpu-time:     0 d,  0 h,  1 min, 10.391 sec
 * ratio c/w:     0.996 speedup

normal termination of xtb
