59
Coordinates from ORCA-job Apixaban_SMD_dmf_Opt_Freq_KeepDens E -1542.152111598949
  C      23.821044    -17.585907     -0.047241
  C      24.218688    -18.528277      1.082817
  C      25.513274    -19.294877      0.889986
  N      26.422507    -18.805437     -0.017818
  C      26.104522    -17.739219     -0.997385
  C      25.042673    -16.789428     -0.478904
  C      27.679655    -19.458427     -0.178919
  C      28.509780    -19.678851      0.924598
  C      29.743965    -20.287393      0.763855
  C      30.181099    -20.672760     -0.507646
  C      29.360729    -20.441732     -1.611088
  C      28.114451    -19.844468     -1.445839
  N      31.437039    -21.322836     -0.665041
  C      31.528566    -22.416521     -1.664673
  C      32.524780    -23.493563     -1.248401
  C      33.796910    -22.827207     -0.859722
  C      33.782687    -21.534857     -0.366674
  C      32.576496    -20.718933     -0.165748
  O      25.743763    -20.294635      1.571727
  O      32.577766    -19.631975      0.408413
  C      35.153171    -23.192685     -0.863804
  N      35.920104    -22.184835     -0.407978
  N      35.082386    -21.189329     -0.100450
  C      35.620483    -19.971729      0.421051
  C      35.741642    -24.484194     -1.290846
  N      37.092035    -24.534501     -1.305913
  O      35.016908    -25.429961     -1.610269
  C      35.284538    -19.552001      1.706902
  C      35.845753    -18.394364      2.213057
  C      36.751992    -17.651809      1.441178
  C      37.094401    -18.084398      0.156017
  C      36.521760    -19.249536     -0.348011
  O      37.244089    -16.533984      2.029670
  C      38.188974    -15.751187      1.285994
  H      23.441072    -18.162321     -0.901466
  H      23.011694    -16.926204      0.285016
  H      24.358694    -17.956069      2.011659
  H      23.442881    -19.271541      1.291820
  H      27.037237    -17.205254     -1.208620
  H      25.759886    -18.194094     -1.937395
  H      25.436130    -16.212980      0.369257
  H      24.797894    -16.080343     -1.277791
  H      28.182315    -19.377150      1.913398
  H      30.374435    -20.466801      1.628125
  H      29.685504    -20.724758     -2.607642
  H      27.485013    -19.683164     -2.315557
  H      30.530407    -22.848238     -1.766587
  H      31.824246    -21.998497     -2.637770
  H      32.132517    -24.077881     -0.404450
  H      32.674082    -24.186525     -2.080044
  H      37.647574    -23.748140     -1.004438
  H      37.554019    -25.398084     -1.547962
  H      34.590460    -20.132589      2.305159
  H      35.599540    -18.052424      3.213952
  H      37.792926    -17.531065     -0.460577
  H      36.775681    -19.590662     -1.347599
  H      37.742389    -15.362351      0.362723
  H      38.459713    -14.917571      1.936245
  H      39.087056    -16.334485      1.048654
59
Coordinates from ORCA-job Apixaban_SMD_dmf_Opt_Freq_KeepDens E -1542.152112505748
  C      23.820336    -17.585583     -0.045911
  C      24.218769    -18.528141      1.083920
  C      25.513131    -19.294958      0.889970
  N      26.421956    -18.805713     -0.018413
  C      26.103438    -17.739260     -0.997693
  C      25.041890    -16.789310     -0.478547
  C      27.679307    -19.458470     -0.179804
  C      28.509612    -19.678939      0.923563
  C      29.743913    -20.287286      0.762638
  C      30.181002    -20.672565     -0.508896
  C      29.360412    -20.441595     -1.612220
  C      28.114047    -19.844477     -1.446806
  N      31.437085    -21.322627     -0.666322
  C      31.528766    -22.416756     -1.665547
  C      32.524917    -23.493827     -1.248735
  C      33.797084    -22.827477     -0.859887
  C      33.782831    -21.535049     -0.366929
  C      32.576572    -20.718929     -0.166721
  O      25.744502    -20.293809      1.572627
  O      32.577746    -19.632267      0.407908
  C      35.153285    -23.193143     -0.863405
  N      35.920181    -22.185368     -0.407277
  N      35.082528    -21.189567     -0.100296
  C      35.620707    -19.971800      0.421088
  C      35.742038    -24.484593     -1.290263
  N      37.092492    -24.535382     -1.303538
  O      35.017395    -25.429412     -1.612538
  C      35.284547    -19.551623      1.706765
  C      35.845909    -18.393957      2.212811
  C      36.752521    -17.651734      1.441051
  C      37.095111    -18.084775      0.156039
  C      36.522358    -19.249957     -0.347868
  O      37.244590    -16.533843      2.029578
  C      38.189469    -15.750535      1.286551
  H      23.439539    -18.161912     -0.899849
  H      23.011386    -16.925696      0.287039
  H      24.359640    -17.955958      2.012681
  H      23.443031    -19.271295      1.293609
  H      27.036079    -17.205323     -1.209382
  H      25.758238    -18.194166     -1.937508
  H      25.436002    -16.212815      0.369297
  H      24.796687    -16.080276     -1.277392
  H      28.182112    -19.377770      1.912537
  H      30.374574    -20.466333      1.626861
  H      29.685051    -20.724530     -2.608860
  H      27.484514    -19.683336     -2.316494
  H      30.530573    -22.848436     -1.767431
  H      31.824579    -21.998959     -2.638736
  H      32.132338    -24.077755     -0.404632
  H      32.674413    -24.187068     -2.080128
  H      37.647957    -23.749299     -1.001117
  H      37.554540    -25.398577     -1.547038
  H      34.589933    -20.131719      2.304913
  H      35.599357    -18.051588      3.213512
  H      37.793955    -17.531775     -0.460518
  H      36.776617    -19.591527     -1.347246
  H      37.743091    -15.361790      0.363096
  H      38.459382    -14.916910      1.937208
  H      39.087961    -16.333468      1.049690
