59
Coordinates from ORCA-job Apixaban_SMD_dmf_Opt_Freq_KeepDens E -1542.152112505748
  C          23.82033614915653    -17.58558270787821     -0.04591082106259
  C          24.21876863742854    -18.52814073878350      1.08392041047316
  C          25.51313124127028    -19.29495812055814      0.88996951344192
  N          26.42195574294364    -18.80571266517887     -0.01841271758476
  C          26.10343757889849    -17.73925960308941     -0.99769305882943
  C          25.04188999525828    -16.78931042037851     -0.47854718592868
  C          27.67930670379404    -19.45846960797710     -0.17980436351308
  C          28.50961153096168    -19.67893939750611      0.92356292921650
  C          29.74391349373759    -20.28728611191898      0.76263755307534
  C          30.18100155472357    -20.67256537017737     -0.50889604438013
  C          29.36041235523550    -20.44159500529029     -1.61222040583100
  C          28.11404744008189    -19.84447675990580     -1.44680607738401
  N          31.43708464961738    -21.32262696947243     -0.66632189452278
  C          31.52876576727724    -22.41675555982625     -1.66554684766967
  C          32.52491701393262    -23.49382650331275     -1.24873541447276
  C          33.79708392188090    -22.82747749166563     -0.85988670256164
  C          33.78283100855450    -21.53504901789861     -0.36692885484468
  C          32.57657181590764    -20.71892866719408     -0.16672064514661
  O          25.74450238852242    -20.29380911542936      1.57262746974153
  O          32.57774648332144    -19.63226660992042      0.40790765021480
  C          35.15328466001591    -23.19314323742209     -0.86340517677044
  N          35.92018061892553    -22.18536771145896     -0.40727741789502
  N          35.08252809159570    -21.18956692604175     -0.10029592351671
  C          35.62070741505256    -19.97180038425582      0.42108767466336
  C          35.74203838296466    -24.48459251273923     -1.29026292386368
  N          37.09249241532505    -24.53538196850397     -1.30353765554859
  O          35.01739492765076    -25.42941162805137     -1.61253834056432
  C          35.28454739379760    -19.55162254293386      1.70676495634281
  C          35.84590892647082    -18.39395658059517      2.21281119559408
  C          36.75252092271649    -17.65173405195363      1.44105110597552
  C          37.09511133712628    -18.08477477100248      0.15603852391434
  C          36.52235759640603    -19.24995660506848     -0.34786819811244
  O          37.24459036341634    -16.53384335878707      2.02957802744274
  C          38.18946946752352    -15.75053452756887      1.28655106487130
  H          23.43953912209342    -18.16191200472302     -0.89984875693590
  H          23.01138635600511    -16.92569557894329      0.28703942381175
  H          24.35963956240401    -17.95595813532161      2.01268097562349
  H          23.44303117127003    -19.27129493577968      1.29360875135474
  H          27.03607941267885    -17.20532295116669     -1.20938171364453
  H          25.75823845979044    -18.19416586066690     -1.93750756235046
  H          25.43600190596933    -16.21281456360554      0.36929738017012
  H          24.79668671540030    -16.08027623284489     -1.27739174378162
  H          28.18211157498121    -19.37777040442175      1.91253656472500
  H          30.37457444875409    -20.46633347679419      1.62686104047795
  H          29.68505104370557    -20.72452973405919     -2.60886007238538
  H          27.48451393734058    -19.68333572673720     -2.31649418796879
  H          30.53057305691922    -22.84843570661949     -1.76743102123132
  H          31.82457935320909    -21.99895853881605     -2.63873601025326
  H          32.13233843114106    -24.07775476578759     -0.40463241240144
  H          32.67441345440300    -24.18706836135266     -2.08012827671539
  H          37.64795744706277    -23.74929909251379     -1.00111696973087
  H          37.55454049493206    -25.39857703334183     -1.54703816708291
  H          34.58993348967722    -20.13171874698105      2.30491283256803
  H          35.59935673948489    -18.05158752632974      3.21351236255116
  H          37.79395502236146    -17.53177452124869     -0.46051816030779
  H          36.77661655527270    -19.59152709160686     -1.34724625084952
  H          37.74309117179681    -15.36179003153412      0.36309624187600
  H          38.45938170537486    -14.91690966530266      1.93720828786802
  H          39.08796137648027    -16.33346806375683      1.04969005964851
