168
Coordinates from ORCA-job Dienogest_10DMF_XTB E -236.594137482540
  C          30.33268527128786    -19.55916425979069     -5.60864617946083
  C          29.92386067461219    -19.54583917066046     -7.06186628176372
  C          30.55175279175863    -20.94213198431830     -5.08092675445656
  C          30.47391192529145    -18.42599376568397     -4.89030286278309
  C          29.21137884433067    -20.87517671663362     -7.38028064134612
  C          29.15659877239495    -18.26685469623563     -7.39570053806801
  C          29.22674462023459    -21.71604596393129     -4.99928946671340
  C          30.33059809463460    -17.12585904617236     -5.50752826482860
  C          30.68900152191511    -18.39877951248323     -3.39882151017176
  C          28.34999716544527    -21.42541100379175     -6.22657360788806
  C          29.99347688044911    -17.06960370150213     -6.96684250143716
  C          30.53289854416155    -15.97956312874095     -4.81740413054660
  C          31.58939343610042    -17.25129114637814     -2.96254892828887
  C          31.06570365350542    -15.92833662932562     -3.47408656448793
  O          31.14859249281172    -14.89650158085300     -2.82607540132449
  H          30.84417415333027    -19.52822390612802     -7.66539849038227
  C          27.24477342253719    -20.45237129937566     -5.79965524988318
  C          28.28915086577675    -20.92850879875444     -8.60293545420186
  C          27.34479884105377    -22.11324143810474     -8.33072251099249
  C          27.68148752321788    -22.64972703306905     -6.91659377483760
  O          26.52225197973393    -23.03828643699833     -6.19903991787991
  H          30.00651669636075    -21.60567386369811     -7.54922080887411
  C          28.61692122494227    -23.88218628442214     -7.03651867746723
  C          27.95499838447833    -24.91699359336148     -7.77093397214300
  N          27.35760533214055    -25.72084942239532     -8.32864177965056
  H          31.02799321819757    -20.93957018017619     -4.10259412133339
  H          31.21730347580018    -21.46314561321848     -5.77230465199544
  H          28.20396872672535    -18.23953042655267     -6.86962962433758
  H          28.96767127504739    -18.20833525312821     -8.46928999655328
  H          28.69171231486770    -21.39883288202744     -4.10230337831378
  H          29.45329031535608    -22.77475420878947     -4.89776094590925
  H          31.10656784635282    -19.33465312566700     -3.03051749129674
  H          29.70299221290833    -18.27348419246228     -2.93993527035980
  H          29.47769142513703    -16.13508464114800     -7.19482697567585
  H          30.93512094786557    -17.07105647256134     -7.52875524571412
  H          30.34632278678002    -15.02370680891451     -5.28893036528806
  H          32.59210415477570    -17.38405980171601     -3.38209802848692
  H          31.68028125023045    -17.22237848164741     -1.87627976768293
  H          26.54577859549406    -20.97025659046336     -5.14656066394304
  H          26.68528696891033    -20.07584692154658     -6.64978950880307
  H          27.66866827848037    -19.61789335486675     -5.24822995082976
  H          27.71645180973955    -20.00965873364181     -8.71103277361795
  H          28.86075151465713    -21.07377838480521     -9.51936647699436
  H          27.45210500902469    -22.89717573104882     -9.08141748205411
  H          26.30248389300394    -21.78956841910602     -8.34114044526983
  H          26.06972720188914    -23.72099799238340     -6.70793535732667
  H          29.54909141517408    -23.61751104156907     -7.53550710033382
  H          28.85624946024727    -24.28245495662713     -6.04769273254370
  C          29.83846674396716    -27.61068478458302     -6.39710774064818
  O          30.61672176788304    -28.15466625605071     -7.16551714418163
  H          30.17399577787635    -26.82435418531305     -5.70189248704837
  N          28.54053213251627    -27.87055332835926     -6.29374588278835
  C          27.70873889077735    -27.26409520798483     -5.28847886260973
  C          27.89624810176128    -28.82437645510318     -7.16447713280322
  H          28.27183777793084    -26.50538893314666     -4.74831656210400
  H          26.83964230895237    -26.80150806310202     -5.76140577822351
  H          27.36414982566616    -28.03308897730949     -4.58980293140338
  H          27.11070400322194    -28.32482983966129     -7.73418598994988
  H          27.46948591321245    -29.63622380664211     -6.57313047775991
  H          28.64391812729856    -29.21677257462562     -7.85008712878647
  C          30.52482323951294    -24.74080604814564     -3.11788963250125
  O          29.93958950476796    -25.01763594647386     -4.15293228170584
  H          30.73623931087230    -23.69139324746124     -2.84401517907370
  N          31.00263808792381    -25.61048546485151     -2.23683285183882
  C          31.52318977784788    -25.20891434082056     -0.95575041398899
  C          30.75538372967666    -27.02605167414160     -2.39406061478883
  H          31.72435251429708    -24.13943093996722     -0.95048938567553
  H          30.79231781151998    -25.44238967868906     -0.17651353219087
  H          32.44645336347171    -25.75194966174724     -0.74926540153930
  H          29.94194371202022    -27.33063814624208     -1.73225375558608
  H          31.64915407646790    -27.59756150420226     -2.14679488574567
  H          30.46967295459021    -27.21000656724376     -3.42754669385982
  C          29.22192701197862    -17.72179815965695     -0.14252460939892
  O          29.94989323215695    -18.30438468330060      0.64389821704161
  H          28.45913644070938    -18.26544337753881     -0.72725872566896
  N          29.23337738379965    -16.41914889386418     -0.40147522713921
  C          28.30821852569810    -15.79718646990868     -1.31216968860991
  C          30.15652612339091    -15.53041650069517      0.26558979240900
  H          27.86976874602589    -16.54287334597772     -1.97174656614601
  H          27.51254734432032    -15.28835274642034     -0.76038111490373
  H          28.84169536814803    -15.06295900547466     -1.91600749492655
  H          29.61047093828341    -14.82620676861717      0.89629432015433
  H          30.72785202582599    -14.97959857267527     -0.48381648233211
  H          30.82826289766724    -16.12901568939904      0.87747149155102
  C          26.61795183761795    -19.13473161263660     -2.45089249374386
  O          27.27018245209499    -18.39693125098513     -3.16397685653746
  H          26.92828800935329    -20.17877500810557     -2.25647633513554
  N          25.48137847766802    -18.81891691588654     -1.83443552297088
  C          24.80769912438169    -19.69981579169143     -0.91755705916283
  C          24.92332208565900    -17.49052883298952     -1.93875378462416
  H          25.34609594644372    -20.64319649320402     -0.83846533753284
  H          24.76032077800444    -19.22170501718353      0.06324843479847
  H          23.78946894233856    -19.89654773355843     -1.26399285212300
  H          25.51817341173254    -16.92019833716555     -2.64847017439258
  H          24.94370461471845    -17.01152269330921     -0.95786012114614
  H          23.89149112280681    -17.54796624917963     -2.29023200774675
  C          26.54103202017528    -16.95432453273208      1.83550381239326
  O          25.60513553785604    -17.44539760634019      1.22621130172124
  H          26.69861004098867    -15.86477769341123      1.87585962691670
  N          27.45449365689056    -17.63196738522459      2.52718144514187
  C          28.55652051790585    -16.99219122311952      3.19793463547002
  C          27.44985965761551    -19.07480957604492      2.55314258258887
  H          28.52120958901883    -15.91970748710169      3.02150760500869
  H          28.50791774217336    -17.19072498964165      4.27262314564538
  H          29.49487390959980    -17.39082937436670      2.80767209723594
  H          26.58195588595609    -19.42406338143542      1.99845021789450
  H          27.39447619595159    -19.43439184798962      3.58291458898487
  H          28.36296605832719    -19.45363057786754      2.08942378626880
  C          27.50244746795242    -12.72960332985437      2.31193796680413
  O          27.96413534004150    -13.84990252008537      2.26696448049789
  H          27.29587185198440    -12.14501991848621      1.39911153591129
  N          27.18695846952792    -12.06875514782928      3.43018038153031
  C          26.64345246614911    -10.73664612734324      3.43060044628439
  C          27.38869716459856    -12.67914566910501      4.72298037296606
  H          25.66049216591070    -10.72813782452086      3.90905891306075
  H          27.30172610741083    -10.06025631415447      3.98186470683226
  H          26.54292994249822    -10.37435813991229      2.40991102571426
  H          26.43937297780355    -12.76316083623939      5.25673301520993
  H          28.08149750709998    -12.08263970356333      5.32105824404309
  H          27.80714264879208    -13.67123082352974      4.56812498281898
  C          27.60919650146575    -25.52388377913591     -1.63265814805137
  O          28.37877406053106    -25.78809327643452     -0.73097337957033
  H          27.10797077472866    -26.31253449015945     -2.22228481563159
  N          27.26510966480535    -24.29737776949905     -2.02870606527194
  C          26.34761058564592    -24.05020898935541     -3.11068961985167
  C          27.81789710721846    -23.13806239633140     -1.37248331683530
  H          25.96801984782447    -24.99525000872965     -3.49506015255913
  H          25.50512355139932    -23.44877951851382     -2.75813871319880
  H          26.83734169921496    -23.51459943300268     -3.92693569443110
  H          28.49764435040148    -23.47750936329246     -0.59269736174995
  H          27.02071575558636    -22.54449242041207     -0.91697388424970
  H          28.35993559719856    -22.51915829533659     -2.08976455537008
  C          29.60324681262951    -30.19424251649138     -4.36672757040776
  O          28.42881234060248    -30.51795219403150     -4.36212682101589
  H          30.00004066234260    -29.45217388132238     -3.65618013932027
  N          30.54431175969106    -30.69075217422348     -5.16847335903989
  C          31.90841508699977    -30.23073172813083     -5.14408964971364
  C          30.19805250262976    -31.60098666753284     -6.23372033334446
  H          32.09587369341956    -29.66857753306230     -4.23165484929410
  H          32.58326480553355    -31.08809502712845     -5.17413960361042
  H          32.10358322691729    -29.59719987400997     -6.01320533161025
  H          30.79622141228869    -32.51170760600434     -6.16303560774288
  H          30.38063627057677    -31.12697639633025     -7.20040625230809
  H          29.14252690134744    -31.84856271102506     -6.14029642394568
  C          32.25150122018285    -24.07773562063428     -6.65191888285640
  O          31.72544025799578    -23.20733821311333     -7.32019914409836
  H          32.49288080032374    -23.92312649339796     -5.58421128564624
  N          32.59671554940017    -25.28538945563200     -7.09019342762661
  C          33.21030462318924    -26.28182284215092     -6.25350658298424
  C          32.34623269221996    -25.67652523276665     -8.45857099531740
  H          34.24755718294517    -26.45042961128402     -6.55831029797877
  H          33.19337100810500    -25.95949843761049     -5.21388678348200
  H          32.65983343939501    -27.21901800438747     -6.35133572988238
  H          31.85920399027607    -24.84849573076629     -8.96860206090163
  H          31.70164619491233    -26.55726616865374     -8.47727831553211
  H          33.28732694350575    -25.90929094914841     -8.96200812861413
  C          31.18746114667681    -31.16230766754676     -1.80506530351663
  O          31.75264685091635    -30.09746558365365     -1.66299709911747
  H          31.71366007042543    -32.05084188531142     -2.20186266701179
  N          29.91237946959188    -31.41948133904466     -1.50689719096841
  C          29.26332266752727    -32.65671487541805     -1.85109786557901
  C          29.05364767805654    -30.37856181126659     -0.99111667372544
  H          29.99740566218053    -33.37315985111926     -2.21538258340922
  H          28.76066529670385    -33.07428083173134     -0.97586226592519
  H          28.51954298505734    -32.47782198804410     -2.63330387592356
  H          28.55823235724608    -30.72190909340841     -0.08200805321417
  H          28.29838970499140    -30.11025160823777     -1.73283433862700
  H          29.66819281092179    -29.51118224811090     -0.76276414725170
