      -----------------------------------------------------------      
     |                   =====================                   |     
     |                           x T B                           |     
     |                   =====================                   |     
     |                         S. Grimme                         |     
     |          Mulliken Center for Theoretical Chemistry        |     
     |                    University of Bonn                     |     
      -----------------------------------------------------------      

   * xtb version 6.7.1pre (5071a88) compiled by 'Marcel@Raven' on 2024-07-23

   xtb is free software: you can redistribute it and/or modify it under
   the terms of the GNU Lesser General Public License as published by
   the Free Software Foundation, either version 3 of the License, or
   (at your option) any later version.
   
   xtb is distributed in the hope that it will be useful,
   but WITHOUT ANY WARRANTY; without even the implied warranty of
   MERCHANTABILITY or FITNESS FOR A PARTICULAR PURPOSE.  See the
   GNU Lesser General Public License for more details.
   
   Cite this work as:
   * C. Bannwarth, E. Caldeweyher, S. Ehlert, A. Hansen, P. Pracht,
     J. Seibert, S. Spicher, S. Grimme, WIREs Comput. Mol. Sci., 2020, 11,
     e01493. DOI: 10.1002/wcms.1493
   
   for GFN2-xTB:
   * C. Bannwarth, S. Ehlert and S. Grimme., J. Chem. Theory Comput., 2019,
     15, 1652-1671. DOI: 10.1021/acs.jctc.8b01176
   for GFN1-xTB:
   * S. Grimme, C. Bannwarth, P. Shushkov, J. Chem. Theory Comput., 2017,
     13, 1989-2009. DOI: 10.1021/acs.jctc.7b00118
   for GFN0-xTB:
   * P. Pracht, E. Caldeweyher, S. Ehlert, S. Grimme, ChemRxiv, 2019, preprint.
     DOI: 10.26434/chemrxiv.8326202.v1
   for GFN-FF:
   * S. Spicher and S. Grimme, Angew. Chem. Int. Ed., 2020, 59, 15665-15673.
     DOI: 10.1002/anie.202004239
   
   for ALPB and GBSA implicit solvation:
   * S. Ehlert, M. Stahn, S. Spicher, S. Grimme, J. Chem. Theory Comput.,
     2021, 17, 4250-4261. DOI: 10.1021/acs.jctc.1c00471
   
   for ddCOSMO and CPCM-X implicit solvation:
   * M. Stahn, S. Ehlert, S. Grimme, J. Phys. Chem. A,
     2023, XX, XXXX-XXXX. DOI: 10.1021/acs.jpca.3c04382
   
   for DFT-D4:
   * E. Caldeweyher, C. Bannwarth and S. Grimme, J. Chem. Phys., 2017,
     147, 034112. DOI: 10.1063/1.4993215
   * E. Caldeweyher, S. Ehlert, A. Hansen, H. Neugebauer, S. Spicher,
     C. Bannwarth and S. Grimme, J. Chem. Phys., 2019, 150, 154122.
     DOI: 10.1063/1.5090222
   * E. Caldeweyher, J.-M. Mewes, S. Ehlert and S. Grimme, Phys. Chem. Chem. Phys.
     2020, 22, 8499-8512. DOI: 10.1039/D0CP00502A
   
   for sTDA-xTB:
   * S. Grimme and C. Bannwarth, J. Chem. Phys., 2016, 145, 054103.
     DOI: 10.1063/1.4959605
   
   in the mass-spec context:
   * V. Asgeirsson, C. Bauer and S. Grimme, Chem. Sci., 2017, 8, 4879.
     DOI: 10.1039/c7sc00601b
   * J. Koopman and S. Grimme, ACS Omega 2019, 4, 12, 15120-15133.
     DOI: 10.1021/acsomega.9b02011
   
   for metadynamics refer to:
   * S. Grimme, J. Chem. Theory Comput., 2019, 155, 2847-2862
     DOI: 10.1021/acs.jctc.9b00143
   
   for SPH calculations refer to:
   * S. Spicher and S. Grimme, J. Chem. Theory Comput., 2021, 17, 1701-1714
     DOI: 10.1021/acs.jctc.0c01306
   
   for ONIOM refer to:
   * C. Plett, A. Katbashev, S. Ehlert, S. Grimme, M. Bursch,
     Phys. Chem. Chem. Phys., 2023, 25, 17860-17868. DOI: 10.1039/D3CP02178E
   
   for DIPRO refer to:
   * J. Kohn, N. Gildemeister, S. Grimme, D. Fazzi, A. Hansen,
     J. Chem. Phys., 2023, just accepted.
   
   for PTB refer to:
   * S. Grimme, M. Mueller, A. Hansen, J. Chem. Phys., 2023, 158, 124111.
     DOI: 10.1063/5.0137838
   
   with help from (in alphabetical order)
   P. Atkinson, C. Bannwarth, F. Bohle, G. Brandenburg, E. Caldeweyher
   M. Checinski, S. Dohm, S. Ehlert, S. Ehrlich, I. Gerasimov, C. Hölzer
   A. Katbashev, J. Kohn, J. Koopman, C. Lavigne, S. Lehtola, F. März, M. Müller,
   F. Musil, H. Neugebauer, J. Pisarek, C. Plett, P. Pracht, F. Pultar,
   J. Seibert, P. Shushkov, S. Spicher, M. Stahn, M. Steiner, T. Strunk,
   J. Stückrath, T. Rose, and J. Unsleber
   
 * started run on 2026/10/03 at 18:56:20.271     
   ID    Z sym.   atoms
    1    6 C      1, 4, 7, 10, 13, 14, 16-18, 24, 26, 27, 29-32, 35-38, 40,
                  42, 43, 45, 47, 60, 63, 66, 69, 70, 72, 73, 75, 77, 80, 82,
                  85-88, 91-94, 96, 97, 107, 112, 113, 115
    2    1 H      2, 3, 5, 6, 8, 9, 11, 12, 15, 19, 20, 23, 25, 28, 33, 34,
                  39, 41, 44, 46, 48-52, 61, 62, 64, 65, 67, 68, 71, 74, 76,
                  78, 81, 83, 84, 89, 90, 95, 98-100, 108-110, 114, 116, 117
    3    7 N      21, 53-56, 79, 101-104
    4    8 O      22, 57-59, 105, 106, 111, 118

           -------------------------------------------------
          |                Calculation Setup                |
           -------------------------------------------------

          program call               : C:\ORCA_6.1.1\xTB_bigstack\xtb.exe d_D9_D8b.xyz -c 0 -u 0 -P 1 --acc 1.0 --namespace d_D9_D8b
          calculation namespace      : d_D9_D8b
          coordinate file            : d_D9_D8b.xyz
          omp threads                :                     1


molecular fragmentation (1/2 indicates fragments):
111111111111111111111111111111111111111111111111111111111112222222222222
2222222222222222222222222222222222222222222222
# atoms in fragment 1/2:    59    59
 fragment masses (1/2) :      459.50      459.50
CMA distance (Bohr)    :  41.167
constraining FC (au)   :  0.0500

           -------------------------------------------------
          |                 G F N 2 - x T B                 |
           -------------------------------------------------

        Reference                      10.1021/acs.jctc.8b01176
      * Hamiltonian:
        H0-scaling (s, p, d)           1.850000    2.230000    2.230000
        zeta-weighting                 0.500000
      * Dispersion:
        s8                             2.700000
        a1                             0.520000
        a2                             5.000000
        s9                             5.000000
      * Repulsion:
        kExp                           1.500000    1.000000
        rExp                           1.000000
      * Coulomb:
        alpha                          2.000000
        third order                    shell-resolved
        anisotropic                    true
        a3                             3.000000
        a5                             4.000000
        cn-shift                       1.200000
        cn-exp                         4.000000
        max-rad                        5.000000


          ...................................................
          :                      SETUP                      :
          :.................................................:
          :  # basis functions                 322          :
          :  # atomic orbitals                 322          :
          :  # shells                          186          :
          :  # electrons                       348          :
          :  max. iterations                   250          :
          :  Hamiltonian                  GFN2-xTB          :
          :  restarted?                      false          :
          :  GBSA solvation                  false          :
          :  PC potential                    false          :
          :  electronic temp.          300.0000000     K    :
          :  accuracy                    1.0000000          :
          :  -> integral cutoff          0.2500000E+02      :
          :  -> integral neglect         0.1000000E-07      :
          :  -> SCF convergence          0.1000000E-05 Eh   :
          :  -> wf. convergence          0.1000000E-03 e    :
          :  Broyden damping             0.4000000          :
          :  net charge                          0          :
          :  unpaired electrons                  0          :
          ...................................................

 iter      E             dE          RMSdq      gap      omega  full diag
   1   -197.4371173 -0.197437E+03  0.413E+00    2.89       0.0  T
   2   -197.9676056 -0.530488E+00  0.242E+00    2.67       1.0  T
   3   -198.0183866 -0.507811E-01  0.130E+00    3.12       1.0  T
   4   -198.0252468 -0.686011E-02  0.433E-01    2.95       1.0  T
   5   -198.0400794 -0.148326E-01  0.916E-02    3.01       1.0  T
   6   -198.0402836 -0.204226E-03  0.528E-02    3.03       1.0  T
   7   -198.0404479 -0.164347E-03  0.221E-02    3.04       1.0  T
   8   -198.0404549 -0.701615E-05  0.828E-03    3.04       1.1  T
   9   -198.0404578 -0.285714E-05  0.364E-03    3.04       2.5  T
  10   -198.0404580 -0.205634E-06  0.146E-03    3.04       6.3  T
  11   -198.0404581 -0.123349E-06  0.550E-04    3.04      16.7  T
  12   -198.0404581 -0.107626E-07  0.258E-04    3.04      35.6  T

   *** convergence criteria satisfied after 12 iterations ***

         #    Occupation            Energy/Eh            Energy/eV
      -------------------------------------------------------------
         1        2.0000           -0.7213495             -19.6289
       ...           ...                  ...                  ...
       168        2.0000           -0.3870120             -10.5311
       169        2.0000           -0.3828353             -10.4175
       170        2.0000           -0.3824645             -10.4074
       171        2.0000           -0.3806474             -10.3579
       172        2.0000           -0.3800097             -10.3406
       173        2.0000           -0.3798213             -10.3355
       174        2.0000           -0.3793957             -10.3239 (HOMO)
       175                         -0.2675920              -7.2815 (LUMO)
       176                         -0.2670375              -7.2665
       177                         -0.2401037              -6.5336
       178                         -0.2396615              -6.5215
       179                         -0.2335328              -6.3548
       ...                                ...                  ...
       322                          0.8695172              23.6608
      -------------------------------------------------------------
                  HL-Gap            0.1118037 Eh            3.0423 eV
             Fermi-level           -0.3234939 Eh           -8.8027 eV

 SCC (total)                   0 d,  0 h,  0 min,  0.308 sec
 SCC setup                      ...        0 min,  0.001 sec (  0.325%)
 Dispersion                     ...        0 min,  0.003 sec (  0.974%)
 classical contributions        ...        0 min,  0.001 sec (  0.325%)
 integral evaluation            ...        0 min,  0.033 sec ( 10.714%)
 iterations                     ...        0 min,  0.169 sec ( 54.870%)
 molecular gradient             ...        0 min,  0.099 sec ( 32.143%)
 printout                       ...        0 min,  0.002 sec (  0.649%)

         :::::::::::::::::::::::::::::::::::::::::::::::::::::
         ::                     SUMMARY                     ::
         :::::::::::::::::::::::::::::::::::::::::::::::::::::
         :: total energy            -193.658452233004 Eh    ::
         :: gradient norm              1.318641011626 Eh/a0 ::
         :: HOMO-LUMO gap              3.042333937649 eV    ::
         ::.................................................::
         :: SCC energy              -198.041247412167 Eh    ::
         :: -> isotropic ES            0.296893374462 Eh    ::
         :: -> anisotropic ES          0.005643228978 Eh    ::
         :: -> anisotropic XC          0.036981537336 Eh    ::
         :: -> dispersion             -0.138400730093 Eh    ::
         :: repulsion energy           4.382795179163 Eh    ::
         :: add. restraining           0.000000000000 Eh    ::
         :: total charge               0.000000000000 e     ::
         :::::::::::::::::::::::::::::::::::::::::::::::::::::

           -------------------------------------------------
          |                Property Printout                |
           -------------------------------------------------

    * Orbital Energies and Occupations

         #    Occupation            Energy/Eh            Energy/eV
      -------------------------------------------------------------
         1        2.0000           -0.7213495             -19.6289
       ...           ...                  ...                  ...
       162        2.0000           -0.4068246             -11.0703
       163        2.0000           -0.3974690             -10.8157
       164        2.0000           -0.3969454             -10.8014
       165        2.0000           -0.3893539             -10.5949
       166        2.0000           -0.3889375             -10.5835
       167        2.0000           -0.3874542             -10.5432
       168        2.0000           -0.3870120             -10.5311
       169        2.0000           -0.3828353             -10.4175
       170        2.0000           -0.3824645             -10.4074
       171        2.0000           -0.3806474             -10.3579
       172        2.0000           -0.3800097             -10.3406
       173        2.0000           -0.3798213             -10.3355
       174        2.0000           -0.3793957             -10.3239 (HOMO)
       175                         -0.2675920              -7.2815 (LUMO)
       176                         -0.2670375              -7.2665
       177                         -0.2401037              -6.5336
       178                         -0.2396615              -6.5215
       179                         -0.2335328              -6.3548
       180                         -0.2331337              -6.3439
       181                         -0.2313120              -6.2943
       182                         -0.2304960              -6.2721
       183                         -0.2289962              -6.2313
       184                         -0.2285510              -6.2192
       185                         -0.2136655              -5.8141
       ...                                ...                  ...
       322                          0.8695172              23.6608
      -------------------------------------------------------------
                  HL-Gap            0.1118037 Eh            3.0423 eV
             Fermi-level           -0.3234939 Eh           -8.8027 eV

     #   Z          covCN         q      C6AA      α(0)
     1   6 C        3.762    -0.011    20.811     6.503
     2   1 H        0.930     0.057     2.231     2.336
     3   1 H        0.930     0.060     2.196     2.317
     4   6 C        3.827    -0.083    22.056     6.683
     5   1 H        0.930     0.055     2.256     2.349
     6   1 H        0.930     0.057     2.230     2.335
     7   6 C        3.825    -0.079    21.996     6.674
     8   1 H        0.930     0.053     2.287     2.365
     9   1 H        0.930     0.051     2.312     2.378
    10   6 C        3.826    -0.107    22.516     6.752
    11   1 H        0.930     0.074     2.042     2.234
    12   1 H        0.930     0.076     2.018     2.221
    13   6 C        2.766     0.268    22.475     7.764
    14   6 C        2.935    -0.056    29.383     8.890
    15   1 H        0.930     0.065     2.136     2.286
    16   6 C        2.930     0.069    26.446     8.434
    17   6 C        2.938    -0.042    29.047     8.839
    18   6 C        2.935    -0.056    29.403     8.893
    19   1 H        0.930     0.069     2.093     2.262
    20   1 H        0.930     0.070     2.086     2.259
    21   7 N        2.739    -0.113    23.465     7.194
    22   8 O        0.859    -0.467    23.075     6.440
    23   1 H        0.930     0.075     2.033     2.230
    24   6 C        2.936    -0.044    29.082     8.844
    25   1 H        0.930     0.072     2.064     2.246
    26   6 C        2.928     0.070    26.433     8.432
    27   6 C        3.764    -0.012    20.838     6.507
    28   1 H        0.930     0.058     2.219     2.329
    29   6 C        2.767     0.269    22.464     7.762
    30   6 C        3.096    -0.009    28.119     8.691
    31   6 C        3.070    -0.016    28.328     8.727
    32   6 C        3.821    -0.083    22.058     6.684
    33   1 H        0.930     0.077     2.004     2.214
    34   1 H        0.930     0.084     1.936     2.176
    35   6 C        3.172     0.026    27.044     8.495
    36   6 C        2.748     0.278    22.300     7.732
    37   6 C        2.920     0.046    26.970     8.516
    38   6 C        2.934    -0.042    29.038     8.838
    39   1 H        0.930     0.070     2.085     2.258
    40   6 C        2.932    -0.079    29.962     8.977
    41   1 H        0.930     0.069     2.101     2.267
    42   6 C        2.878     0.145    24.852     8.172
    43   6 C        2.936    -0.067    29.659     8.932
    44   1 H        0.930     0.079     1.992     2.207
    45   6 C        2.932    -0.046    29.148     8.854
    46   1 H        0.930     0.080     1.981     2.201
    47   6 C        3.664     0.013    20.627     6.514
    48   1 H        0.930     0.073     2.053     2.240
    49   1 H        0.930     0.059     2.207     2.323
    50   1 H        0.930     0.057     2.238     2.339
    51   1 H        0.862     0.205     1.078     1.626
    52   1 H        0.863     0.211     1.049     1.604
    53   7 N        2.745    -0.120    23.605     7.216
    54   7 N        3.019     0.089    19.701     6.592
    55   7 N        1.991    -0.242    27.111     7.722
    56   7 N        2.645    -0.284    27.327     7.764
    57   8 O        0.858    -0.444    22.573     6.370
    58   8 O        0.860    -0.449    22.688     6.386
    59   8 O        1.705    -0.281    18.657     5.832
    60   6 C        3.762    -0.011    20.811     6.503
    61   1 H        0.930     0.057     2.231     2.336
    62   1 H        0.930     0.060     2.196     2.317
    63   6 C        3.827    -0.083    22.056     6.683
    64   1 H        0.930     0.055     2.256     2.349
    65   1 H        0.930     0.057     2.231     2.335
    66   6 C        3.825    -0.079    21.997     6.674
    67   1 H        0.930     0.053     2.287     2.364
    68   1 H        0.930     0.051     2.312     2.378
    69   6 C        2.766     0.268    22.475     7.764
    70   6 C        2.935    -0.056    29.384     8.890
    71   1 H        0.930     0.065     2.136     2.285
    72   6 C        2.930     0.069    26.445     8.434
    73   6 C        2.938    -0.042    29.047     8.839
    74   1 H        0.930     0.075     2.033     2.230
    75   6 C        2.936    -0.044    29.082     8.844
    76   1 H        0.930     0.072     2.064     2.246
    77   6 C        2.935    -0.056    29.403     8.893
    78   1 H        0.930     0.068     2.101     2.267
    79   7 N        2.739    -0.113    23.466     7.195
    80   6 C        2.928     0.070    26.434     8.432
    81   1 H        0.930     0.069     2.093     2.262
    82   6 C        3.764    -0.012    20.839     6.507
    83   1 H        0.930     0.058     2.218     2.329
    84   1 H        0.930     0.070     2.085     2.258
    85   6 C        2.767     0.269    22.465     7.762
    86   6 C        3.096    -0.009    28.119     8.691
    87   6 C        3.070    -0.016    28.326     8.727
    88   6 C        3.821    -0.083    22.058     6.684
    89   1 H        0.930     0.077     2.004     2.214
    90   1 H        0.930     0.084     1.935     2.175
    91   6 C        3.172     0.026    27.042     8.495
    92   6 C        2.748     0.278    22.300     7.732
    93   6 C        2.920     0.046    26.967     8.516
    94   6 C        2.934    -0.042    29.036     8.837
    95   1 H        0.930     0.070     2.083     2.257
    96   6 C        2.932    -0.078    29.961     8.977
    97   6 C        2.932    -0.046    29.148     8.854
    98   1 H        0.930     0.080     1.982     2.201
    99   1 H        0.862     0.206     1.078     1.626
   100   1 H        0.863     0.211     1.049     1.604
   101   7 N        2.745    -0.120    23.604     7.216
   102   7 N        3.019     0.089    19.703     6.593
   103   7 N        1.991    -0.242    27.112     7.722
   104   7 N        2.645    -0.284    27.325     7.764
   105   8 O        0.858    -0.444    22.576     6.370
   106   8 O        0.860    -0.449    22.686     6.386
   107   6 C        3.664     0.013    20.625     6.514
   108   1 H        0.930     0.073     2.056     2.242
   109   1 H        0.930     0.059     2.207     2.323
   110   1 H        0.930     0.057     2.239     2.340
   111   8 O        1.705    -0.281    18.663     5.833
   112   6 C        2.878     0.145    24.854     8.173
   113   6 C        2.936    -0.067    29.661     8.932
   114   1 H        0.930     0.078     1.995     2.209
   115   6 C        3.826    -0.107    22.517     6.752
   116   1 H        0.930     0.074     2.041     2.234
   117   1 H        0.930     0.076     2.017     2.221
   118   8 O        0.859    -0.467    23.071     6.440

 Mol. C6AA /au·bohr⁶  :     167555.111597
 Mol. C8AA /au·bohr⁸  :    4001283.231625
 Mol. α(0) /au        :        634.450798


Wiberg/Mayer (AO) data.
largest (>0.10) Wiberg bond orders for each atom

 ---------------------------------------------------------------------------
     #   Z sym  total        # sym  WBO       # sym  WBO       # sym  WBO
 ---------------------------------------------------------------------------
     1   6 C    3.971 --     4 C    1.007     3 H    0.974     2 H    0.972
                            21 N    0.960
     2   1 H    0.997 --     1 C    0.972
     3   1 H    0.996 --     1 C    0.974
     4   6 C    3.992 --     1 C    1.007     7 C    1.006     5 H    0.979
                             6 H    0.971
     5   1 H    0.997 --     4 C    0.979
     6   1 H    0.996 --     4 C    0.971
     7   6 C    3.994 --     4 C    1.006    10 C    1.002     9 H    0.981
                             8 H    0.977
     8   1 H    0.997 --     7 C    0.977
     9   1 H    0.997 --     7 C    0.981
    10   6 C    3.990 --     7 C    1.002    13 C    0.976    12 H    0.964
                            11 H    0.955
    11   1 H    0.994 --    10 C    0.955
    12   1 H    0.994 --    10 C    0.964
    13   6 C    3.951 --    22 O    1.658    21 N    1.238    10 C    0.976
    14   6 C    3.994 --    18 C    1.442    16 C    1.406    15 H    0.974
                            24 C    0.109
    15   1 H    0.995 --    14 C    0.974
    16   6 C    3.968 --    14 C    1.406    17 C    1.405    21 N    0.991
    17   6 C    3.993 --    24 C    1.441    16 C    1.405    23 H    0.973
                            18 C    0.110
    18   6 C    3.993 --    14 C    1.442    26 C    1.402    19 H    0.974
                            17 C    0.110
    19   1 H    0.995 --    18 C    0.974
    20   1 H    0.995 --    27 C    0.974
    21   7 N    3.481 --    13 C    1.238    16 C    0.991     1 C    0.960
                            22 O    0.190
    22   8 O    1.968 --    13 C    1.658    21 N    0.190
    23   1 H    0.994 --    17 C    0.973
    24   6 C    3.992 --    17 C    1.441    26 C    1.403    25 H    0.973
                            14 C    0.109
    25   1 H    0.995 --    24 C    0.973
    26   6 C    3.965 --    24 C    1.403    18 C    1.402    53 N    0.997
    27   6 C    3.968 --    32 C    0.998    28 H    0.974    20 H    0.974
                            53 N    0.961
    28   1 H    0.997 --    27 C    0.974
    29   6 C    3.957 --    57 O    1.655    53 N    1.201    30 C    1.011
    30   6 C    3.952 --    31 C    1.430    54 N    1.220    29 C    1.011
                            55 N    0.134
    31   6 C    3.981 --    30 C    1.430    35 C    1.322    32 C    1.012
    32   6 C    3.989 --    31 C    1.012    27 C    0.998    34 H    0.963
                            33 H    0.961
    33   1 H    0.994 --    32 C    0.961
    34   1 H    0.992 --    32 C    0.963
    35   6 C    3.968 --    55 N    1.426    31 C    1.322    36 C    1.000
    36   6 C    3.952 --    58 O    1.660    56 N    1.252    35 C    1.000
    37   6 C    3.956 --    38 C    1.402    45 C    1.371    54 N    1.005
    38   6 C    3.991 --    40 C    1.435    37 C    1.402    39 H    0.974
                            43 C    0.108
    39   1 H    0.995 --    38 C    0.974
    40   6 C    3.991 --    38 C    1.435    42 C    1.380    41 H    0.971
    41   1 H    0.995 --    40 C    0.971
    42   6 C    3.933 --    40 C    1.380    43 C    1.344    59 O    1.071
    43   6 C    3.991 --    45 C    1.476    42 C    1.344    44 H    0.972
                            38 C    0.108
    44   1 H    0.993 --    43 C    0.972
    45   6 C    3.990 --    43 C    1.476    37 C    1.371    46 H    0.972
    46   1 H    0.993 --    45 C    0.972
    47   6 C    3.936 --    49 H    0.981    50 H    0.981    48 H    0.979
                            59 O    0.967
    48   1 H    0.994 --    47 C    0.979
    49   1 H    0.996 --    47 C    0.981
    50   1 H    0.997 --    47 C    0.981
    51   1 H    0.957 --    56 N    0.942
    52   1 H    0.955 --    56 N    0.942
    53   7 N    3.471 --    29 C    1.201    26 C    0.997    27 C    0.961
                            57 O    0.188
    54   7 N    3.691 --    55 N    1.220    30 C    1.220    37 C    1.005
    55   7 N    2.965 --    35 C    1.426    54 N    1.220    30 C    0.134
    56   7 N    3.369 --    36 C    1.252    52 H    0.942    51 H    0.942
                            58 O    0.193
    57   8 O    2.001 --    29 C    1.655    53 N    0.188
    58   8 O    1.972 --    36 C    1.660    56 N    0.193
    59   8 O    2.207 --    42 C    1.071    47 C    0.967
    60   6 C    3.971 --    63 C    1.007    62 H    0.974    61 H    0.972
                            79 N    0.960
    61   1 H    0.997 --    60 C    0.972
    62   1 H    0.996 --    60 C    0.974
    63   6 C    3.992 --    60 C    1.007    66 C    1.006    64 H    0.979
                            65 H    0.971
    64   1 H    0.997 --    63 C    0.979
    65   1 H    0.996 --    63 C    0.971
    66   6 C    3.994 --    63 C    1.006   115 C    1.002    68 H    0.981
                            67 H    0.977
    67   1 H    0.997 --    66 C    0.977
    68   1 H    0.997 --    66 C    0.981
    69   6 C    3.951 --   118 O    1.658    79 N    1.238   115 C    0.976
    70   6 C    3.994 --    77 C    1.442    72 C    1.406    71 H    0.974
                            75 C    0.109
    71   1 H    0.995 --    70 C    0.974
    72   6 C    3.968 --    70 C    1.406    73 C    1.405    79 N    0.991
    73   6 C    3.993 --    75 C    1.441    72 C    1.405    74 H    0.973
                            77 C    0.110
    74   1 H    0.994 --    73 C    0.973
    75   6 C    3.992 --    73 C    1.441    80 C    1.403    76 H    0.973
                            70 C    0.109
    76   1 H    0.995 --    75 C    0.973
    77   6 C    3.993 --    70 C    1.442    80 C    1.402    81 H    0.974
                            73 C    0.110
    78   1 H    0.995 --    96 C    0.971
    79   7 N    3.481 --    69 C    1.238    72 C    0.991    60 C    0.960
                           118 O    0.190
    80   6 C    3.965 --    75 C    1.403    77 C    1.402   101 N    0.997
    81   1 H    0.995 --    77 C    0.974
    82   6 C    3.967 --    88 C    0.998    83 H    0.974    84 H    0.974
                           101 N    0.961
    83   1 H    0.997 --    82 C    0.974
    84   1 H    0.995 --    82 C    0.974
    85   6 C    3.957 --   105 O    1.655   101 N    1.201    86 C    1.011
    86   6 C    3.952 --    87 C    1.430   102 N    1.220    85 C    1.011
                           103 N    0.134
    87   6 C    3.981 --    86 C    1.430    91 C    1.322    88 C    1.012
    88   6 C    3.989 --    87 C    1.012    82 C    0.998    90 H    0.963
                            89 H    0.961
    89   1 H    0.994 --    88 C    0.961
    90   1 H    0.992 --    88 C    0.963
    91   6 C    3.968 --   103 N    1.426    87 C    1.322    92 C    1.000
    92   6 C    3.952 --   106 O    1.660   104 N    1.252    91 C    1.000
    93   6 C    3.956 --    94 C    1.402    97 C    1.372   102 N    1.005
    94   6 C    3.991 --    96 C    1.435    93 C    1.402    95 H    0.973
                           113 C    0.108
    95   1 H    0.995 --    94 C    0.973
    96   6 C    3.991 --    94 C    1.435   112 C    1.380    78 H    0.971
    97   6 C    3.990 --   113 C    1.476    93 C    1.372    98 H    0.972
    98   1 H    0.993 --    97 C    0.972
    99   1 H    0.957 --   104 N    0.941
   100   1 H    0.955 --   104 N    0.942
   101   7 N    3.471 --    85 C    1.201    80 C    0.997    82 C    0.961
                           105 O    0.189
   102   7 N    3.691 --   103 N    1.220    86 C    1.220    93 C    1.005
   103   7 N    2.965 --    91 C    1.426   102 N    1.220    86 C    0.134
   104   7 N    3.369 --    92 C    1.252   100 H    0.942    99 H    0.941
                           106 O    0.193
   105   8 O    2.001 --    85 C    1.655   101 N    0.189
   106   8 O    1.972 --    92 C    1.660   104 N    0.193
   107   6 C    3.936 --   109 H    0.981   110 H    0.981   108 H    0.979
                           111 O    0.967
   108   1 H    0.994 --   107 C    0.979
   109   1 H    0.996 --   107 C    0.981
   110   1 H    0.997 --   107 C    0.981
   111   8 O    2.206 --   112 C    1.070   107 C    0.967
   112   6 C    3.933 --    96 C    1.380   113 C    1.344   111 O    1.070
   113   6 C    3.991 --    97 C    1.476   112 C    1.344   114 H    0.972
                            94 C    0.108
   114   1 H    0.993 --   113 C    0.972
   115   6 C    3.990 --    66 C    1.002    69 C    0.976   117 H    0.964
                           116 H    0.954
   116   1 H    0.994 --   115 C    0.954
   117   1 H    0.994 --   115 C    0.964
   118   8 O    1.968 --    69 C    1.658    79 N    0.190
 ---------------------------------------------------------------------------

Topologies differ in total number of bonds
Writing topology from bond orders to xtbtopo.mol

molecular dipole:
                 x           y           z       tot (Debye)
 q only:        0.002       0.875       0.007
   full:        0.002       0.303       0.007       0.772
molecular quadrupole (traceless):
                xx          xy          yy          xz          yz          zz
 q only:     -143.586      84.396     137.307       3.359      -2.894       6.280
  q+dip:     -103.117      52.716      45.229      -1.785     -71.608      57.888
   full:     -100.052      52.716      41.299       3.215     -71.609      58.753


           -------------------------------------------------
          | TOTAL ENERGY             -193.658452233004 Eh   |
          | GRADIENT NORM               1.318641011626 Eh/α |
          | HOMO-LUMO GAP               3.042333937649 eV   |
           -------------------------------------------------

------------------------------------------------------------------------
 * finished run on 2026/10/03 at 18:56:20.644     
------------------------------------------------------------------------
 total:
 * wall-time:     0 d,  0 h,  0 min,  0.370 sec
 *  cpu-time:     0 d,  0 h,  0 min,  0.375 sec
 * ratio c/w:     1.014 speedup
 SCF:
 * wall-time:     0 d,  0 h,  0 min,  0.309 sec
 *  cpu-time:     0 d,  0 h,  0 min,  0.312 sec
 * ratio c/w:     1.011 speedup

normal termination of xtb
