77
Coordinates from ORCA-job Adamantanol_10CHCl3_XTB_Opt E -196.642217566950
  O          29.15993842291178    -20.36410192764196     -0.92256841860494
  C          28.22590601067036    -19.43866499179915     -1.49332489297725
  C          27.20154981709555    -20.17125054897109     -2.36408595478089
  C          26.20152707097726    -19.16467182550871     -2.93204295626632
  C          26.93822813658289    -18.13192794967975     -3.78357805377970
  C          27.95846569521073    -17.39900559269741     -2.91367674646981
  C          27.24273357840702    -16.69638146954316     -1.76088878640863
  C          26.50564235625233    -17.73278868253763     -0.91273683830274
  C          25.48208898897303    -18.46471990142102     -1.78009454567179
  C          27.50591102398542    -18.73800969914490     -0.34311789922769
  C          28.96111731081269    -18.40040402290520     -2.34388818647010
  H          29.61919380255324    -20.81058182721238     -1.64661561896871
  H          26.67334025205658    -20.91157425713044     -1.76230419807317
  H          27.71302279283014    -20.69581887569129     -3.17415364209726
  H          25.47093165110136    -19.69562865689087     -3.55132014612529
  H          26.22534413583439    -17.41673682758730     -4.19805105986550
  H          27.44046712652024    -18.62784942629574     -4.61734146674491
  H          28.49372992371976    -16.65824186423091     -3.51779868126192
  H          26.53203175636552    -15.96772526907100     -2.15489633464881
  H          27.96831459529376    -16.16045906180933     -1.14594385551233
  H          25.99189411266722    -17.23235142353119     -0.08601240266345
  H          24.75414267904927    -17.75314717200655     -2.17431956464203
  H          24.94306349023236    -19.19947737185323     -1.17882821892023
  H          26.99140841633071    -19.48069525873687      0.26918395906018
  H          28.23679368911559    -18.23161411655631      0.28988876492521
  H          29.69859750197292    -17.88271533701550     -1.72967413759285
  H          29.49477450682715    -18.91096462611899     -3.14875321360391
  C          33.60589117281670    -23.16170343807999      4.17828846672082
  H          33.20872682749278    -22.42130525242775      4.87429689969553
  Cl         32.42532882862048    -24.47153707724390      4.00836078558716
  Cl         35.13325233185076    -23.79674042521416      4.80388247192261
  Cl         33.86925104902352    -22.38175928775224      2.61657420965863
  C          31.93580184115683    -23.12062017036604     -0.26989151383389
  H          31.62229511813442    -22.27736058268313      0.34830496148275
  Cl         31.73400899322116    -24.61492152019065      0.65003245939730
  Cl         33.63130977064878    -22.89522178560167     -0.69863039332047
  Cl         30.93210887773046    -23.16837409005189     -1.71518618244436
  C          34.99777300148018    -25.56822016475810      1.49730328122896
  H          34.07302484954373    -25.07647496263343      1.80614612356398
  Cl         34.70551311082524    -26.36361095514264     -0.05290658689161
  Cl         35.44774443810153    -26.75821498092668      2.72435706704791
  Cl         36.26883320995313    -24.35347814923430      1.32910167264033
  C          30.30630067884535    -20.31556998281432     -5.63405540503899
  H          30.19000409112794    -19.38469693271763     -5.07432687982352
  Cl         31.98088623847617    -20.42678078028771     -6.19002948083565
  Cl         29.20274627911170    -20.28750696992828     -7.01779327074120
  Cl         29.92171995852703    -21.67587541765664     -4.57223597087276
  C          36.32714365707853    -23.12253166156887     -3.12316013323854
  H          35.37143926701479    -22.65653464193850     -2.87124938898106
  Cl         36.65648616194881    -24.40812538063522     -1.96479325120121
  Cl         37.59619775856067    -21.89119505088857     -3.05980085466972
  Cl         36.21999706415682    -23.79013649951906     -4.75573682428477
  C          31.34010835336377    -18.86484404340643      0.74042436859868
  H          30.54818855160705    -19.39135828784494      0.18798254996250
  Cl         31.78485818055184    -17.38657707129843     -0.12683520363739
  Cl         32.75815266937349    -19.91953306817054      0.86283076287929
  Cl         30.75262192338034    -18.45748079042613      2.35620972684640
  C          27.68975411618865    -22.90777080348083      0.01246490327076
  H          28.25692739946390    -21.97521000738102     -0.12235125781893
  Cl         28.50287289798057    -23.91728447502190      1.21148555884186
  Cl         27.61495913114844    -23.76317721820055     -1.53814321858391
  Cl         26.05643769345236    -22.51531130099265      0.57013537622225
  C          29.19617421491069    -21.60738816513667      3.62430208987361
  H          28.76102927128214    -22.59050529246356      3.81315662968988
  Cl         30.71442509776059    -21.83006029823538      2.75887452285609
  Cl         29.50597784566520    -20.80092728418736      5.16981978942238
  Cl         28.08063418174660    -20.65628740241301      2.64603298267897
  C          32.79451629956549    -24.63992619444814     -4.34253625188629
  H          33.36599605455944    -25.02437057671772     -5.18908185857391
  Cl         31.07561281369876    -24.96356601071457     -4.60209453764890
  Cl         33.06535414128955    -22.90184893867854     -4.24449892727463
  Cl         33.35826221250719    -25.42918358795407     -2.86249449855459
  C          33.66639214258325    -19.55881703687761     -3.04500438715795
  H          33.88785966721642    -19.98895245568744     -4.02401248472796
  Cl         34.93206315257859    -20.02853314618819     -1.89959324968691
  Cl         32.11298891888305    -20.18451653951643     -2.50933899750953
  Cl         33.58114964944572    -17.79940586070850     -3.19252355515515
