22
Coordinates from ORCA-job Phenanthroline_C2v_r2SCAN3c_Opt E -571.495430714298
  C       0.000000      3.470990      0.348120
  C       0.000000      2.699560      1.523050
  N       0.000000      1.378530      1.540430
  C       0.000000      0.726370      0.359540
  C       0.000000      1.410800     -0.887500
  C       0.000000      2.818040     -0.861810
  C       0.000000      0.678960     -2.114330
  C       0.000000     -0.678960     -2.114330
  C       0.000000     -1.410800     -0.887500
  C       0.000000     -2.818040     -0.861810
  C       0.000000     -3.470990      0.348120
  C       0.000000     -2.699560      1.523050
  N       0.000000     -1.378530      1.540430
  C       0.000000     -0.726370      0.359540
  H       0.000000      4.555240      0.405670
  H       0.000000      3.193360      2.495440
  H       0.000000      3.369300     -1.799220
  H       0.000000      1.233040     -3.049950
  H       0.000000     -1.233040     -3.049950
  H       0.000000     -3.369300     -1.799220
  H       0.000000     -4.555240      0.405670
  H       0.000000     -3.193360      2.495440
22
Coordinates from ORCA-job Phenanthroline_C2v_r2SCAN3c_Opt E -571.495586096568
  C       0.000000      3.476303      0.342921
  C       0.000000      2.711786      1.519958
  N      -0.000000      1.387108      1.543249
  C       0.000000      0.726531      0.362615
  C      -0.000000      1.409843     -0.884595
  C      -0.000000      2.817820     -0.864084
  C       0.000000      0.678986     -2.111585
  C       0.000000     -0.678986     -2.111585
  C       0.000000     -1.409843     -0.884595
  C       0.000000     -2.817820     -0.864084
  C       0.000000     -3.476303      0.342921
  C       0.000000     -2.711786      1.519958
  N       0.000000     -1.387108      1.543249
  C       0.000000     -0.726531      0.362615
  H       0.000000      4.560281      0.396343
  H       0.000000      3.211874      2.487953
  H      -0.000000      3.364551     -1.803661
  H      -0.000000      1.234343     -3.045978
  H       0.000000     -1.234343     -3.045978
  H       0.000000     -3.364551     -1.803661
  H       0.000000     -4.560281      0.396343
  H      -0.000000     -3.211874      2.487953
22
Coordinates from ORCA-job Phenanthroline_C2v_r2SCAN3c_Opt E -571.495606076096
  C       0.000000      3.476637      0.340795
  C       0.000000      2.714807      1.518441
  N       0.000000      1.388885      1.544871
  C       0.000000      0.725765      0.364054
  C       0.000000      1.408497     -0.883088
  C       0.000000      2.816468     -0.865251
  C      -0.000000      0.678999     -2.111021
  C       0.000000     -0.678999     -2.111021
  C       0.000000     -1.408497     -0.883088
  C      -0.000000     -2.816468     -0.865251
  C       0.000000     -3.476637      0.340795
  C       0.000000     -2.714807      1.518441
  N       0.000000     -1.388885      1.544871
  C       0.000000     -0.725765      0.364054
  H       0.000000      4.560675      0.393307
  H       0.000000      3.217561      2.484704
  H       0.000000      3.360917     -1.806036
  H      -0.000000      1.235997     -3.044370
  H       0.000000     -1.235997     -3.044370
  H       0.000000     -3.360917     -1.806036
  H      -0.000000     -4.560675      0.393307
  H       0.000000     -3.217561      2.484704
22
Coordinates from ORCA-job Phenanthroline_C2v_r2SCAN3c_Opt E -571.495608809526
  C       0.000000      3.476238      0.340234
  C      -0.000000      2.714829      1.517971
  N       0.000000      1.388867      1.545482
  C       0.000000      0.725414      0.364536
  C       0.000000      1.407941     -0.882590
  C      -0.000000      2.815906     -0.865720
  C      -0.000000      0.679018     -2.111098
  C       0.000000     -0.679018     -2.111098
  C      -0.000000     -1.407941     -0.882590
  C       0.000000     -2.815906     -0.865720
  C      -0.000000     -3.476238      0.340234
  C       0.000000     -2.714829      1.517971
  N       0.000000     -1.388867      1.545482
  C      -0.000000     -0.725414      0.364536
  H       0.000000      4.560297      0.393053
  H       0.000000      3.218189      2.483963
  H       0.000000      3.359489     -1.806987
  H       0.000000      1.237052     -3.043808
  H       0.000000     -1.237052     -3.043808
  H       0.000000     -3.359489     -1.806987
  H       0.000000     -4.560297      0.393053
  H       0.000000     -3.218189      2.483963
