22
Coordinates from ORCA-job Phenanthroline_C2v_r2SCAN3c_Opt E -571.495608809526
  C           0.00000000000000      3.47623841129528      0.34023440958481
  C          -0.00000000000000      2.71482934493398      1.51797126553853
  N           0.00000000000000      1.38886703248472      1.54548191324888
  C           0.00000000000000      0.72541421921829      0.36453610886036
  C           0.00000000000000      1.40794104731185     -0.88259032642285
  C          -0.00000000000000      2.81590631284124     -0.86571978503410
  C          -0.00000000000000      0.67901849922730     -2.11109769725358
  C           0.00000000000000     -0.67901849922730     -2.11109769725358
  C          -0.00000000000000     -1.40794104731185     -0.88259032642285
  C           0.00000000000000     -2.81590631284124     -0.86571978503410
  C          -0.00000000000000     -3.47623841129528      0.34023440958481
  C           0.00000000000000     -2.71482934493398      1.51797126553853
  N           0.00000000000000     -1.38886703248472      1.54548191324888
  C          -0.00000000000000     -0.72541421921829      0.36453610886036
  H           0.00000000000000      4.56029710495844      0.39305344180256
  H           0.00000000000000      3.21818890606813      2.48396250291057
  H           0.00000000000000      3.35948874962961     -1.80698730798140
  H           0.00000000000000      1.23705166821037     -3.04380793820295
  H           0.00000000000000     -1.23705166821037     -3.04380793820295
  H           0.00000000000000     -3.35948874962961     -1.80698730798140
  H           0.00000000000000     -4.56029710495844      0.39305344180256
  H           0.00000000000000     -3.21818890606813      2.48396250291057
