      -----------------------------------------------------------      
     |                   =====================                   |     
     |                           x T B                           |     
     |                   =====================                   |     
     |                         S. Grimme                         |     
     |          Mulliken Center for Theoretical Chemistry        |     
     |                    University of Bonn                     |     
      -----------------------------------------------------------      

   * xtb version 6.7.1pre (5071a88) compiled by 'Marcel@Raven' on 2024-07-23

   xtb is free software: you can redistribute it and/or modify it under
   the terms of the GNU Lesser General Public License as published by
   the Free Software Foundation, either version 3 of the License, or
   (at your option) any later version.
   
   xtb is distributed in the hope that it will be useful,
   but WITHOUT ANY WARRANTY; without even the implied warranty of
   MERCHANTABILITY or FITNESS FOR A PARTICULAR PURPOSE.  See the
   GNU Lesser General Public License for more details.
   
   Cite this work as:
   * C. Bannwarth, E. Caldeweyher, S. Ehlert, A. Hansen, P. Pracht,
     J. Seibert, S. Spicher, S. Grimme, WIREs Comput. Mol. Sci., 2020, 11,
     e01493. DOI: 10.1002/wcms.1493
   
   for GFN2-xTB:
   * C. Bannwarth, S. Ehlert and S. Grimme., J. Chem. Theory Comput., 2019,
     15, 1652-1671. DOI: 10.1021/acs.jctc.8b01176
   for GFN1-xTB:
   * S. Grimme, C. Bannwarth, P. Shushkov, J. Chem. Theory Comput., 2017,
     13, 1989-2009. DOI: 10.1021/acs.jctc.7b00118
   for GFN0-xTB:
   * P. Pracht, E. Caldeweyher, S. Ehlert, S. Grimme, ChemRxiv, 2019, preprint.
     DOI: 10.26434/chemrxiv.8326202.v1
   for GFN-FF:
   * S. Spicher and S. Grimme, Angew. Chem. Int. Ed., 2020, 59, 15665-15673.
     DOI: 10.1002/anie.202004239
   
   for ALPB and GBSA implicit solvation:
   * S. Ehlert, M. Stahn, S. Spicher, S. Grimme, J. Chem. Theory Comput.,
     2021, 17, 4250-4261. DOI: 10.1021/acs.jctc.1c00471
   
   for ddCOSMO and CPCM-X implicit solvation:
   * M. Stahn, S. Ehlert, S. Grimme, J. Phys. Chem. A,
     2023, XX, XXXX-XXXX. DOI: 10.1021/acs.jpca.3c04382
   
   for DFT-D4:
   * E. Caldeweyher, C. Bannwarth and S. Grimme, J. Chem. Phys., 2017,
     147, 034112. DOI: 10.1063/1.4993215
   * E. Caldeweyher, S. Ehlert, A. Hansen, H. Neugebauer, S. Spicher,
     C. Bannwarth and S. Grimme, J. Chem. Phys., 2019, 150, 154122.
     DOI: 10.1063/1.5090222
   * E. Caldeweyher, J.-M. Mewes, S. Ehlert and S. Grimme, Phys. Chem. Chem. Phys.
     2020, 22, 8499-8512. DOI: 10.1039/D0CP00502A
   
   for sTDA-xTB:
   * S. Grimme and C. Bannwarth, J. Chem. Phys., 2016, 145, 054103.
     DOI: 10.1063/1.4959605
   
   in the mass-spec context:
   * V. Asgeirsson, C. Bauer and S. Grimme, Chem. Sci., 2017, 8, 4879.
     DOI: 10.1039/c7sc00601b
   * J. Koopman and S. Grimme, ACS Omega 2019, 4, 12, 15120-15133.
     DOI: 10.1021/acsomega.9b02011
   
   for metadynamics refer to:
   * S. Grimme, J. Chem. Theory Comput., 2019, 155, 2847-2862
     DOI: 10.1021/acs.jctc.9b00143
   
   for SPH calculations refer to:
   * S. Spicher and S. Grimme, J. Chem. Theory Comput., 2021, 17, 1701-1714
     DOI: 10.1021/acs.jctc.0c01306
   
   for ONIOM refer to:
   * C. Plett, A. Katbashev, S. Ehlert, S. Grimme, M. Bursch,
     Phys. Chem. Chem. Phys., 2023, 25, 17860-17868. DOI: 10.1039/D3CP02178E
   
   for DIPRO refer to:
   * J. Kohn, N. Gildemeister, S. Grimme, D. Fazzi, A. Hansen,
     J. Chem. Phys., 2023, just accepted.
   
   for PTB refer to:
   * S. Grimme, M. Mueller, A. Hansen, J. Chem. Phys., 2023, 158, 124111.
     DOI: 10.1063/5.0137838
   
   with help from (in alphabetical order)
   P. Atkinson, C. Bannwarth, F. Bohle, G. Brandenburg, E. Caldeweyher
   M. Checinski, S. Dohm, S. Ehlert, S. Ehrlich, I. Gerasimov, C. Hölzer
   A. Katbashev, J. Kohn, J. Koopman, C. Lavigne, S. Lehtola, F. März, M. Müller,
   F. Musil, H. Neugebauer, J. Pisarek, C. Plett, P. Pracht, F. Pultar,
   J. Seibert, P. Shushkov, S. Spicher, M. Stahn, M. Steiner, T. Strunk,
   J. Stückrath, T. Rose, and J. Unsleber
   
 * started run on 2026/10/03 at 19:14:21.273     
   ID    Z sym.   atoms
    1    1 H      1, 3, 6, 11, 12, 17, 19, 22, 24, 26-30, 39, 40, 42, 43, 45,
                  46, 48, 49, 52, 56, 57, 61, 62, 66, 68-70, 73, 75, 76, 81,
                  82, 87, 90-92, 100, 101, 103, 104, 106, 107, 110, 113, 115,
                  117
    2    6 C      2, 4, 5, 7-10, 13-16, 18, 20, 21, 23, 25, 38, 41, 44, 47,
                  50, 51, 53-55, 60, 64, 65, 67, 72, 74, 77-80, 83-86, 88,
                  89, 99, 102, 105, 108, 109, 111, 112, 114, 116
    3    7 N      31-34, 58, 93-96, 118
    4    8 O      35-37, 59, 63, 71, 97, 98

           -------------------------------------------------
          |                Calculation Setup                |
           -------------------------------------------------

          program call               : C:\ORCA_6.1.1\xTB_bigstack\xtb.exe p_A_D7a.xyz -c 0 -u 0 -P 1 --acc 1.0 --namespace p_A_D7a
          calculation namespace      : p_A_D7a
          coordinate file            : p_A_D7a.xyz
          omp threads                :                     1


molecular fragmentation (1/2 indicates fragments):
111111111111111111111111111111111111111111111111111111111112222222222222
2222222222222222222222222222222222222222222222
# atoms in fragment 1/2:    59    59
 fragment masses (1/2) :      459.50      459.50
CMA distance (Bohr)    :  21.778
constraining FC (au)   :  0.0500

           -------------------------------------------------
          |                 G F N 2 - x T B                 |
           -------------------------------------------------

        Reference                      10.1021/acs.jctc.8b01176
      * Hamiltonian:
        H0-scaling (s, p, d)           1.850000    2.230000    2.230000
        zeta-weighting                 0.500000
      * Dispersion:
        s8                             2.700000
        a1                             0.520000
        a2                             5.000000
        s9                             5.000000
      * Repulsion:
        kExp                           1.500000    1.000000
        rExp                           1.000000
      * Coulomb:
        alpha                          2.000000
        third order                    shell-resolved
        anisotropic                    true
        a3                             3.000000
        a5                             4.000000
        cn-shift                       1.200000
        cn-exp                         4.000000
        max-rad                        5.000000


          ...................................................
          :                      SETUP                      :
          :.................................................:
          :  # basis functions                 322          :
          :  # atomic orbitals                 322          :
          :  # shells                          186          :
          :  # electrons                       348          :
          :  max. iterations                   250          :
          :  Hamiltonian                  GFN2-xTB          :
          :  restarted?                      false          :
          :  GBSA solvation                  false          :
          :  PC potential                    false          :
          :  electronic temp.          300.0000000     K    :
          :  accuracy                    1.0000000          :
          :  -> integral cutoff          0.2500000E+02      :
          :  -> integral neglect         0.1000000E-07      :
          :  -> SCF convergence          0.1000000E-05 Eh   :
          :  -> wf. convergence          0.1000000E-03 e    :
          :  Broyden damping             0.4000000          :
          :  net charge                          0          :
          :  unpaired electrons                  0          :
          ...................................................

 iter      E             dE          RMSdq      gap      omega  full diag
   1   -197.4512634 -0.197451E+03  0.413E+00    2.88       0.0  T
   2   -197.9778663 -0.526603E+00  0.242E+00    2.60       1.0  T
   3   -198.0290098 -0.511435E-01  0.129E+00    3.00       1.0  T
   4   -198.0361768 -0.716703E-02  0.435E-01    2.64       1.0  T
   5   -198.0510868 -0.149100E-01  0.924E-02    2.69       1.0  T
   6   -198.0512917 -0.204836E-03  0.533E-02    2.71       1.0  T
   7   -198.0514616 -0.169930E-03  0.222E-02    2.73       1.0  T
   8   -198.0514686 -0.705145E-05  0.826E-03    2.73       1.1  T
   9   -198.0514714 -0.273896E-05  0.364E-03    2.73       2.5  T
  10   -198.0514716 -0.197219E-06  0.147E-03    2.73       6.3  T
  11   -198.0514717 -0.124356E-06  0.555E-04    2.73      16.6  T
  12   -198.0514717 -0.111775E-07  0.259E-04    2.73      35.5  T

   *** convergence criteria satisfied after 12 iterations ***

         #    Occupation            Energy/Eh            Energy/eV
      -------------------------------------------------------------
         1        2.0000           -0.7276937             -19.8016
       ...           ...                  ...                  ...
       168        2.0000           -0.3889224             -10.5831
       169        2.0000           -0.3877275             -10.5506
       170        2.0000           -0.3872063             -10.5364
       171        2.0000           -0.3848924             -10.4735
       172        2.0000           -0.3814938             -10.3810
       173        2.0000           -0.3800947             -10.3429
       174        2.0000           -0.3751410             -10.2081 (HOMO)
       175                         -0.2747280              -7.4757 (LUMO)
       176                         -0.2683739              -7.3028
       177                         -0.2468535              -6.7172
       178                         -0.2414478              -6.5701
       179                         -0.2405500              -6.5457
       ...                                ...                  ...
       322                          0.8679863              23.6191
      -------------------------------------------------------------
                  HL-Gap            0.1004131 Eh            2.7324 eV
             Fermi-level           -0.3249345 Eh           -8.8419 eV

 SCC (total)                   0 d,  0 h,  0 min,  0.370 sec
 SCC setup                      ...        0 min,  0.001 sec (  0.270%)
 Dispersion                     ...        0 min,  0.003 sec (  0.811%)
 classical contributions        ...        0 min,  0.001 sec (  0.270%)
 integral evaluation            ...        0 min,  0.032 sec (  8.649%)
 iterations                     ...        0 min,  0.192 sec ( 51.892%)
 molecular gradient             ...        0 min,  0.139 sec ( 37.568%)
 printout                       ...        0 min,  0.002 sec (  0.541%)

         :::::::::::::::::::::::::::::::::::::::::::::::::::::
         ::                     SUMMARY                     ::
         :::::::::::::::::::::::::::::::::::::::::::::::::::::
         :: total energy            -193.668023736088 Eh    ::
         :: gradient norm              1.318497479008 Eh/a0 ::
         :: HOMO-LUMO gap              2.732378876700 eV    ::
         ::.................................................::
         :: SCC energy              -198.050823490111 Eh    ::
         :: -> isotropic ES            0.295849369443 Eh    ::
         :: -> anisotropic ES          0.005303050319 Eh    ::
         :: -> anisotropic XC          0.036969568526 Eh    ::
         :: -> dispersion             -0.145966812249 Eh    ::
         :: repulsion energy           4.382799754023 Eh    ::
         :: add. restraining           0.000000000000 Eh    ::
         :: total charge               0.000000000000 e     ::
         :::::::::::::::::::::::::::::::::::::::::::::::::::::

           -------------------------------------------------
          |                Property Printout                |
           -------------------------------------------------

    * Orbital Energies and Occupations

         #    Occupation            Energy/Eh            Energy/eV
      -------------------------------------------------------------
         1        2.0000           -0.7276937             -19.8016
       ...           ...                  ...                  ...
       162        2.0000           -0.4080968             -11.1049
       163        2.0000           -0.4058447             -11.0436
       164        2.0000           -0.3982162             -10.8360
       165        2.0000           -0.3961520             -10.7798
       166        2.0000           -0.3936584             -10.7120
       167        2.0000           -0.3896459             -10.6028
       168        2.0000           -0.3889224             -10.5831
       169        2.0000           -0.3877275             -10.5506
       170        2.0000           -0.3872063             -10.5364
       171        2.0000           -0.3848924             -10.4735
       172        2.0000           -0.3814938             -10.3810
       173        2.0000           -0.3800947             -10.3429
       174        2.0000           -0.3751410             -10.2081 (HOMO)
       175                         -0.2747280              -7.4757 (LUMO)
       176                         -0.2683739              -7.3028
       177                         -0.2468535              -6.7172
       178                         -0.2414478              -6.5701
       179                         -0.2405500              -6.5457
       180                         -0.2387744              -6.4974
       181                         -0.2359511              -6.4206
       182                         -0.2336935              -6.3591
       183                         -0.2320581              -6.3146
       184                         -0.2290590              -6.2330
       185                         -0.2209989              -6.0137
       ...                                ...                  ...
       322                          0.8679863              23.6191
      -------------------------------------------------------------
                  HL-Gap            0.1004131 Eh            2.7324 eV
             Fermi-level           -0.3249345 Eh           -8.8419 eV

     #   Z          covCN         q      C6AA      α(0)
     1   1 H        0.930     0.074     2.039     2.233
     2   6 C        2.936    -0.046    29.137     8.853
     3   1 H        0.930     0.070     2.087     2.259
     4   6 C        2.928     0.069    26.456     8.435
     5   6 C        3.764    -0.013    20.845     6.508
     6   1 H        0.930     0.059     2.208     2.324
     7   6 C        2.767     0.268    22.471     7.763
     8   6 C        3.096    -0.010    28.142     8.694
     9   6 C        3.070    -0.015    28.310     8.724
    10   6 C        3.821    -0.083    22.065     6.685
    11   1 H        0.930     0.078     1.995     2.209
    12   1 H        0.930     0.085     1.924     2.169
    13   6 C        3.172     0.027    27.025     8.492
    14   6 C        2.748     0.278    22.299     7.732
    15   6 C        2.920     0.046    26.969     8.516
    16   6 C        2.934    -0.044    29.081     8.844
    17   1 H        0.930     0.070     2.090     2.260
    18   6 C        2.932    -0.081    30.024     8.986
    19   1 H        0.930     0.068     2.112     2.272
    20   6 C        2.878     0.144    24.860     8.174
    21   6 C        2.936    -0.066    29.650     8.930
    22   1 H        0.930     0.080     1.982     2.201
    23   6 C        2.932    -0.046    29.141     8.853
    24   1 H        0.930     0.081     1.971     2.196
    25   6 C        3.664     0.013    20.622     6.513
    26   1 H        0.930     0.076     2.024     2.225
    27   1 H        0.930     0.056     2.243     2.342
    28   1 H        0.930     0.057     2.231     2.335
    29   1 H        0.862     0.206     1.073     1.623
    30   1 H        0.863     0.212     1.048     1.603
    31   7 N        2.745    -0.119    23.581     7.212
    32   7 N        3.019     0.088    19.708     6.593
    33   7 N        1.991    -0.240    27.072     7.717
    34   7 N        2.645    -0.283    27.311     7.762
    35   8 O        0.858    -0.451    22.730     6.392
    36   8 O        0.860    -0.448    22.655     6.382
    37   8 O        1.705    -0.280    18.640     5.829
    38   6 C        3.762    -0.011    20.813     6.503
    39   1 H        0.930     0.058     2.224     2.332
    40   1 H        0.930     0.060     2.197     2.318
    41   6 C        3.827    -0.083    22.062     6.684
    42   1 H        0.930     0.056     2.251     2.346
    43   1 H        0.930     0.059     2.215     2.327
    44   6 C        3.825    -0.080    22.002     6.675
    45   1 H        0.930     0.053     2.276     2.359
    46   1 H        0.930     0.051     2.306     2.374
    47   6 C        3.826    -0.107    22.520     6.753
    48   1 H        0.930     0.075     2.035     2.231
    49   1 H        0.930     0.077     2.010     2.217
    50   6 C        2.766     0.268    22.471     7.763
    51   6 C        2.935    -0.055    29.362     8.887
    52   1 H        0.930     0.067     2.118     2.276
    53   6 C        2.930     0.070    26.431     8.431
    54   6 C        2.938    -0.044    29.082     8.844
    55   6 C        2.935    -0.056    29.397     8.892
    56   1 H        0.930     0.070     2.081     2.256
    57   1 H        0.930     0.071     2.075     2.252
    58   7 N        2.739    -0.113    23.473     7.196
    59   8 O        0.859    -0.467    23.067     6.439
    60   6 C        3.826    -0.108    22.541     6.756
    61   1 H        0.930     0.076     2.017     2.221
    62   1 H        0.930     0.073     2.049     2.238
    63   8 O        0.859    -0.471    23.159     6.452
    64   6 C        2.878     0.144    24.855     8.173
    65   6 C        2.936    -0.067    29.663     8.932
    66   1 H        0.930     0.078     1.995     2.208
    67   6 C        3.664     0.013    20.628     6.514
    68   1 H        0.930     0.073     2.054     2.241
    69   1 H        0.930     0.059     2.207     2.323
    70   1 H        0.930     0.057     2.236     2.338
    71   8 O        1.705    -0.281    18.662     5.833
    72   6 C        2.928     0.069    26.453     8.435
    73   1 H        0.930     0.068     2.103     2.268
    74   6 C        3.764    -0.012    20.838     6.507
    75   1 H        0.930     0.058     2.218     2.329
    76   1 H        0.930     0.070     2.087     2.259
    77   6 C        2.767     0.269    22.465     7.762
    78   6 C        3.096    -0.009    28.121     8.691
    79   6 C        3.070    -0.016    28.328     8.727
    80   6 C        3.821    -0.083    22.059     6.684
    81   1 H        0.930     0.077     2.006     2.215
    82   1 H        0.930     0.084     1.937     2.176
    83   6 C        3.172     0.026    27.043     8.495
    84   6 C        2.748     0.278    22.300     7.732
    85   6 C        2.920     0.046    26.968     8.516
    86   6 C        2.934    -0.042    29.038     8.838
    87   1 H        0.930     0.070     2.082     2.256
    88   6 C        2.932    -0.079    29.964     8.977
    89   6 C        2.932    -0.046    29.150     8.854
    90   1 H        0.930     0.080     1.982     2.201
    91   1 H        0.862     0.206     1.077     1.626
    92   1 H        0.863     0.212     1.049     1.604
    93   7 N        2.745    -0.120    23.607     7.216
    94   7 N        3.019     0.089    19.703     6.593
    95   7 N        1.991    -0.241    27.109     7.722
    96   7 N        2.645    -0.284    27.324     7.763
    97   8 O        0.858    -0.445    22.599     6.374
    98   8 O        0.860    -0.449    22.687     6.386
    99   6 C        3.762    -0.010    20.795     6.500
   100   1 H        0.930     0.055     2.263     2.352
   101   1 H        0.930     0.052     2.300     2.371
   102   6 C        3.827    -0.082    22.046     6.681
   103   1 H        0.930     0.059     2.212     2.326
   104   1 H        0.930     0.065     2.140     2.288
   105   6 C        3.825    -0.082    22.042     6.681
   106   1 H        0.930     0.073     2.049     2.239
   107   1 H        0.930     0.044     2.391     2.418
   108   6 C        2.766     0.268    22.468     7.763
   109   6 C        2.935    -0.057    29.407     8.894
   110   1 H        0.930     0.065     2.144     2.289
   111   6 C        2.930     0.070    26.445     8.433
   112   6 C        2.938    -0.043    29.066     8.842
   113   1 H        0.930     0.075     2.028     2.227
   114   6 C        2.936    -0.044    29.097     8.847
   115   1 H        0.930     0.072     2.068     2.249
   116   6 C        2.935    -0.057    29.426     8.896
   117   1 H        0.930     0.069     2.099     2.266
   118   7 N        2.739    -0.115    23.502     7.200

 Mol. C6AA /au·bohr⁶  :     167526.235420
 Mol. C8AA /au·bohr⁸  :    4001118.133884
 Mol. α(0) /au        :        634.391800


Wiberg/Mayer (AO) data.
largest (>0.10) Wiberg bond orders for each atom

 ---------------------------------------------------------------------------
     #   Z sym  total        # sym  WBO       # sym  WBO       # sym  WBO
 ---------------------------------------------------------------------------
     1   1 H    0.994 --    54 C    0.973
     2   6 C    3.993 --    54 C    1.441     4 C    1.403     3 H    0.973
                            51 C    0.109
     3   1 H    0.995 --     2 C    0.973
     4   6 C    3.965 --     2 C    1.403    55 C    1.401    31 N    0.997
     5   6 C    3.967 --    10 C    0.998     6 H    0.974    57 H    0.974
                            31 N    0.961
     6   1 H    0.996 --     5 C    0.974
     7   6 C    3.957 --    35 O    1.646    31 N    1.206     8 C    1.013
     8   6 C    3.952 --     9 C    1.429    32 N    1.218     7 C    1.013
                            33 N    0.134
     9   6 C    3.981 --     8 C    1.429    13 C    1.322    10 C    1.012
    10   6 C    3.989 --     9 C    1.012     5 C    0.998    12 H    0.962
                            11 H    0.960
    11   1 H    0.993 --    10 C    0.960
    12   1 H    0.992 --    10 C    0.962
    13   6 C    3.968 --    33 N    1.427     9 C    1.322    14 C    0.999
    14   6 C    3.952 --    36 O    1.660    34 N    1.253    13 C    0.999
    15   6 C    3.956 --    16 C    1.402    23 C    1.371    32 N    1.005
    16   6 C    3.992 --    18 C    1.435    15 C    1.402    17 H    0.974
                            21 C    0.108
    17   1 H    0.995 --    16 C    0.974
    18   6 C    3.990 --    16 C    1.435    20 C    1.379    19 H    0.971
    19   1 H    0.995 --    18 C    0.971
    20   6 C    3.933 --    18 C    1.379    21 C    1.344    37 O    1.072
    21   6 C    3.991 --    23 C    1.477    20 C    1.344    22 H    0.972
                            16 C    0.108
    22   1 H    0.993 --    21 C    0.972
    23   6 C    3.990 --    21 C    1.477    15 C    1.371    24 H    0.972
    24   1 H    0.993 --    23 C    0.972
    25   6 C    3.936 --    28 H    0.981    27 H    0.980    26 H    0.979
                            37 O    0.967
    26   1 H    0.994 --    25 C    0.979
    27   1 H    0.997 --    25 C    0.980
    28   1 H    0.996 --    25 C    0.981
    29   1 H    0.957 --    34 N    0.941
    30   1 H    0.955 --    34 N    0.942
    31   7 N    3.475 --     7 C    1.206     4 C    0.997     5 C    0.961
                            35 O    0.188
    32   7 N    3.691 --    33 N    1.220     8 C    1.218    15 C    1.005
    33   7 N    2.966 --    13 C    1.427    32 N    1.220     8 C    0.134
    34   7 N    3.371 --    14 C    1.253    30 H    0.942    29 H    0.941
                            36 O    0.194
    35   8 O    1.992 --     7 C    1.646    31 N    0.188
    36   8 O    1.974 --    14 C    1.660    34 N    0.194
    37   8 O    2.209 --    20 C    1.072    25 C    0.967
    38   6 C    3.970 --    41 C    1.007    40 H    0.974    39 H    0.972
                            58 N    0.960
    39   1 H    0.997 --    38 C    0.972
    40   1 H    0.996 --    38 C    0.974
    41   6 C    3.992 --    38 C    1.007    44 C    1.006    42 H    0.979
                            43 H    0.971
    42   1 H    0.997 --    41 C    0.979
    43   1 H    0.996 --    41 C    0.971
    44   6 C    3.994 --    41 C    1.006    47 C    1.002    46 H    0.981
                            45 H    0.976
    45   1 H    0.997 --    44 C    0.976
    46   1 H    0.997 --    44 C    0.981
    47   6 C    3.990 --    44 C    1.002    50 C    0.977    49 H    0.963
                            48 H    0.954
    48   1 H    0.994 --    47 C    0.954
    49   1 H    0.994 --    47 C    0.963
    50   6 C    3.950 --    59 O    1.659    58 N    1.236    47 C    0.977
    51   6 C    3.994 --    55 C    1.442    53 C    1.405    52 H    0.974
                             2 C    0.109
    52   1 H    0.995 --    51 C    0.974
    53   6 C    3.969 --    51 C    1.405    54 C    1.405    58 N    0.992
    54   6 C    3.993 --     2 C    1.441    53 C    1.405     1 H    0.973
                            55 C    0.110
    55   6 C    3.993 --    51 C    1.442     4 C    1.401    56 H    0.974
                            54 C    0.110
    56   1 H    0.995 --    55 C    0.974
    57   1 H    0.995 --     5 C    0.974
    58   7 N    3.479 --    50 C    1.236    53 C    0.992    38 C    0.960
                            59 O    0.189
    59   8 O    1.968 --    50 C    1.659    58 N    0.189
    60   6 C    3.990 --   105 C    1.001   108 C    0.978    62 H    0.964
                            61 H    0.953
    61   1 H    0.994 --    60 C    0.953
    62   1 H    0.995 --    60 C    0.964
    63   8 O    1.964 --   108 C    1.656   118 N    0.187
    64   6 C    3.933 --    88 C    1.380    65 C    1.344    71 O    1.070
    65   6 C    3.991 --    89 C    1.476    64 C    1.344    66 H    0.972
                            86 C    0.108
    66   1 H    0.993 --    65 C    0.972
    67   6 C    3.936 --    69 H    0.981    70 H    0.981    68 H    0.979
                            71 O    0.967
    68   1 H    0.994 --    67 C    0.979
    69   1 H    0.996 --    67 C    0.981
    70   1 H    0.997 --    67 C    0.981
    71   8 O    2.207 --    64 C    1.070    67 C    0.967
    72   6 C    3.965 --   114 C    1.403   116 C    1.401    93 N    0.996
    73   1 H    0.995 --   116 C    0.974
    74   6 C    3.968 --    80 C    0.998    75 H    0.974    76 H    0.974
                            93 N    0.961
    75   1 H    0.997 --    74 C    0.974
    76   1 H    0.995 --    74 C    0.974
    77   6 C    3.957 --    97 O    1.654    93 N    1.202    78 C    1.011
    78   6 C    3.952 --    79 C    1.430    94 N    1.220    77 C    1.011
                            95 N    0.134
    79   6 C    3.981 --    78 C    1.430    83 C    1.322    80 C    1.012
    80   6 C    3.989 --    79 C    1.012    74 C    0.998    82 H    0.963
                            81 H    0.961
    81   1 H    0.994 --    80 C    0.961
    82   1 H    0.992 --    80 C    0.963
    83   6 C    3.968 --    95 N    1.426    79 C    1.322    84 C    1.000
    84   6 C    3.952 --    98 O    1.659    96 N    1.252    83 C    1.000
    85   6 C    3.956 --    86 C    1.402    89 C    1.371    94 N    1.005
    86   6 C    3.991 --    88 C    1.435    85 C    1.402    87 H    0.973
                            65 C    0.108
    87   1 H    0.995 --    86 C    0.973
    88   6 C    3.991 --    86 C    1.435    64 C    1.380   117 H    0.971
    89   6 C    3.990 --    65 C    1.476    85 C    1.371    90 H    0.972
    90   1 H    0.993 --    89 C    0.972
    91   1 H    0.957 --    96 N    0.941
    92   1 H    0.955 --    96 N    0.942
    93   7 N    3.472 --    77 C    1.202    72 C    0.996    74 C    0.961
                            97 O    0.189
    94   7 N    3.691 --    95 N    1.220    78 C    1.220    85 C    1.005
    95   7 N    2.965 --    83 C    1.426    94 N    1.220    78 C    0.134
    96   7 N    3.370 --    84 C    1.252    92 H    0.942    91 H    0.941
                            98 O    0.193
    97   8 O    1.999 --    77 C    1.654    93 N    0.189
    98   8 O    1.972 --    84 C    1.659    96 N    0.193
    99   6 C    3.970 --   102 C    1.006   101 H    0.975   100 H    0.973
                           118 N    0.958
   100   1 H    0.997 --    99 C    0.973
   101   1 H    0.997 --    99 C    0.975
   102   6 C    3.990 --   105 C    1.007    99 C    1.006   103 H    0.979
                           104 H    0.969
   103   1 H    0.997 --   102 C    0.979
   104   1 H    0.995 --   102 C    0.969
   105   6 C    3.992 --   102 C    1.007    60 C    1.001   107 H    0.982
                           106 H    0.972
   106   1 H    0.995 --   105 C    0.972
   107   1 H    0.998 --   105 C    0.982
   108   6 C    3.949 --    63 O    1.656   118 N    1.235    60 C    0.978
   109   6 C    3.994 --   116 C    1.442   111 C    1.405   110 H    0.974
                           114 C    0.109
   110   1 H    0.995 --   109 C    0.974
   111   6 C    3.970 --   109 C    1.405   112 C    1.404   118 N    0.993
   112   6 C    3.993 --   114 C    1.441   111 C    1.404   113 H    0.973
                           116 C    0.110
   113   1 H    0.994 --   112 C    0.973
   114   6 C    3.992 --   112 C    1.441    72 C    1.403   115 H    0.973
                           109 C    0.109
   115   1 H    0.995 --   114 C    0.973
   116   6 C    3.993 --   109 C    1.442    72 C    1.401    73 H    0.974
                           112 C    0.110
   117   1 H    0.995 --    88 C    0.971
   118   7 N    3.478 --   108 C    1.235   111 C    0.993    99 C    0.958
                            63 O    0.187
 ---------------------------------------------------------------------------

Topologies differ in total number of bonds
Writing topology from bond orders to xtbtopo.mol

molecular dipole:
                 x           y           z       tot (Debye)
 q only:       -0.094      -0.730       0.225
   full:       -0.085      -0.165       0.227       0.745
molecular quadrupole (traceless):
                xx          xy          yy          xz          yz          zz
 q only:       -6.458     -47.462     -57.278      23.203     -79.908      63.736
  q+dip:      -42.461      -8.925      19.755      27.739     -26.538      22.706
   full:      -39.406      -8.920      15.834      32.754     -26.544      23.572


           -------------------------------------------------
          | TOTAL ENERGY             -193.668023736088 Eh   |
          | GRADIENT NORM               1.318497479008 Eh/α |
          | HOMO-LUMO GAP               2.732378876700 eV   |
           -------------------------------------------------

------------------------------------------------------------------------
 * finished run on 2026/10/03 at 19:14:21.700     
------------------------------------------------------------------------
 total:
 * wall-time:     0 d,  0 h,  0 min,  0.425 sec
 *  cpu-time:     0 d,  0 h,  0 min,  0.406 sec
 * ratio c/w:     0.956 speedup
 SCF:
 * wall-time:     0 d,  0 h,  0 min,  0.370 sec
 *  cpu-time:     0 d,  0 h,  0 min,  0.375 sec
 * ratio c/w:     1.014 speedup

normal termination of xtb
