22
Coordinates from ORCA-job Phenanthroline_C2v_r2SCAN3c_Opt_Freq E -571.477878474672
  C           0.00000000000000      3.47098609418483      0.34811464832099
  C           0.00000000000000      2.69955549156615      1.52304512519540
  N           0.00000000000000      1.37853017143110      1.54043434901446
  C           0.00000000000000      0.72637382150959      0.35954300955956
  C           0.00000000000000      1.41080089228734     -0.88750018628800
  C           0.00000000000000      2.81804226650383     -0.86181277087886
  C           0.00000000000000      0.67895710607319     -2.11432817246479
  C           0.00000000000000     -0.67895710607319     -2.11432817246479
  C          -0.00000000000000     -1.41080089228734     -0.88750018628800
  C          -0.00000000000000     -2.81804226650383     -0.86181277087886
  C           0.00000000000000     -3.47098609418483      0.34811464832099
  C           0.00000000000000     -2.69955549156615      1.52304512519540
  N           0.00000000000000     -1.37853017143110      1.54043434901446
  C           0.00000000000000     -0.72637382150959      0.35954300955956
  H           0.00000000000000      4.55523788071352      0.40566897289205
  H           0.00000000000000      3.19336442272571      2.49544156987544
  H           0.00000000000000      3.36930154062144     -1.79922120624747
  H           0.00000000000000      1.23304046013066     -3.04994632676312
  H           0.00000000000000     -1.23304046013066     -3.04994632676312
  H           0.00000000000000     -3.36930154062144     -1.79922120624747
  H           0.00000000000000     -4.55523788071352      0.40566897289205
  H           0.00000000000000     -3.19336442272571      2.49544156987544
