22
Coordinates from ORCA-job Phenanthroline_C2v_r2SCAN3c_Opt_Freq E -571.465296571748
  C       0.000000      3.482545      0.356288
  C       0.000000      2.752651      1.546903
  N       0.000000      1.393414      1.515306
  C       0.000000      0.701827      0.341612
  C       0.000000      1.404799     -0.885702
  C       0.000000      2.805877     -0.864857
  C       0.000000      0.698875     -2.097516
  C       0.000000     -0.698875     -2.097516
  C      -0.000000     -1.404799     -0.885702
  C       0.000000     -2.805877     -0.864857
  C      -0.000000     -3.482545      0.356288
  C       0.000000     -2.752651      1.546903
  N       0.000000     -1.393414      1.515306
  C       0.000000     -0.701827      0.341612
  H       0.000000      4.564606      0.380247
  H      -0.000000      3.267812      2.498119
  H       0.000000      3.373885     -1.787505
  H       0.000000      1.227636     -3.043244
  H       0.000000     -1.227636     -3.043244
  H       0.000000     -3.373885     -1.787505
  H       0.000000     -4.564606      0.380247
  H       0.000000     -3.267812      2.498119
22
Coordinates from ORCA-job Phenanthroline_C2v_r2SCAN3c_Opt_Freq E -571.476221945691
  C       0.000000      3.465496      0.349800
  C      -0.000000      2.710977      1.531466
  N       0.000000      1.381669      1.531996
  C       0.000000      0.714488      0.358671
  C       0.000000      1.407095     -0.887645
  C       0.000000      2.809365     -0.864538
  C       0.000000      0.686469     -2.109544
  C       0.000000     -0.686469     -2.109544
  C       0.000000     -1.407095     -0.887645
  C       0.000000     -2.809365     -0.864538
  C       0.000000     -3.465496      0.349800
  C       0.000000     -2.710977      1.531466
  N       0.000000     -1.381669      1.531996
  C       0.000000     -0.714488      0.358671
  H       0.000000      4.551654      0.387837
  H      -0.000000      3.212783      2.495641
  H       0.000000      3.377955     -1.790059
  H       0.000000      1.218478     -3.057039
  H       0.000000     -1.218478     -3.057039
  H       0.000000     -3.377955     -1.790059
  H       0.000000     -4.551654      0.387837
  H       0.000000     -3.212783      2.495641
22
Coordinates from ORCA-job Phenanthroline_C2v_r2SCAN3c_Opt_Freq E -571.477689610639
  C       0.000000      3.465989      0.348270
  C       0.000000      2.696745      1.524049
  N       0.000000      1.379003      1.539228
  C       0.000000      0.723408      0.362590
  C       0.000000      1.409776     -0.888809
  C       0.000000      2.815686     -0.862760
  C       0.000000      0.679598     -2.114074
  C       0.000000     -0.679598     -2.114074
  C       0.000000     -1.409776     -0.888809
  C       0.000000     -2.815686     -0.862760
  C       0.000000     -3.465989      0.348270
  C       0.000000     -2.696745      1.524049
  N      -0.000000     -1.379003      1.539228
  C       0.000000     -0.723408      0.362590
  H       0.000000      4.551271      0.397269
  H       0.000000      3.191044      2.496085
  H       0.000000      3.378777     -1.792861
  H       0.000000      1.219249     -3.058062
  H       0.000000     -1.219249     -3.058062
  H       0.000000     -3.378777     -1.792861
  H       0.000000     -4.551271      0.397269
  H       0.000000     -3.191044      2.496085
22
Coordinates from ORCA-job Phenanthroline_C2v_r2SCAN3c_Opt_Freq E -571.477824133526
  C       0.000000      3.469924      0.348530
  C       0.000000      2.698454      1.523477
  N       0.000000      1.379132      1.540078
  C       0.000000      0.725611      0.360905
  C      -0.000000      1.411055     -0.888701
  C       0.000000      2.818163     -0.861906
  C       0.000000      0.679161     -2.114421
  C       0.000000     -0.679161     -2.114421
  C       0.000000     -1.411055     -0.888701
  C       0.000000     -2.818163     -0.861906
  C       0.000000     -3.469924      0.348530
  C      -0.000000     -2.698454      1.523477
  N       0.000000     -1.379132      1.540078
  C       0.000000     -0.725611      0.360905
  H       0.000000      4.554637      0.400993
  H      -0.000000      3.191988      2.496425
  H       0.000000      3.376691     -1.794960
  H       0.000000      1.224301     -3.055348
  H       0.000000     -1.224301     -3.055348
  H       0.000000     -3.376691     -1.794960
  H       0.000000     -4.554637      0.400993
  H       0.000000     -3.191988      2.496425
22
Coordinates from ORCA-job Phenanthroline_C2v_r2SCAN3c_Opt_Freq E -571.477873513075
  C       0.000000      3.471907      0.348764
  C       0.000000      2.699548      1.523238
  N       0.000000      1.378483      1.540302
  C      -0.000000      0.726814      0.359039
  C       0.000000      1.411451     -0.888142
  C       0.000000      2.818894     -0.861296
  C       0.000000      0.679030     -2.114392
  C       0.000000     -0.679030     -2.114392
  C       0.000000     -1.411451     -0.888142
  C       0.000000     -2.818894     -0.861296
  C       0.000000     -3.471907      0.348764
  C       0.000000     -2.699548      1.523238
  N       0.000000     -1.378483      1.540302
  C       0.000000     -0.726814      0.359039
  H       0.000000      4.556129      0.404942
  H       0.000000      3.192659      2.496148
  H       0.000000      3.372203     -1.797541
  H       0.000000      1.230523     -3.051557
  H       0.000000     -1.230523     -3.051557
  H       0.000000     -3.372203     -1.797541
  H       0.000000     -4.556129      0.404942
  H       0.000000     -3.192659      2.496148
22
Coordinates from ORCA-job Phenanthroline_C2v_r2SCAN3c_Opt_Freq E -571.477877053466
  C      -0.000000      3.471470      0.348509
  C       0.000000      2.699527      1.523158
  N       0.000000      1.378385      1.540336
  C       0.000000      0.726651      0.359125
  C       0.000000      1.411142     -0.887813
  C       0.000000      2.818446     -0.861486
  C      -0.000000      0.678996     -2.114342
  C       0.000000     -0.678996     -2.114342
  C       0.000000     -1.411142     -0.887813
  C       0.000000     -2.818446     -0.861486
  C       0.000000     -3.471470      0.348509
  C      -0.000000     -2.699527      1.523158
  N       0.000000     -1.378385      1.540336
  C       0.000000     -0.726651      0.359125
  H       0.000000      4.555688      0.405481
  H       0.000000      3.192906      2.495818
  H       0.000000      3.370556     -1.798426
  H       0.000000      1.231983     -3.050615
  H       0.000000     -1.231983     -3.050615
  H      -0.000000     -3.370556     -1.798426
  H       0.000000     -4.555688      0.405481
  H       0.000000     -3.192906      2.495818
22
Coordinates from ORCA-job Phenanthroline_C2v_r2SCAN3c_Opt_Freq E -571.477878474672
  C       0.000000      3.470986      0.348115
  C       0.000000      2.699555      1.523045
  N       0.000000      1.378530      1.540434
  C       0.000000      0.726374      0.359543
  C       0.000000      1.410801     -0.887500
  C       0.000000      2.818042     -0.861813
  C       0.000000      0.678957     -2.114328
  C       0.000000     -0.678957     -2.114328
  C      -0.000000     -1.410801     -0.887500
  C      -0.000000     -2.818042     -0.861813
  C       0.000000     -3.470986      0.348115
  C       0.000000     -2.699555      1.523045
  N       0.000000     -1.378530      1.540434
  C       0.000000     -0.726374      0.359543
  H       0.000000      4.555238      0.405669
  H       0.000000      3.193364      2.495442
  H       0.000000      3.369302     -1.799221
  H       0.000000      1.233040     -3.049946
  H       0.000000     -1.233040     -3.049946
  H       0.000000     -3.369302     -1.799221
  H       0.000000     -4.555238      0.405669
  H       0.000000     -3.193364      2.495442
