      -----------------------------------------------------------      
     |                   =====================                   |     
     |                           x T B                           |     
     |                   =====================                   |     
     |                         S. Grimme                         |     
     |          Mulliken Center for Theoretical Chemistry        |     
     |                    University of Bonn                     |     
      -----------------------------------------------------------      

   * xtb version 6.7.1pre (5071a88) compiled by 'Marcel@Raven' on 2024-07-23

   xtb is free software: you can redistribute it and/or modify it under
   the terms of the GNU Lesser General Public License as published by
   the Free Software Foundation, either version 3 of the License, or
   (at your option) any later version.
   
   xtb is distributed in the hope that it will be useful,
   but WITHOUT ANY WARRANTY; without even the implied warranty of
   MERCHANTABILITY or FITNESS FOR A PARTICULAR PURPOSE.  See the
   GNU Lesser General Public License for more details.
   
   Cite this work as:
   * C. Bannwarth, E. Caldeweyher, S. Ehlert, A. Hansen, P. Pracht,
     J. Seibert, S. Spicher, S. Grimme, WIREs Comput. Mol. Sci., 2020, 11,
     e01493. DOI: 10.1002/wcms.1493
   
   for GFN2-xTB:
   * C. Bannwarth, S. Ehlert and S. Grimme., J. Chem. Theory Comput., 2019,
     15, 1652-1671. DOI: 10.1021/acs.jctc.8b01176
   for GFN1-xTB:
   * S. Grimme, C. Bannwarth, P. Shushkov, J. Chem. Theory Comput., 2017,
     13, 1989-2009. DOI: 10.1021/acs.jctc.7b00118
   for GFN0-xTB:
   * P. Pracht, E. Caldeweyher, S. Ehlert, S. Grimme, ChemRxiv, 2019, preprint.
     DOI: 10.26434/chemrxiv.8326202.v1
   for GFN-FF:
   * S. Spicher and S. Grimme, Angew. Chem. Int. Ed., 2020, 59, 15665-15673.
     DOI: 10.1002/anie.202004239
   
   for ALPB and GBSA implicit solvation:
   * S. Ehlert, M. Stahn, S. Spicher, S. Grimme, J. Chem. Theory Comput.,
     2021, 17, 4250-4261. DOI: 10.1021/acs.jctc.1c00471
   
   for ddCOSMO and CPCM-X implicit solvation:
   * M. Stahn, S. Ehlert, S. Grimme, J. Phys. Chem. A,
     2023, XX, XXXX-XXXX. DOI: 10.1021/acs.jpca.3c04382
   
   for DFT-D4:
   * E. Caldeweyher, C. Bannwarth and S. Grimme, J. Chem. Phys., 2017,
     147, 034112. DOI: 10.1063/1.4993215
   * E. Caldeweyher, S. Ehlert, A. Hansen, H. Neugebauer, S. Spicher,
     C. Bannwarth and S. Grimme, J. Chem. Phys., 2019, 150, 154122.
     DOI: 10.1063/1.5090222
   * E. Caldeweyher, J.-M. Mewes, S. Ehlert and S. Grimme, Phys. Chem. Chem. Phys.
     2020, 22, 8499-8512. DOI: 10.1039/D0CP00502A
   
   for sTDA-xTB:
   * S. Grimme and C. Bannwarth, J. Chem. Phys., 2016, 145, 054103.
     DOI: 10.1063/1.4959605
   
   in the mass-spec context:
   * V. Asgeirsson, C. Bauer and S. Grimme, Chem. Sci., 2017, 8, 4879.
     DOI: 10.1039/c7sc00601b
   * J. Koopman and S. Grimme, ACS Omega 2019, 4, 12, 15120-15133.
     DOI: 10.1021/acsomega.9b02011
   
   for metadynamics refer to:
   * S. Grimme, J. Chem. Theory Comput., 2019, 155, 2847-2862
     DOI: 10.1021/acs.jctc.9b00143
   
   for SPH calculations refer to:
   * S. Spicher and S. Grimme, J. Chem. Theory Comput., 2021, 17, 1701-1714
     DOI: 10.1021/acs.jctc.0c01306
   
   for ONIOM refer to:
   * C. Plett, A. Katbashev, S. Ehlert, S. Grimme, M. Bursch,
     Phys. Chem. Chem. Phys., 2023, 25, 17860-17868. DOI: 10.1039/D3CP02178E
   
   for DIPRO refer to:
   * J. Kohn, N. Gildemeister, S. Grimme, D. Fazzi, A. Hansen,
     J. Chem. Phys., 2023, just accepted.
   
   for PTB refer to:
   * S. Grimme, M. Mueller, A. Hansen, J. Chem. Phys., 2023, 158, 124111.
     DOI: 10.1063/5.0137838
   
   with help from (in alphabetical order)
   P. Atkinson, C. Bannwarth, F. Bohle, G. Brandenburg, E. Caldeweyher
   M. Checinski, S. Dohm, S. Ehlert, S. Ehrlich, I. Gerasimov, C. Hölzer
   A. Katbashev, J. Kohn, J. Koopman, C. Lavigne, S. Lehtola, F. März, M. Müller,
   F. Musil, H. Neugebauer, J. Pisarek, C. Plett, P. Pracht, F. Pultar,
   J. Seibert, P. Shushkov, S. Spicher, M. Stahn, M. Steiner, T. Strunk,
   J. Stückrath, T. Rose, and J. Unsleber
   
 * started run on 2026/10/03 at 18:56:09.278     
   ID    Z sym.   atoms
    1    6 C      1, 4, 7, 10, 13, 14, 16-18, 24, 26, 27, 29-32, 35-38, 40,
                  42, 43, 45, 47, 60, 64, 65, 67, 72, 74, 77-80, 83-86, 88,
                  89, 99, 102, 105, 108, 109, 111, 112, 114, 116
    2    1 H      2, 3, 5, 6, 8, 9, 11, 12, 15, 19, 20, 23, 25, 28, 33, 34,
                  39, 41, 44, 46, 48-52, 61, 62, 66, 68-70, 73, 75, 76, 81,
                  82, 87, 90-92, 100, 101, 103, 104, 106, 107, 110, 113, 115,
                  117
    3    7 N      21, 53-56, 93-96, 118
    4    8 O      22, 57-59, 63, 71, 97, 98

           -------------------------------------------------
          |                Calculation Setup                |
           -------------------------------------------------

          program call               : C:\ORCA_6.1.1\xTB_bigstack\xtb.exe d_D9_D7b.xyz -c 0 -u 0 -P 1 --acc 1.0 --namespace d_D9_D7b
          calculation namespace      : d_D9_D7b
          coordinate file            : d_D9_D7b.xyz
          omp threads                :                     1


molecular fragmentation (1/2 indicates fragments):
111111111111111111111111111111111111111111111111111111111112222222222222
2222222222222222222222222222222222222222222222
# atoms in fragment 1/2:    59    59
 fragment masses (1/2) :      459.50      459.50
CMA distance (Bohr)    :  36.671
constraining FC (au)   :  0.0500

           -------------------------------------------------
          |                 G F N 2 - x T B                 |
           -------------------------------------------------

        Reference                      10.1021/acs.jctc.8b01176
      * Hamiltonian:
        H0-scaling (s, p, d)           1.850000    2.230000    2.230000
        zeta-weighting                 0.500000
      * Dispersion:
        s8                             2.700000
        a1                             0.520000
        a2                             5.000000
        s9                             5.000000
      * Repulsion:
        kExp                           1.500000    1.000000
        rExp                           1.000000
      * Coulomb:
        alpha                          2.000000
        third order                    shell-resolved
        anisotropic                    true
        a3                             3.000000
        a5                             4.000000
        cn-shift                       1.200000
        cn-exp                         4.000000
        max-rad                        5.000000


          ...................................................
          :                      SETUP                      :
          :.................................................:
          :  # basis functions                 322          :
          :  # atomic orbitals                 322          :
          :  # shells                          186          :
          :  # electrons                       348          :
          :  max. iterations                   250          :
          :  Hamiltonian                  GFN2-xTB          :
          :  restarted?                      false          :
          :  GBSA solvation                  false          :
          :  PC potential                    false          :
          :  electronic temp.          300.0000000     K    :
          :  accuracy                    1.0000000          :
          :  -> integral cutoff          0.2500000E+02      :
          :  -> integral neglect         0.1000000E-07      :
          :  -> SCF convergence          0.1000000E-05 Eh   :
          :  -> wf. convergence          0.1000000E-03 e    :
          :  Broyden damping             0.4000000          :
          :  net charge                          0          :
          :  unpaired electrons                  0          :
          ...................................................

 iter      E             dE          RMSdq      gap      omega  full diag
   1   -197.4357595 -0.197436E+03  0.413E+00    2.89       0.0  T
   2   -197.9670220 -0.531263E+00  0.242E+00    2.67       1.0  T
   3   -198.0182970 -0.512750E-01  0.130E+00    3.12       1.0  T
   4   -198.0252307 -0.693369E-02  0.435E-01    2.96       1.0  T
   5   -198.0400943 -0.148636E-01  0.915E-02    3.02       1.0  T
   6   -198.0402964 -0.202140E-03  0.528E-02    3.04       1.0  T
   7   -198.0404598 -0.163355E-03  0.222E-02    3.05       1.0  T
   8   -198.0404669 -0.711416E-05  0.828E-03    3.05       1.1  T
   9   -198.0404698 -0.285784E-05  0.363E-03    3.05       2.5  T
  10   -198.0404700 -0.204340E-06  0.146E-03    3.05       6.3  T
  11   -198.0404701 -0.123207E-06  0.553E-04    3.05      16.6  T
  12   -198.0404701 -0.112022E-07  0.259E-04    3.05      35.5  T

   *** convergence criteria satisfied after 12 iterations ***

         #    Occupation            Energy/Eh            Energy/eV
      -------------------------------------------------------------
         1        2.0000           -0.7218003             -19.6412
       ...           ...                  ...                  ...
       168        2.0000           -0.3872289             -10.5370
       169        2.0000           -0.3830694             -10.4238
       170        2.0000           -0.3829739             -10.4213
       171        2.0000           -0.3809279             -10.3656
       172        2.0000           -0.3805672             -10.3558
       173        2.0000           -0.3800828             -10.3426
       174        2.0000           -0.3799274             -10.3384 (HOMO)
       175                         -0.2677492              -7.2858 (LUMO)
       176                         -0.2673374              -7.2746
       177                         -0.2402245              -6.5368
       178                         -0.2399077              -6.5282
       179                         -0.2337264              -6.3600
       ...                                ...                  ...
       322                          0.8688961              23.6439
      -------------------------------------------------------------
                  HL-Gap            0.1121782 Eh            3.0525 eV
             Fermi-level           -0.3238383 Eh           -8.8121 eV

 SCC (total)                   0 d,  0 h,  0 min,  0.305 sec
 SCC setup                      ...        0 min,  0.001 sec (  0.328%)
 Dispersion                     ...        0 min,  0.002 sec (  0.656%)
 classical contributions        ...        0 min,  0.001 sec (  0.328%)
 integral evaluation            ...        0 min,  0.031 sec ( 10.164%)
 iterations                     ...        0 min,  0.162 sec ( 53.115%)
 molecular gradient             ...        0 min,  0.106 sec ( 34.754%)
 printout                       ...        0 min,  0.002 sec (  0.656%)

         :::::::::::::::::::::::::::::::::::::::::::::::::::::
         ::                     SUMMARY                     ::
         :::::::::::::::::::::::::::::::::::::::::::::::::::::
         :: total energy            -193.658435384446 Eh    ::
         :: gradient norm              1.318668461657 Eh/a0 ::
         :: HOMO-LUMO gap              3.052523331993 eV    ::
         ::.................................................::
         :: SCC energy              -198.041230568415 Eh    ::
         :: -> isotropic ES            0.296945779385 Eh    ::
         :: -> anisotropic ES          0.005631571032 Eh    ::
         :: -> anisotropic XC          0.036976124324 Eh    ::
         :: -> dispersion             -0.138414939172 Eh    ::
         :: repulsion energy           4.382795183969 Eh    ::
         :: add. restraining           0.000000000000 Eh    ::
         :: total charge               0.000000000000 e     ::
         :::::::::::::::::::::::::::::::::::::::::::::::::::::

           -------------------------------------------------
          |                Property Printout                |
           -------------------------------------------------

    * Orbital Energies and Occupations

         #    Occupation            Energy/Eh            Energy/eV
      -------------------------------------------------------------
         1        2.0000           -0.7218003             -19.6412
       ...           ...                  ...                  ...
       162        2.0000           -0.4070596             -11.0767
       163        2.0000           -0.3976232             -10.8199
       164        2.0000           -0.3972988             -10.8111
       165        2.0000           -0.3894686             -10.5980
       166        2.0000           -0.3891887             -10.5904
       167        2.0000           -0.3875671             -10.5462
       168        2.0000           -0.3872289             -10.5370
       169        2.0000           -0.3830694             -10.4238
       170        2.0000           -0.3829739             -10.4213
       171        2.0000           -0.3809279             -10.3656
       172        2.0000           -0.3805672             -10.3558
       173        2.0000           -0.3800828             -10.3426
       174        2.0000           -0.3799274             -10.3384 (HOMO)
       175                         -0.2677492              -7.2858 (LUMO)
       176                         -0.2673374              -7.2746
       177                         -0.2402245              -6.5368
       178                         -0.2399077              -6.5282
       179                         -0.2337264              -6.3600
       180                         -0.2336318              -6.3574
       181                         -0.2316276              -6.3029
       182                         -0.2310933              -6.2884
       183                         -0.2291579              -6.2357
       184                         -0.2289099              -6.2290
       185                         -0.2139535              -5.8220
       ...                                ...                  ...
       322                          0.8688961              23.6439
      -------------------------------------------------------------
                  HL-Gap            0.1121782 Eh            3.0525 eV
             Fermi-level           -0.3238383 Eh           -8.8121 eV

     #   Z          covCN         q      C6AA      α(0)
     1   6 C        3.762    -0.011    20.811     6.503
     2   1 H        0.930     0.057     2.231     2.335
     3   1 H        0.930     0.060     2.196     2.317
     4   6 C        3.827    -0.083    22.056     6.683
     5   1 H        0.930     0.055     2.257     2.349
     6   1 H        0.930     0.057     2.230     2.335
     7   6 C        3.825    -0.079    21.996     6.674
     8   1 H        0.930     0.053     2.287     2.365
     9   1 H        0.930     0.051     2.311     2.377
    10   6 C        3.826    -0.107    22.516     6.752
    11   1 H        0.930     0.074     2.043     2.235
    12   1 H        0.930     0.076     2.018     2.221
    13   6 C        2.766     0.268    22.475     7.764
    14   6 C        2.935    -0.056    29.383     8.890
    15   1 H        0.930     0.065     2.136     2.285
    16   6 C        2.930     0.069    26.447     8.434
    17   6 C        2.938    -0.042    29.048     8.839
    18   6 C        2.935    -0.056    29.402     8.893
    19   1 H        0.930     0.069     2.092     2.262
    20   1 H        0.930     0.070     2.086     2.258
    21   7 N        2.739    -0.113    23.465     7.194
    22   8 O        0.859    -0.467    23.074     6.440
    23   1 H        0.930     0.075     2.035     2.230
    24   6 C        2.936    -0.044    29.083     8.844
    25   1 H        0.930     0.072     2.064     2.247
    26   6 C        2.928     0.070    26.433     8.431
    27   6 C        3.764    -0.012    20.838     6.507
    28   1 H        0.930     0.058     2.219     2.329
    29   6 C        2.767     0.269    22.464     7.762
    30   6 C        3.096    -0.009    28.121     8.691
    31   6 C        3.070    -0.016    28.326     8.727
    32   6 C        3.821    -0.083    22.058     6.684
    33   1 H        0.930     0.078     2.004     2.214
    34   1 H        0.930     0.084     1.935     2.175
    35   6 C        3.172     0.026    27.041     8.494
    36   6 C        2.748     0.278    22.300     7.732
    37   6 C        2.920     0.046    26.965     8.515
    38   6 C        2.934    -0.042    29.038     8.838
    39   1 H        0.930     0.070     2.084     2.258
    40   6 C        2.932    -0.079    29.965     8.977
    41   1 H        0.930     0.068     2.104     2.268
    42   6 C        2.878     0.145    24.855     8.173
    43   6 C        2.936    -0.067    29.658     8.931
    44   1 H        0.930     0.079     1.992     2.207
    45   6 C        2.932    -0.046    29.144     8.854
    46   1 H        0.930     0.080     1.979     2.200
    47   6 C        3.664     0.013    20.625     6.514
    48   1 H        0.930     0.072     2.058     2.243
    49   1 H        0.930     0.059     2.207     2.323
    50   1 H        0.930     0.056     2.241     2.341
    51   1 H        0.862     0.206     1.077     1.625
    52   1 H        0.863     0.212     1.048     1.603
    53   7 N        2.745    -0.120    23.605     7.216
    54   7 N        3.019     0.089    19.703     6.593
    55   7 N        1.991    -0.241    27.102     7.721
    56   7 N        2.645    -0.284    27.322     7.763
    57   8 O        0.858    -0.444    22.579     6.371
    58   8 O        0.860    -0.449    22.686     6.386
    59   8 O        1.705    -0.281    18.663     5.833
    60   6 C        3.826    -0.107    22.516     6.752
    61   1 H        0.930     0.074     2.042     2.235
    62   1 H        0.930     0.076     2.017     2.221
    63   8 O        0.859    -0.467    23.073     6.440
    64   6 C        2.878     0.144    24.855     8.173
    65   6 C        2.936    -0.067    29.663     8.932
    66   1 H        0.930     0.078     1.995     2.209
    67   6 C        3.664     0.013    20.627     6.514
    68   1 H        0.930     0.072     2.058     2.243
    69   1 H        0.930     0.059     2.206     2.322
    70   1 H        0.930     0.057     2.239     2.340
    71   8 O        1.705    -0.281    18.665     5.833
    72   6 C        2.928     0.070    26.433     8.432
    73   1 H        0.930     0.069     2.092     2.262
    74   6 C        3.764    -0.012    20.839     6.507
    75   1 H        0.930     0.058     2.218     2.329
    76   1 H        0.930     0.070     2.085     2.258
    77   6 C        2.767     0.269    22.465     7.762
    78   6 C        3.096    -0.009    28.119     8.691
    79   6 C        3.070    -0.016    28.325     8.727
    80   6 C        3.821    -0.083    22.058     6.684
    81   1 H        0.930     0.078     2.003     2.213
    82   1 H        0.930     0.084     1.935     2.175
    83   6 C        3.172     0.026    27.041     8.494
    84   6 C        2.748     0.278    22.300     7.732
    85   6 C        2.920     0.046    26.965     8.515
    86   6 C        2.934    -0.042    29.036     8.837
    87   1 H        0.930     0.070     2.083     2.257
    88   6 C        2.932    -0.079    29.962     8.977
    89   6 C        2.932    -0.046    29.148     8.854
    90   1 H        0.930     0.080     1.981     2.201
    91   1 H        0.862     0.206     1.077     1.626
    92   1 H        0.863     0.211     1.049     1.604
    93   7 N        2.745    -0.120    23.603     7.216
    94   7 N        3.019     0.089    19.703     6.593
    95   7 N        1.991    -0.242    27.111     7.722
    96   7 N        2.645    -0.284    27.325     7.764
    97   8 O        0.858    -0.444    22.577     6.370
    98   8 O        0.860    -0.449    22.682     6.385
    99   6 C        3.762    -0.011    20.811     6.503
   100   1 H        0.930     0.057     2.230     2.335
   101   1 H        0.930     0.060     2.196     2.317
   102   6 C        3.827    -0.083    22.056     6.683
   103   1 H        0.930     0.055     2.257     2.349
   104   1 H        0.930     0.057     2.230     2.335
   105   6 C        3.825    -0.079    21.996     6.674
   106   1 H        0.930     0.053     2.287     2.365
   107   1 H        0.930     0.051     2.311     2.377
   108   6 C        2.766     0.268    22.475     7.764
   109   6 C        2.935    -0.056    29.383     8.890
   110   1 H        0.930     0.065     2.136     2.285
   111   6 C        2.930     0.069    26.446     8.434
   112   6 C        2.938    -0.042    29.048     8.839
   113   1 H        0.930     0.075     2.034     2.230
   114   6 C        2.936    -0.044    29.083     8.844
   115   1 H        0.930     0.072     2.064     2.247
   116   6 C        2.935    -0.056    29.402     8.893
   117   1 H        0.930     0.068     2.102     2.267
   118   7 N        2.739    -0.113    23.465     7.194

 Mol. C6AA /au·bohr⁶  :     167555.758949
 Mol. C8AA /au·bohr⁸  :    4001289.380130
 Mol. α(0) /au        :        634.451850


Wiberg/Mayer (AO) data.
largest (>0.10) Wiberg bond orders for each atom

 ---------------------------------------------------------------------------
     #   Z sym  total        # sym  WBO       # sym  WBO       # sym  WBO
 ---------------------------------------------------------------------------
     1   6 C    3.971 --     4 C    1.007     3 H    0.974     2 H    0.972
                            21 N    0.960
     2   1 H    0.997 --     1 C    0.972
     3   1 H    0.996 --     1 C    0.974
     4   6 C    3.992 --     1 C    1.007     7 C    1.006     5 H    0.979
                             6 H    0.971
     5   1 H    0.997 --     4 C    0.979
     6   1 H    0.996 --     4 C    0.971
     7   6 C    3.994 --     4 C    1.006    10 C    1.002     9 H    0.981
                             8 H    0.977
     8   1 H    0.997 --     7 C    0.977
     9   1 H    0.997 --     7 C    0.981
    10   6 C    3.990 --     7 C    1.002    13 C    0.976    12 H    0.964
                            11 H    0.955
    11   1 H    0.994 --    10 C    0.955
    12   1 H    0.994 --    10 C    0.964
    13   6 C    3.951 --    22 O    1.658    21 N    1.238    10 C    0.976
    14   6 C    3.994 --    18 C    1.442    16 C    1.406    15 H    0.974
                            24 C    0.109
    15   1 H    0.995 --    14 C    0.974
    16   6 C    3.968 --    14 C    1.406    17 C    1.405    21 N    0.991
    17   6 C    3.993 --    24 C    1.441    16 C    1.405    23 H    0.973
                            18 C    0.110
    18   6 C    3.993 --    14 C    1.442    26 C    1.401    19 H    0.974
                            17 C    0.110
    19   1 H    0.995 --    18 C    0.974
    20   1 H    0.995 --    27 C    0.974
    21   7 N    3.481 --    13 C    1.238    16 C    0.991     1 C    0.960
                            22 O    0.190
    22   8 O    1.968 --    13 C    1.658    21 N    0.190
    23   1 H    0.994 --    17 C    0.973
    24   6 C    3.992 --    17 C    1.441    26 C    1.403    25 H    0.973
                            14 C    0.109
    25   1 H    0.995 --    24 C    0.973
    26   6 C    3.965 --    24 C    1.403    18 C    1.401    53 N    0.997
    27   6 C    3.967 --    32 C    0.998    28 H    0.974    20 H    0.974
                            53 N    0.961
    28   1 H    0.997 --    27 C    0.974
    29   6 C    3.957 --    57 O    1.655    53 N    1.201    30 C    1.011
    30   6 C    3.952 --    31 C    1.430    54 N    1.220    29 C    1.011
                            55 N    0.134
    31   6 C    3.981 --    30 C    1.430    35 C    1.322    32 C    1.012
    32   6 C    3.989 --    31 C    1.012    27 C    0.998    34 H    0.962
                            33 H    0.961
    33   1 H    0.994 --    32 C    0.961
    34   1 H    0.992 --    32 C    0.962
    35   6 C    3.968 --    55 N    1.426    31 C    1.322    36 C    1.000
    36   6 C    3.952 --    58 O    1.659    56 N    1.253    35 C    1.000
    37   6 C    3.956 --    38 C    1.402    45 C    1.372    54 N    1.005
    38   6 C    3.991 --    40 C    1.435    37 C    1.402    39 H    0.974
                            43 C    0.108
    39   1 H    0.995 --    38 C    0.974
    40   6 C    3.991 --    38 C    1.435    42 C    1.380    41 H    0.971
    41   1 H    0.995 --    40 C    0.971
    42   6 C    3.932 --    40 C    1.380    43 C    1.344    59 O    1.070
    43   6 C    3.991 --    45 C    1.476    42 C    1.344    44 H    0.972
                            38 C    0.108
    44   1 H    0.993 --    43 C    0.972
    45   6 C    3.990 --    43 C    1.476    37 C    1.372    46 H    0.972
    46   1 H    0.993 --    45 C    0.972
    47   6 C    3.937 --    50 H    0.981    49 H    0.981    48 H    0.980
                            59 O    0.967
    48   1 H    0.994 --    47 C    0.980
    49   1 H    0.996 --    47 C    0.981
    50   1 H    0.997 --    47 C    0.981
    51   1 H    0.957 --    56 N    0.941
    52   1 H    0.955 --    56 N    0.942
    53   7 N    3.471 --    29 C    1.201    26 C    0.997    27 C    0.961
                            57 O    0.188
    54   7 N    3.691 --    55 N    1.220    30 C    1.220    37 C    1.005
    55   7 N    2.966 --    35 C    1.426    54 N    1.220    30 C    0.134
    56   7 N    3.370 --    36 C    1.253    52 H    0.942    51 H    0.941
                            58 O    0.193
    57   8 O    2.000 --    29 C    1.655    53 N    0.188
    58   8 O    1.972 --    36 C    1.659    56 N    0.193
    59   8 O    2.206 --    42 C    1.070    47 C    0.967
    60   6 C    3.990 --   105 C    1.002   108 C    0.976    62 H    0.964
                            61 H    0.955
    61   1 H    0.994 --    60 C    0.955
    62   1 H    0.994 --    60 C    0.964
    63   8 O    1.968 --   108 C    1.658   118 N    0.190
    64   6 C    3.932 --    88 C    1.380    65 C    1.344    71 O    1.070
    65   6 C    3.991 --    89 C    1.476    64 C    1.344    66 H    0.972
                            86 C    0.108
    66   1 H    0.993 --    65 C    0.972
    67   6 C    3.936 --    69 H    0.981    70 H    0.981    68 H    0.980
                            71 O    0.967
    68   1 H    0.994 --    67 C    0.980
    69   1 H    0.996 --    67 C    0.981
    70   1 H    0.997 --    67 C    0.981
    71   8 O    2.206 --    64 C    1.070    67 C    0.967
    72   6 C    3.965 --   114 C    1.403   116 C    1.402    93 N    0.997
    73   1 H    0.995 --   116 C    0.974
    74   6 C    3.967 --    80 C    0.998    75 H    0.974    76 H    0.974
                            93 N    0.961
    75   1 H    0.997 --    74 C    0.974
    76   1 H    0.995 --    74 C    0.974
    77   6 C    3.957 --    97 O    1.655    93 N    1.201    78 C    1.011
    78   6 C    3.952 --    79 C    1.430    94 N    1.220    77 C    1.011
                            95 N    0.134
    79   6 C    3.981 --    78 C    1.430    83 C    1.322    80 C    1.012
    80   6 C    3.989 --    79 C    1.012    74 C    0.998    82 H    0.962
                            81 H    0.961
    81   1 H    0.994 --    80 C    0.961
    82   1 H    0.992 --    80 C    0.962
    83   6 C    3.968 --    95 N    1.426    79 C    1.322    84 C    1.000
    84   6 C    3.952 --    98 O    1.660    96 N    1.252    83 C    1.000
    85   6 C    3.956 --    86 C    1.402    89 C    1.372    94 N    1.005
    86   6 C    3.991 --    88 C    1.435    85 C    1.402    87 H    0.973
                            65 C    0.108
    87   1 H    0.995 --    86 C    0.973
    88   6 C    3.991 --    86 C    1.435    64 C    1.380   117 H    0.971
    89   6 C    3.990 --    65 C    1.476    85 C    1.372    90 H    0.972
    90   1 H    0.993 --    89 C    0.972
    91   1 H    0.957 --    96 N    0.941
    92   1 H    0.955 --    96 N    0.942
    93   7 N    3.472 --    77 C    1.201    72 C    0.997    74 C    0.961
                            97 O    0.189
    94   7 N    3.691 --    78 C    1.220    95 N    1.220    85 C    1.005
    95   7 N    2.965 --    83 C    1.426    94 N    1.220    78 C    0.134
    96   7 N    3.369 --    84 C    1.252    92 H    0.942    91 H    0.941
                            98 O    0.193
    97   8 O    2.001 --    77 C    1.655    93 N    0.189
    98   8 O    1.973 --    84 C    1.660    96 N    0.193
    99   6 C    3.971 --   102 C    1.007   101 H    0.974   100 H    0.972
                           118 N    0.960
   100   1 H    0.997 --    99 C    0.972
   101   1 H    0.996 --    99 C    0.974
   102   6 C    3.992 --    99 C    1.007   105 C    1.006   103 H    0.979
                           104 H    0.971
   103   1 H    0.997 --   102 C    0.979
   104   1 H    0.996 --   102 C    0.971
   105   6 C    3.994 --   102 C    1.006    60 C    1.002   107 H    0.981
                           106 H    0.977
   106   1 H    0.997 --   105 C    0.977
   107   1 H    0.997 --   105 C    0.981
   108   6 C    3.951 --    63 O    1.658   118 N    1.238    60 C    0.976
   109   6 C    3.994 --   116 C    1.442   111 C    1.406   110 H    0.974
                           114 C    0.109
   110   1 H    0.995 --   109 C    0.974
   111   6 C    3.968 --   109 C    1.406   112 C    1.405   118 N    0.991
   112   6 C    3.993 --   114 C    1.441   111 C    1.405   113 H    0.973
                           116 C    0.110
   113   1 H    0.994 --   112 C    0.973
   114   6 C    3.992 --   112 C    1.441    72 C    1.403   115 H    0.973
                           109 C    0.109
   115   1 H    0.995 --   114 C    0.973
   116   6 C    3.993 --   109 C    1.442    72 C    1.402    73 H    0.974
                           112 C    0.110
   117   1 H    0.995 --    88 C    0.971
   118   7 N    3.481 --   108 C    1.238   111 C    0.991    99 C    0.960
                            63 O    0.190
 ---------------------------------------------------------------------------

Topologies differ in total number of bonds
Writing topology from bond orders to xtbtopo.mol

molecular dipole:
                 x           y           z       tot (Debye)
 q only:       -0.631       0.010       3.085
   full:       -1.000       0.010       3.472       9.184
molecular quadrupole (traceless):
                xx          xy          yy          xz          yz          zz
 q only:     -304.566     -61.682    -174.962     155.900     343.571     479.529
  q+dip:     -372.915    -105.384    -168.736     144.023     378.935     541.651
   full:     -369.850    -105.384    -172.666     149.023     378.936     542.515


           -------------------------------------------------
          | TOTAL ENERGY             -193.658435384446 Eh   |
          | GRADIENT NORM               1.318668461657 Eh/α |
          | HOMO-LUMO GAP               3.052523331993 eV   |
           -------------------------------------------------

------------------------------------------------------------------------
 * finished run on 2026/10/03 at 18:56:09.663     
------------------------------------------------------------------------
 total:
 * wall-time:     0 d,  0 h,  0 min,  0.383 sec
 *  cpu-time:     0 d,  0 h,  0 min,  0.344 sec
 * ratio c/w:     0.898 speedup
 SCF:
 * wall-time:     0 d,  0 h,  0 min,  0.306 sec
 *  cpu-time:     0 d,  0 h,  0 min,  0.312 sec
 * ratio c/w:     1.021 speedup

normal termination of xtb
