16
Coordinates from ORCA-job Monomer_r2SCAN3c_CPCM E -325.875197226174
  N          -0.00510299967816      1.17907461741195      0.00296874800759
  C          -1.12893857685411      0.43761280615968      0.00088895977343
  C          -0.75052033583979     -1.03014385458754     -0.00213926414536
  C           0.78878600201137     -1.06353314627790      0.00321600139511
  C           1.24070904312870      0.41803500236023     -0.00346783027823
  O          -2.27836499538213      0.89593078084212      0.00168978209552
  C          -0.02925550560825      2.63398961687528      0.00202645069585
  H           0.99764337447058      3.00519010941332      0.00298158693525
  H          -0.54607027982356      3.01572167021850      0.89013660021745
  H          -0.54415816655015      3.01481706636577     -0.88765310425645
  H          -1.19524136416784     -1.51023829506216      0.87580257118347
  H          -1.18925951701897     -1.50582282066179     -0.88546046430314
  H           1.17149917309203     -1.57465680375956      0.88899527851063
  H           1.17858110487352     -1.58493210488547     -0.87337742865164
  H           1.84238121362551      0.67297927058692      0.87852512691734
  H           1.83031182972128      0.66797608500064     -0.89513301409681
