16
Coordinates from ORCA-job Monomer_r2SCAN3c_CPCM E -325.819407719912
  N       0.000000      1.276000      0.000000
  C      -1.213000      0.394000      0.000000
  C      -0.750000     -1.032000      0.000000
  C       0.750000     -1.032000      0.000000
  C       1.213000      0.394000      0.000000
  O      -2.373000      0.771000      0.000000
  C       0.000000      2.746000      0.000000
  H       1.028000      3.109000      0.000000
  H      -0.514000      3.109000      0.890000
  H      -0.514000      3.109000     -0.890000
  H      -1.162000     -1.598000      0.750000
  H      -1.162000     -1.598000     -0.750000
  H       1.162000     -1.598000      0.750000
  H       1.162000     -1.598000     -0.750000
  H       1.878000      0.610000      0.750000
  H       1.878000      0.610000     -0.750000
16
Coordinates from ORCA-job Monomer_r2SCAN3c_CPCM E -325.856789113821
  N      -0.004682      1.239294     -0.000546
  C      -1.181388      0.420283     -0.004524
  C      -0.751768     -1.013706     -0.000674
  C       0.759967     -1.035404      0.004640
  C       1.217501      0.404682      0.002751
  O      -2.327960      0.839173     -0.003766
  C      -0.017332      2.698881      0.002009
  H       1.010864      3.064295      0.006006
  H      -0.535602      3.065838      0.892690
  H      -0.529471      3.068890     -0.890952
  H      -1.195732     -1.571965      0.799526
  H      -1.188732     -1.582644     -0.797197
  H       1.175043     -1.614964      0.803820
  H       1.185940     -1.603148     -0.797283
  H       1.896380      0.646606      0.798571
  H       1.869971      0.645889     -0.815072
16
Coordinates from ORCA-job Monomer_r2SCAN3c_CPCM E -325.871286030702
  N      -0.008178      1.191362     -0.002373
  C      -1.134184      0.447131     -0.010162
  C      -0.748450     -1.003000     -0.002022
  C       0.774928     -1.046428      0.008907
  C       1.224673      0.412923      0.002605
  O      -2.271427      0.913144     -0.009202
  C      -0.035272      2.642831      0.005122
  H       0.991414      3.014315      0.012797
  H      -0.556975      3.013596      0.895330
  H      -0.546451      3.022621     -0.887364
  H      -1.213121     -1.525514      0.841102
  H      -1.200714     -1.550291     -0.836015
  H       1.178218     -1.614925      0.850599
  H       1.199611     -1.596324     -0.834815
  H       1.888770      0.679284      0.835285
  H       1.840159      0.671275     -0.869794
16
Coordinates from ORCA-job Monomer_r2SCAN3c_CPCM E -325.874167557495
  N      -0.004971      1.178341     -0.001228
  C      -1.128135      0.444337     -0.005276
  C      -0.751365     -1.015799     -0.002000
  C       0.782139     -1.053983      0.007615
  C       1.234199      0.418670     -0.002151
  O      -2.273091      0.914166     -0.017571
  C      -0.032092      2.631510      0.006611
  H       0.994439      3.004253      0.009445
  H      -0.549230      3.006513      0.897640
  H      -0.547351      3.016014     -0.881441
  H      -1.210145     -1.514354      0.865351
  H      -1.201275     -1.535590     -0.861158
  H       1.174668     -1.596975      0.876302
  H       1.194333     -1.589844     -0.856719
  H       1.869045      0.688087      0.858570
  H       1.831833      0.676656     -0.893991
16
Coordinates from ORCA-job Monomer_r2SCAN3c_CPCM E -325.875014092164
  N      -0.003529      1.176475     -0.005022
  C      -1.129323      0.437798     -0.018174
  C      -0.752359     -1.028510     -0.004508
  C       0.787247     -1.061013      0.003798
  C       1.240926      0.419939     -0.007517
  O      -2.279570      0.901013      0.003727
  C      -0.028366      2.631934      0.005907
  H       0.998343      3.003978      0.013375
  H      -0.548304      3.007265      0.894863
  H      -0.540010      3.020887     -0.882058
  H      -1.200015     -1.501268      0.880983
  H      -1.194397     -1.527404     -0.877711
  H       1.168713     -1.576573      0.891616
  H       1.185385     -1.587254     -0.870544
  H       1.845895      0.683414      0.874380
  H       1.832361      0.671320     -0.903114
16
Coordinates from ORCA-job Monomer_r2SCAN3c_CPCM E -325.874981845046
  N      -0.004242      1.178004      0.009033
  C      -1.129551      0.435642      0.017251
  C      -0.750952     -1.032770     -0.000670
  C       0.789952     -1.064878      0.001991
  C       1.242906      0.418664     -0.002185
  O      -2.279898      0.893938     -0.019903
  C      -0.028092      2.633887      0.002222
  H       0.998702      3.005275     -0.007385
  H      -0.537094      3.019929      0.892925
  H      -0.550730      3.012318     -0.883816
  H      -1.192078     -1.513431      0.879884
  H      -1.191355     -1.501413     -0.887759
  H       1.171004     -1.574573      0.890005
  H       1.175950     -1.580863     -0.880246
  H       1.838328      0.673072      0.885246
  H       1.830149      0.669199     -0.896595
16
Coordinates from ORCA-job Monomer_r2SCAN3c_CPCM E -325.875192586201
  N      -0.004892      1.178553      0.002611
  C      -1.128665      0.437487     -0.000386
  C      -0.750598     -1.030125     -0.002522
  C       0.788961     -1.063722      0.002496
  C       1.241203      0.418131     -0.003600
  O      -2.278160      0.896940     -0.001903
  C      -0.029227      2.633674      0.002672
  H       0.997602      3.005089      0.002492
  H      -0.544941      3.014983      0.891610
  H      -0.545308      3.015498     -0.885869
  H      -1.194474     -1.507485      0.878261
  H      -1.190603     -1.509827     -0.883641
  H       1.170625     -1.575582      0.888914
  H       1.179017     -1.584099     -0.875259
  H       1.841200      0.674299      0.879998
  H       1.831260      0.668187     -0.895874
16
Coordinates from ORCA-job Monomer_r2SCAN3c_CPCM E -325.875196057231
  N      -0.005017      1.178962      0.002684
  C      -1.128912      0.437543     -0.000143
  C      -0.750549     -1.030065     -0.002345
  C       0.788844     -1.063572      0.002746
  C       1.240915      0.418049     -0.003376
  O      -2.278327      0.896298      0.000207
  C      -0.029230      2.633920      0.002284
  H       0.997653      3.005180      0.002740
  H      -0.545555      3.015377      0.890805
  H      -0.544670      3.015201     -0.886878
  H      -1.194735     -1.508630      0.877051
  H      -1.189949     -1.508142     -0.884219
  H       1.171134     -1.575304      0.888556
  H       1.178704     -1.584337     -0.874412
  H       1.841727      0.673493      0.879338
  H       1.830967      0.668026     -0.895038
16
Coordinates from ORCA-job Monomer_r2SCAN3c_CPCM E -325.875197226174
  N      -0.005103      1.179075      0.002969
  C      -1.128939      0.437613      0.000889
  C      -0.750520     -1.030144     -0.002139
  C       0.788786     -1.063533      0.003216
  C       1.240709      0.418035     -0.003468
  O      -2.278365      0.895931      0.001690
  C      -0.029256      2.633990      0.002026
  H       0.997643      3.005190      0.002982
  H      -0.546070      3.015722      0.890137
  H      -0.544158      3.014817     -0.887653
  H      -1.195241     -1.510238      0.875803
  H      -1.189260     -1.505823     -0.885460
  H       1.171499     -1.574657      0.888995
  H       1.178581     -1.584932     -0.873377
  H       1.842381      0.672979      0.878525
  H       1.830312      0.667976     -0.895133
