159
Coordinates from ORCA-job Apixaban_10DMSO_XTB2_Opt_from_confined_final E -243.664508830120
  C          41.63209151705252    -27.42195750705795      0.59407133997734
  C          40.43964879632636    -28.31984681096017      0.23616562730506
  C          39.34771929180830    -27.55584521196341     -0.48004971879604
  N          39.79820534185601    -26.88283213924788     -1.56694491665185
  C          41.22219234929600    -26.82606708147428     -1.81551033767316
  C          41.95039863562163    -26.42690421394507     -0.53232802675387
  C          38.90124185900587    -26.11833515316260     -2.35284048545863
  C          37.78352491298057    -26.73249383604899     -2.90266392103480
  C          36.85743762073717    -25.98646677293894     -3.60197005094532
  C          37.02652122535913    -24.61174062414359     -3.75117404082776
  C          38.17187568791491    -24.00909781558900     -3.24035041109196
  C          39.10173628831556    -24.75739542634280     -2.54825471832198
  N          35.99835303066729    -23.83786821175020     -4.31860887385517
  C          34.64346010593727    -24.09522982337129     -3.84152029909867
  C          34.16177391833708    -22.88943459611534     -3.04725915402351
  C          34.21285605401889    -21.74831773588298     -3.98867387792516
  C          35.15164503931383    -21.74508551237833     -5.01432980591610
  C          36.26768938590596    -22.70221517975929     -5.03597099460872
  O          38.18454270329972    -27.54820688165734     -0.12093838354114
  O          37.34044436417280    -22.49496448365112     -5.57933869007829
  C          33.53310848064938    -20.52520323328832     -4.11489426541443
  N          34.02707289054760    -19.83867034048262     -5.14190699792667
  N          34.99313800820042    -20.56104422165317     -5.68065705294282
  C          35.63634600946779    -20.06892091961955     -6.82146105292295
  C          32.41085137591611    -19.99449318091062     -3.32169691087236
  N          32.12301632077770    -18.71926747471003     -3.55074127209918
  O          31.80673525593665    -20.69171127028180     -2.50153584140131
  C          35.62551353172454    -18.69095432002956     -7.03888429816640
  C          36.21147716849347    -18.16762409775247     -8.16738188955089
  C          36.82507002162814    -19.00401582714003     -9.10430802435035
  C          36.82213684002915    -20.37765885585697     -8.88928364753527
  C          36.22457483001666    -20.90699328365441     -7.75778340565433
  O          37.37909085246576    -18.38288197479858    -10.18098647059070
  C          38.06375278720245    -19.16392465085963    -11.12993719952978
  H          41.40357233392839    -26.87641628836327      1.51009389189089
  H          42.49583654194216    -28.05654776621178      0.79845381370646
  H          40.76818794835089    -29.12485432671662     -0.42638546105376
  H          40.01552430696133    -28.77187424255334      1.13251842344024
  H          41.57789573376704    -27.80620383637647     -2.15772955119374
  H          41.40663343892329    -26.10358600593553     -2.61175608589064
  H          43.02318479809387    -26.38134880789011     -0.71998930537771
  H          41.61706067774044    -25.42692781770131     -0.24931663489621
  H          37.63339698451470    -27.79138351714131     -2.76305521551322
  H          35.99682973567538    -26.47851969446321     -4.02807319080400
  H          38.31137475419001    -22.94685835800918     -3.35006241348021
  H          39.96473316241592    -24.26890104021865     -2.12125187194713
  H          33.97545603392803    -24.27929072936739     -4.68990084114461
  H          34.66833778101038    -24.97602266596165     -3.20630301109889
  H          33.17372591091084    -23.04811788129389     -2.62858124786230
  H          34.87036436577786    -22.70690441060984     -2.23179707565469
  H          32.60955499617067    -18.21224420380688     -4.28371270946895
  H          31.30671701505307    -18.28472181225783     -3.11265817679338
  H          35.14172213896674    -18.05405296856156     -6.31560202157582
  H          36.22013399635294    -17.10433728675197     -8.34769788720493
  H          37.27971696991496    -21.05289039620849     -9.59421471899087
  H          36.24203959524765    -21.97387578369604     -7.60753015354038
  H          38.89453971089002    -19.71201338942126    -10.67486408728569
  H          37.39245073851654    -19.86984765755743    -11.63018721328339
  H          38.45514671031162    -18.46055618387890    -11.86308914791266
  C          30.31628860575809    -23.29722892009105     -2.42563241319636
  S          31.08724414636747    -22.79911888655205     -4.01964926394917
  C          29.63420086286415    -21.86800927682415     -4.64757371122121
  O          31.09844089466275    -24.05775269981101     -4.81201680634875
  H          30.12605058086893    -22.40520276614046     -1.84477245770742
  H          29.40464436779699    -23.84800258564013     -2.62895311218581
  H          31.02948262808260    -23.92456899620081     -1.90233831713978
  H          29.43668584272308    -21.04947442311530     -3.96854640570245
  H          29.90769669399731    -21.47958034923231     -5.62327919518764
  H          28.78156414905321    -22.53173205105083     -4.73203661637745
  C          32.18848323975354    -26.59918629808148     -3.03141502107264
  S          31.38094193910200    -27.87419258710595     -1.97881392420694
  C          30.82189855732418    -26.69341579934962     -0.67811938189060
  O          32.48612178593805    -28.63458775790924     -1.37387970108490
  H          31.43974608631664    -26.02420191035323     -3.56483405268874
  H          32.79325152338869    -25.95753451278165     -2.40153674820749
  H          32.81930909500446    -27.12302485096534     -3.74188395979217
  H          30.43004770874712    -27.27524616338031      0.14978348158362
  H          31.65991452923211    -26.08881255217001     -0.34344957154112
  H          30.03786964678723    -26.07869751702952     -1.10351047266578
  C          34.79274132301954    -27.18278385139639      0.27547338136992
  S          34.71965182172805    -25.56677533002152     -0.58069727416511
  C          36.19716831162995    -24.84990342906809      0.22224148357510
  O          33.54454028209329    -24.85410849780298      0.00096732883592
  H          35.78284227913549    -27.59302250883655      0.11382361205231
  H          34.59743713840602    -27.03652637479235      1.33236678967073
  H          34.03904033676879    -27.83585209229425     -0.16022338981247
  H          36.00359704875741    -24.72613782123395      1.28242557036239
  H          37.01820032139122    -25.53735333845267      0.05411517611012
  H          36.40798917643631    -23.88876872085940     -0.23916976607316
  C          32.80541667313538    -23.27999122991962     -7.29400983766101
  S          31.76506282886080    -21.92464266180711     -7.95090039241603
  C          32.95932396257037    -21.39961452268783     -9.26376322562850
  O          31.80413909216320    -20.84851724152275     -6.94293336466486
  H          32.93463567179351    -24.01886089323765     -8.07636649092227
  H          33.75984098250365    -22.88283642899876     -6.96655568100331
  H          32.26810072661899    -23.71581403764463     -6.45135022396489
  H          33.90585024740401    -21.12171609132774     -8.81134475421733
  H          33.08566045319047    -22.22401069289539     -9.95576765096124
  H          32.53726741369100    -20.54437026096442     -9.78138260322535
  C          34.88141725479511    -16.41207439677801     -2.88744914471322
  S          33.46743958642884    -16.79427916012156     -1.77253268961640
  C          32.37621870811145    -15.50483168175496     -2.49030809632773
  O          33.86957844489420    -16.26782354822830     -0.44027031700436
  H          34.55176390227595    -16.60217467779202     -3.90219945597079
  H          35.16939885239627    -15.37460933721568     -2.76021141374425
  H          35.71241399300033    -17.06050204026277     -2.63376557614665
  H          32.70772712672709    -14.53153774557185     -2.14718098637322
  H          32.43312759708756    -15.58706577966969     -3.56894417853871
  H          31.35820229222627    -15.69533590943525     -2.16771987718331
  C          35.15815108669241    -16.64983040525184      2.15824237354612
  S          33.42224937683792    -17.20068674972471      1.91701212724314
  C          33.04798154996919    -17.23164814523423      3.74120201903237
  O          33.51651794772303    -18.63163013356116      1.56884841930398
  H          35.15510198880615    -15.71886874071756      2.71205892123914
  H          35.70854899370404    -17.42186378841282      2.68438375796256
  H          35.57289184861808    -16.49036171629155      1.17017890613277
  H          33.08667566867028    -16.21877615274363      4.12356487181763
  H          32.04707332166569    -17.63118067453223      3.86488467030666
  H          33.75954044236236    -17.86674039212516      4.25547381272248
  C          33.94501357806087    -21.33563111023341      0.00075422157296
  S          35.73605374983747    -20.97491730926744     -0.07961298430478
  C          35.53395674301134    -19.37320109946851     -0.95232053572839
  O          36.31432434803156    -21.90574238164370     -1.08092921176056
  H          33.55326664693833    -20.63950901268160      0.73030930485016
  H          33.46447570662151    -21.18102124335398     -0.95722602329968
  H          33.81478196106735    -22.36602070476521      0.31491372400343
  H          36.51602534255979    -18.92534801629155     -1.06882170051041
  H          35.08464960155508    -19.55216524872267     -1.92325585963315
  H          34.89601720568439    -18.75025035595126     -0.33626736451862
  C          30.82313066155509    -23.46753451828836      1.30407286172709
  S          30.89476063850364    -21.64031339010516      1.08106626181220
  C          31.80786342692433    -21.31061187149961      2.64954947918969
  O          29.52085049070471    -21.15844222534507      1.34268014421269
  H          30.04096023031994    -23.84552704749989      0.65468437720281
  H          31.78116056134332    -23.88137637007276      1.00641562150416
  H          30.59204793396325    -23.71423361906253      2.33399795471290
  H          32.21253033174872    -20.30392260706001      2.59657628314041
  H          31.10781876049885    -21.39205994234765      3.47399502522612
  H          32.61429487777630    -22.02651405451036      2.74736476340648
  C          30.85680622877915    -18.33784688558528     -0.10627044341873
  S          29.37319708479192    -17.96768920440565     -1.10901734989153
  C          28.94126690707120    -19.71854535245518     -1.39128090373806
  O          29.89274040247782    -17.48650151678564     -2.42299039464608
  H          31.40282439403884    -17.42066726878950      0.08256670284535
  H          30.51254671651457    -18.76971112101730      0.82512764691515
  H          31.48828573859998    -19.04432472211177     -0.63283361982416
  H          29.79409204416661    -20.18638299375780     -1.87504864439225
  H          28.75590794021610    -20.17894184587340     -0.42613038694202
  H          28.05641625905037    -19.76591193680213     -2.01799453378870
  C          30.45359143559811    -17.73095981022378     -5.96401707187570
  S          31.87449134260809    -16.71679797695123     -6.53364132764383
  C          32.38607715191476    -17.88097038588178     -7.85456915017072
  O          32.91369494533268    -16.82707424411616     -5.48187604140501
  H          30.74902716283701    -18.77372206105284     -5.91099232518662
  H          30.13679412834605    -17.37466590290181     -4.98828167017999
  H          29.65568327649853    -17.59538560766048     -6.68618569346667
  H          33.32733586154919    -17.53953412526818     -8.27196217655257
  H          32.49965351389437    -18.87121467882960     -7.42305262525243
  H          31.61294657011171    -17.87426947524949     -8.61514691431402
