109
Coordinates from ORCA-job Apixaban_10CHCl3_XTB2_LooseOpt_from_confined_final E -260.213862301420
  C          26.71772982689606    -21.72030475937445     -9.76075362394723
  C          25.76583877446904    -22.41353457851452     -8.79715507989314
  C          25.78950510628550    -21.88463493346250     -7.38001380365485
  N          26.82412602808149    -21.10449707125751     -6.99957001915037
  C          27.88596485931382    -20.64271790996094     -7.87727012342276
  C          28.06692364026033    -21.55840891659928     -9.07689804098925
  C          26.84968146501647    -20.61515106583995     -5.66370514423237
  C          27.93498025764304    -20.88037961108862     -4.83803751888163
  C          27.93520801879535    -20.44847241071195     -3.52779689117630
  C          26.84707737697308    -19.74442029995967     -3.02262532103435
  C          25.77108446144363    -19.45725778036648     -3.85790157315014
  C          25.77317016282079    -19.89133276209785     -5.16835615452647
  N          26.81237383652311    -19.35620455250028     -1.66850027102047
  C          25.55546689484516    -19.50942397289391     -0.94381775202666
  C          25.79623054470805    -20.12160709458775      0.43444296764734
  C          26.78233794969681    -19.24059997755439      1.10445535694236
  C          27.71759774751259    -18.54513600892409      0.34952492928308
  C          27.90167903391606    -18.77190738891148     -1.09062551397760
  O          24.91304354173116    -22.21436344591880     -6.59131713497889
  O          28.93221689301988    -18.52456786763649     -1.69420480950570
  C          27.06483296547928    -18.89524688973214      2.43275458122016
  N          28.09998162042091    -18.04708821481331      2.46858155377566
  N          28.48804658907315    -17.84497106738078      1.21954110340182
  C          29.54216394729425    -16.95270600962798      0.96634018772679
  C          26.38329707153997    -19.31280153551784      3.66308318547064
  N          27.08828006397155    -19.10866260843464      4.77890566366836
  O          25.25380655303034    -19.80456147488351      3.65754127389055
  C          29.53189059827238    -16.11312172605255     -0.14371180398038
  C          30.56760172469606    -15.22879808613069     -0.33238227889823
  C          31.62418082248748    -15.15092395708072      0.58107999393219
  C          31.62215801249563    -15.98956739663221      1.69341303446215
  C          30.58529420325129    -16.88305825499012      1.87893504475437
  O          32.57791082745882    -14.23343233129480      0.30259098435385
  C          33.65986743427580    -14.08983657176473      1.19394322234572
  H          26.80948697192638    -22.30852748970460    -10.67486782563230
  H          26.32773671482419    -20.73698417109262    -10.03272885004849
  H          24.73297323534039    -22.35823430054874     -9.14590366136201
  H          26.01703673374086    -23.47583542592404     -8.72082250003590
  H          27.64257205854686    -19.62813817292891     -8.22199682777333
  H          28.80871556176728    -20.58134810643634     -7.29574402516593
  H          28.80296030527516    -21.12320779315718     -9.75364709013735
  H          28.43393504825167    -22.53331178547437     -8.75068238001160
  H          28.77099897992353    -21.45348691738866     -5.20851420683225
  H          28.77245203224090    -20.67359814555604     -2.88847220622013
  H          24.93122900041426    -18.89147278235228     -3.48661977222305
  H          24.93243861189285    -19.67796846696267     -5.80948766714160
  H          25.07703587419384    -18.52930044171091     -0.82121934043482
  H          24.89873464635431    -20.15154875791298     -1.52956795782858
  H          24.86390509098818    -20.18572946652794      0.98952501321656
  H          26.20345782038354    -21.13246050690829      0.33491852745837
  H          27.99022701028174    -18.66600593353094      4.71297299134537
  H          26.71110602149908    -19.34883054199534      5.68277509558909
  H          28.71769570817034    -16.15122455552666     -0.84860990480779
  H          30.58343002578700    -14.57033586401123     -1.18587457673598
  H          32.42122401352758    -15.96430892444829      2.41553622586786
  H          30.58213423141242    -17.53907368785339      2.73535084740108
  H          33.31762138779636    -13.79476121788302      2.19109469845722
  H          34.24440687429422    -15.01216534932445      1.26359398734787
  H          34.28322220488946    -13.30148727910134      0.77609159755990
  C          24.39090540526765    -22.84420451237326     -3.70792978481532
  H          24.67728521056011    -22.52157182782499     -4.72194888026967
  Cl         25.81037802973428    -22.83881173266006     -2.65322194123635
  Cl         23.72617166043434    -24.47914236768271     -3.79295164023413
  Cl         23.18488590033727    -21.72844836857789     -3.06138678182910
  C          24.40415527194900    -22.38763557496086      7.25450155438939
  H          24.83524827744109    -22.00983517286399      8.18365125501090
  Cl         24.21750344977900    -24.14283852746316      7.37533020638129
  Cl         25.49234618077661    -21.98731039213279      5.92323198982485
  Cl         22.82956133280406    -21.62293615408640      7.00025750408102
  C          23.11433204547763    -21.89557773505852      3.21511354933420
  H          24.11820753059144    -21.49447500248723      3.38344402672543
  Cl         22.86739189427484    -22.14656264795396      1.47922927076421
  Cl         21.94346402709559    -20.70972135335032      3.81948377752273
  Cl         22.93526574645225    -23.42158598105016      4.07896471653815
  C          27.10191581074422    -27.18303578740612     -1.33991042043518
  H          27.70677203880737    -27.73248498525694     -2.06498103684267
  Cl         26.80880329534760    -28.20980297775312      0.06731680699460
  Cl         25.56403660104219    -26.73972188484214     -2.10859893321186
  Cl         27.98070416605123    -25.72150358988368     -0.86356099465556
  C          27.65021889320854    -15.07845501399821      3.11627720381108
  H          27.84326176248514    -16.15864010046844      3.18621217760682
  Cl         27.04292256238231    -14.72204710451580      1.49302709411192
  Cl         29.16092898037443    -14.20750981381731      3.39539413291270
  Cl         26.44709580615766    -14.61473464330574      4.31998860737442
  C          23.27366333389773    -17.95088571450817      2.20346495059439
  H          23.76107870983246    -18.75868398443755      2.76283320127358
  Cl         22.01630928980306    -17.21774161148795      3.20291546234843
  Cl         22.55043963102032    -18.61559140966073      0.73118686961978
  Cl         24.50478986711218    -16.75024282389078      1.78967079685740
  C          23.96010789109088    -18.48741613759935      6.04822522340157
  H          24.06253536571710    -19.26911173141070      5.28474064660553
  Cl         22.26932534665927    -18.32183462706308      6.52566078596160
  Cl         24.56716838326932    -16.96901934571158      5.37488265887978
  Cl         24.94358343675649    -18.94119499784632      7.44763532260809
  C          27.79979320450048    -24.98242268555251     -4.29037639353606
  H          27.03077265975373    -25.01692429848581     -3.51575706024671
  Cl         28.30656602364375    -26.63541114052050     -4.65831154106161
  Cl         29.16745680244273    -24.04605699840737     -3.68762011151603
  Cl         27.11848795321506    -24.22095809975275     -5.72954055586199
  C          28.92208896245712    -16.96261527665229      7.13193033634501
  H          29.58672007596398    -16.41178367039441      7.79960328765632
  Cl         28.83689834588295    -18.64574107069030      7.67198452826398
  Cl         29.58804696806242    -16.88346049968576      5.49179553226671
  Cl         27.31342053012093    -16.22791673022569      7.16824768333538
  C          33.23343049512546    -18.72406075440052     -0.35843831263408
  H          33.79794243849273    -19.53000936422766     -0.83109983603756
  Cl         31.55179189184601    -18.73467257656893     -0.96147440491226
  Cl         34.01225813845798    -17.18982773872873     -0.74824490645236
  Cl         33.26284752777978    -18.98004538505836      1.38601223350687
