159
Coordinates from ORCA-job Apixaban_10DMSO_r2SCAN3c_SinglePoint_KeepDens
  C          41.63209151999999    -27.42195750999999      0.59407134000000
  C          40.43964879999999    -28.31984681000000      0.23616563000000
  C          39.34771928999999    -27.55584520999999     -0.48004972000000
  N          39.79820534000000    -26.88283213999999     -1.56694492000000
  C          41.22219234999999    -26.82606708000000     -1.81551034000000
  C          41.95039864000000    -26.42690420999999     -0.53232803000000
  C          38.90124185999998    -26.11833515000000     -2.35284049000000
  C          37.78352491000000    -26.73249384000000     -2.90266392000000
  C          36.85743762000000    -25.98646676999999     -3.60197005000000
  C          37.02652123000000    -24.61174062000000     -3.75117404000000
  C          38.17187569000000    -24.00909782000000     -3.24035041000000
  C          39.10173628999999    -24.75739542999999     -2.54825472000000
  N          35.99835303000000    -23.83786820999999     -4.31860887000000
  C          34.64346011000000    -24.09522982000000     -3.84152030000000
  C          34.16177391999999    -22.88943459999999     -3.04725915000000
  C          34.21285605000000    -21.74831774000000     -3.98867388000000
  C          35.15164504000000    -21.74508551000000     -5.01432981000000
  C          36.26768939000000    -22.70221518000000     -5.03597099000000
  O          38.18454270000000    -27.54820687999999     -0.12093838000000
  O          37.34044436000000    -22.49496448000000     -5.57933869000000
  C          33.53310848000000    -20.52520323000000     -4.11489427000000
  N          34.02707288999999    -19.83867034000000     -5.14190700000000
  N          34.99313801000000    -20.56104422000000     -5.68065705000000
  C          35.63634601000000    -20.06892091999999     -6.82146105000000
  C          32.41085138000000    -19.99449318000000     -3.32169691000000
  N          32.12301632000000    -18.71926747000000     -3.55074127000000
  O          31.80673525999999    -20.69171127000000     -2.50153584000000
  C          35.62551353000000    -18.69095432000000     -7.03888430000000
  C          36.21147716999999    -18.16762410000000     -8.16738189000000
  C          36.82507002000000    -19.00401583000000     -9.10430802000000
  C          36.82213684000000    -20.37765886000000     -8.88928365000000
  C          36.22457483000000    -20.90699328000000     -7.75778341000000
  O          37.37909085000000    -18.38288197000000    -10.18098647000000
  C          38.06375279000000    -19.16392465000000    -11.12993720000000
  H          41.40357233000000    -26.87641629000000      1.51009389000000
  H          42.49583654000000    -28.05654776999999      0.79845381000000
  H          40.76818795000000    -29.12485433000000     -0.42638546000000
  H          40.01552431000000    -28.77187424000000      1.13251842000000
  H          41.57789573000000    -27.80620384000000     -2.15772955000000
  H          41.40663344000000    -26.10358601000000     -2.61175609000000
  H          43.02318480000000    -26.38134881000000     -0.71998931000000
  H          41.61706067999999    -25.42692782000000     -0.24931663000000
  H          37.63339697999999    -27.79138352000000     -2.76305522000000
  H          35.99682973999999    -26.47851968999999     -4.02807319000000
  H          38.31137475000000    -22.94685836000000     -3.35006241000000
  H          39.96473316000000    -24.26890104000000     -2.12125187000000
  H          33.97545603000000    -24.27929072999999     -4.68990084000000
  H          34.66833778000000    -24.97602267000000     -3.20630301000000
  H          33.17372591000000    -23.04811788000000     -2.62858125000000
  H          34.87036436999998    -22.70690441000000     -2.23179708000000
  H          32.60955500000000    -18.21224420000000     -4.28371271000000
  H          31.30671702000000    -18.28472181000000     -3.11265818000000
  H          35.14172214000000    -18.05405297000000     -6.31560202000000
  H          36.22013400000000    -17.10433728999999     -8.34769789000000
  H          37.27971697000000    -21.05289040000000     -9.59421472000000
  H          36.24203960000000    -21.97387578000000     -7.60753015000000
  H          38.89453971000000    -19.71201338999999    -10.67486409000000
  H          37.39245074000000    -19.86984765999999    -11.63018721000000
  H          38.45514671000000    -18.46055618000000    -11.86308915000000
  C          30.31628860999999    -23.29722892000000     -2.42563241000000
  S          31.08724414999999    -22.79911889000000     -4.01964926000000
  C          29.63420085999999    -21.86800928000000     -4.64757371000000
  O          31.09844088999999    -24.05775270000000     -4.81201681000000
  H          30.12605057999999    -22.40520277000000     -1.84477246000000
  H          29.40464437000000    -23.84800259000000     -2.62895311000000
  H          31.02948263000000    -23.92456900000000     -1.90233832000000
  H          29.43668584000000    -21.04947442000000     -3.96854641000000
  H          29.90769668999999    -21.47958035000000     -5.62327920000000
  H          28.78156414999999    -22.53173205000000     -4.73203662000000
  C          32.18848324000000    -26.59918630000000     -3.03141502000000
  S          31.38094194000000    -27.87419258999999     -1.97881392000000
  C          30.82189855999999    -26.69341580000000     -0.67811938000000
  O          32.48612179000000    -28.63458776000000     -1.37387970000000
  H          31.43974608999999    -26.02420191000000     -3.56483405000000
  H          32.79325152000000    -25.95753451000000     -2.40153675000000
  H          32.81930910000000    -27.12302485000000     -3.74188396000000
  H          30.43004770999999    -27.27524616000000      0.14978348000000
  H          31.65991452999999    -26.08881255000000     -0.34344957000000
  H          30.03786965000000    -26.07869752000000     -1.10351047000000
  C          34.79274132000000    -27.18278385000000      0.27547338000000
  S          34.71965182000000    -25.56677532999999     -0.58069727000000
  C          36.19716830999999    -24.84990343000000      0.22224148000000
  O          33.54454028000000    -24.85410849999999      0.00096733000000
  H          35.78284227999998    -27.59302251000000      0.11382361000000
  H          34.59743714000000    -27.03652637000000      1.33236679000000
  H          34.03904034000000    -27.83585208999999     -0.16022339000000
  H          36.00359705000000    -24.72613781999999      1.28242557000000
  H          37.01820032000000    -25.53735334000000      0.05411518000000
  H          36.40798917999999    -23.88876872000000     -0.23916977000000
  C          32.80541667000000    -23.27999122999999     -7.29400984000000
  S          31.76506282999999    -21.92464266000000     -7.95090039000000
  C          32.95932396000000    -21.39961452000000     -9.26376323000000
  O          31.80413908999999    -20.84851724000000     -6.94293336000000
  H          32.93463567000000    -24.01886088999999     -8.07636649000000
  H          33.75984098000000    -22.88283643000000     -6.96655568000000
  H          32.26810073000000    -23.71581404000000     -6.45135022000000
  H          33.90585024999999    -21.12171608999999     -8.81134475000000
  H          33.08566045000000    -22.22401069000000     -9.95576765000000
  H          32.53726741000000    -20.54437026000000     -9.78138260000000
  C          34.88141725000000    -16.41207440000000     -2.88744914000000
  S          33.46743959000000    -16.79427916000000     -1.77253269000000
  C          32.37621871000000    -15.50483168000000     -2.49030810000000
  O          33.86957844000000    -16.26782355000000     -0.44027032000000
  H          34.55176390000000    -16.60217468000000     -3.90219946000000
  H          35.16939885000000    -15.37460934000000     -2.76021141000000
  H          35.71241399000000    -17.06050204000000     -2.63376558000000
  H          32.70772713000000    -14.53153775000000     -2.14718099000000
  H          32.43312760000000    -15.58706578000000     -3.56894418000000
  H          31.35820229000000    -15.69533591000000     -2.16771988000000
  C          35.15815109000000    -16.64983041000000      2.15824237000000
  S          33.42224938000000    -17.20068675000000      1.91701213000000
  C          33.04798155000000    -17.23164815000000      3.74120202000000
  O          33.51651795000000    -18.63163013000000      1.56884842000000
  H          35.15510199000000    -15.71886874000000      2.71205892000000
  H          35.70854899000000    -17.42186379000000      2.68438376000000
  H          35.57289184999998    -16.49036172000000      1.17017891000000
  H          33.08667567000000    -16.21877615000000      4.12356487000000
  H          32.04707332000000    -17.63118066999999      3.86488467000000
  H          33.75954044000000    -17.86674039000000      4.25547381000000
  C          33.94501358000000    -21.33563111000000      0.00075422000000
  S          35.73605375000000    -20.97491731000000     -0.07961298000000
  C          35.53395674000000    -19.37320110000000     -0.95232054000000
  O          36.31432435000000    -21.90574238000000     -1.08092921000000
  H          33.55326665000000    -20.63950900999999      0.73030930000000
  H          33.46447571000000    -21.18102123999999     -0.95722602000000
  H          33.81478196000000    -22.36602070000000      0.31491372000000
  H          36.51602534000000    -18.92534802000000     -1.06882170000000
  H          35.08464960000000    -19.55216525000000     -1.92325586000000
  H          34.89601720999998    -18.75025036000000     -0.33626736000000
  C          30.82313066000000    -23.46753452000000      1.30407286000000
  S          30.89476064000000    -21.64031339000000      1.08106626000000
  C          31.80786342999999    -21.31061187000000      2.64954948000000
  O          29.52085049000000    -21.15844223000000      1.34268014000000
  H          30.04096023000000    -23.84552704999999      0.65468438000000
  H          31.78116056000000    -23.88137637000000      1.00641562000000
  H          30.59204792999999    -23.71423362000000      2.33399795000000
  H          32.21253033000000    -20.30392261000000      2.59657628000000
  H          31.10781876000000    -21.39205994000000      3.47399503000000
  H          32.61429488000000    -22.02651404999999      2.74736476000000
  C          30.85680623000000    -18.33784689000000     -0.10627044000000
  S          29.37319708000000    -17.96768920000000     -1.10901735000000
  C          28.94126691000000    -19.71854534999999     -1.39128090000000
  O          29.89274040000000    -17.48650152000000     -2.42299039000000
  H          31.40282438999999    -17.42066727000000      0.08256670000000
  H          30.51254671999999    -18.76971112000000      0.82512765000000
  H          31.48828574000000    -19.04432471999999     -0.63283362000000
  H          29.79409203999999    -20.18638299000000     -1.87504864000000
  H          28.75590794000000    -20.17894185000000     -0.42613039000000
  H          28.05641626000000    -19.76591193999999     -2.01799453000000
  C          30.45359144000000    -17.73095981000000     -5.96401707000000
  S          31.87449134000000    -16.71679798000000     -6.53364133000000
  C          32.38607715000000    -17.88097038999999     -7.85456915000000
  O          32.91369495000000    -16.82707424000000     -5.48187604000000
  H          30.74902716000000    -18.77372206000000     -5.91099233000000
  H          30.13679412999999    -17.37466589999999     -4.98828167000000
  H          29.65568327999999    -17.59538561000000     -6.68618569000000
  H          33.32733586000000    -17.53953413000000     -8.27196218000000
  H          32.49965351000000    -18.87121468000000     -7.42305263000000
  H          31.61294657000000    -17.87426948000000     -8.61514691000000
