59
m_D9
C     25.91324538    25.25440179    43.40885425
H     26.60741581    24.63773178    43.12551465
H     26.34412664    26.08701012    43.65726804
C     25.24561490    24.69863746    44.59239886
H     24.80614842    25.41981608    45.07160620
H     25.91560690    24.31936118    45.18173265
C     24.24908706    23.66185668    44.27256021
H     23.79152110    23.39608644    45.08576532
H     24.70268061    22.88115660    43.91685180
C     23.24636503    24.14467262    43.27827576
H     22.59275716    24.68894792    43.74379596
H     22.77910140    23.37532314    42.91784765
C     23.79585209    24.94239860    42.13453400
C     26.63255542    25.84380267    40.46895023
H     27.04445199    25.04053980    40.69486676
C     25.54542216    26.28564569    41.19153701
C     24.95768419    27.48493390    40.86052839
C     27.11189049    26.59017409    39.41189371
H     27.85495023    26.29602734    38.93599015
H     26.76903533    26.89677882    36.68626427
N     25.01577806    25.50729878    42.27502387
O     23.14108628    25.08386589    41.10548106
H     24.24247238    27.80205870    41.36349158
C     25.42008065    28.21732470    39.79293120
H     25.00584134    29.01878808    39.56685734
C     26.49181645    27.76925269    39.05964642
C     26.70312007    27.85991910    36.59013962
H     25.80622611    28.06921316    36.28666261
C     27.16532686    29.83838474    38.01297325
C     27.37709298    30.48426179    36.70781759
C     27.70702117    29.81429931    35.56439047
C     27.70212606    28.32570913    35.54818615
H     28.58681789    27.98615996    35.75648245
H     27.44648784    28.00138638    34.67095038
C     27.98966607    30.81342931    34.63209148
C     28.46068506    30.63984812    33.23993593
C     27.16049444    32.93779174    37.27591270
C     26.06154869    32.89003615    38.10359158
H     25.50717959    32.14297262    38.09745596
C     25.78234755    33.94896445    38.94055254
H     25.04192637    33.91615844    39.50078148
C     26.59873206    35.05371044    38.94558689
C     27.67807229    35.11295505    38.08156629
H     28.21235087    35.87344552    38.06284479
C     27.96542454    34.06011732    37.25310080
H     28.69699997    34.10025970    36.67997133
C     25.42716093    36.02197233    40.76188656
H     25.44464661    36.80364136    41.31944100
H     25.58469521    35.24224120    41.29898895
H     24.56773413    35.95096184    40.33931567
H     28.68662279    31.69033268    31.64561970
H     28.04756836    32.40043754    32.75003059
N     26.93156476    28.49458397    37.90127357
N     27.46659002    31.82044936    36.44068230
N     27.82756186    32.03306555    35.15786658
N     28.42064811    31.72590713    32.47377054
O     27.27845798    30.40882180    39.07868256
O     28.88367393    29.55628071    32.87510276
O     26.43449692    36.12523514    39.77090591
