118
d_D3a_D8b
C     25.91324538    39.09660179    43.40885425
H     26.60741581    38.47993178    43.12551465
H     26.34412664    39.92921012    43.65726804
C     25.24561490    38.54083746    44.59239886
H     24.80614842    39.26201608    45.07160620
H     25.91560690    38.16156118    45.18173265
C     24.24908706    37.50405668    44.27256021
H     23.79152110    37.23828644    45.08576532
H     24.70268061    36.72335660    43.91685180
C     23.24636503    37.98687262    43.27827576
H     22.59275716    38.53114792    43.74379596
H     22.77910140    37.21752314    42.91784765
C     23.79585209    38.78459860    42.13453400
C     26.63255542    39.68600267    40.46895023
H     27.04445199    38.88273980    40.69486676
C     25.54542216    40.12784569    41.19153701
C     24.95768419    41.32713390    40.86052839
C     27.11189049    40.43237409    39.41189371
H     27.85495023    40.13822734    38.93599015
H     26.76903533    40.73897882    36.68626427
N     25.01577806    39.34949878    42.27502387
O     23.14108628    38.92606589    41.10548106
H     24.24247238    41.64425870    41.36349158
C     25.42008065    42.05952470    39.79293120
H     25.00584134    42.86098808    39.56685734
C     26.49181645    41.61145269    39.05964642
C     26.70312007    41.70211910    36.59013962
H     25.80622611    41.91141316    36.28666261
C     27.16532686    43.68058474    38.01297325
C     27.37709298    44.32646179    36.70781759
C     27.70702117    43.65649931    35.56439047
C     27.70212606    42.16790913    35.54818615
H     28.58681789    41.82835996    35.75648245
H     27.44648784    41.84358638    34.67095038
C     27.98966607    44.65562931    34.63209148
C     28.46068506    44.48204812    33.23993593
C     27.16049444    46.77999174    37.27591270
C     26.06154869    46.73223615    38.10359158
H     25.50717959    45.98517262    38.09745596
C     25.78234755    47.79116445    38.94055254
H     25.04192637    47.75835844    39.50078148
C     26.59873206    48.89591044    38.94558689
C     27.67807229    48.95515505    38.08156629
H     28.21235087    49.71564552    38.06284479
C     27.96542454    47.90231732    37.25310080
H     28.69699997    47.94245970    36.67997133
C     25.42716093    49.86417233    40.76188656
H     25.44464661    50.64584136    41.31944100
H     25.58469521    49.08444120    41.29898895
H     24.56773413    49.79316184    40.33931567
H     28.68662279    45.53253268    31.64561970
H     28.04756836    46.24263754    32.75003059
N     26.93156476    42.33678397    37.90127357
N     27.46659002    45.66264936    36.44068230
N     27.82756186    45.87526555    35.15786658
N     28.42064811    45.56810713    32.47377054
O     27.27845798    44.25102180    39.07868256
O     28.88367393    43.39848071    32.87510276
O     26.43449692    49.96743514    39.77090591
C     26.68135773    46.01770179    27.38671554
H     25.98718729    45.40103178    27.67005515
H     26.25047647    46.85031012    27.13830176
C     27.34898821    45.46193746    26.20317094
H     27.78845469    46.18311608    25.72396360
H     26.67899620    45.08266118    25.61383715
C     28.34551605    44.42515668    26.52300959
H     28.80308201    44.15938644    25.70980448
H     27.89192250    43.64445660    26.87871800
C     28.79875101    45.70569860    28.66103580
C     25.96204769    46.60710267    30.32661957
H     25.55015112    45.80383980    30.10070304
C     27.04918095    47.04894569    29.60403279
C     27.63691892    48.24823390    29.93504141
H     28.35213073    48.56535870    29.43207822
C     27.17452246    48.98062470    31.00263860
H     27.58876177    49.78208808    31.22871246
C     25.48271261    47.35347409    31.38367609
H     27.55267673    54.67945844    31.29478832
N     27.57882505    46.27059878    28.52054593
C     26.10278666    48.53255269    31.73592338
H     24.73965288    47.05932734    31.85957964
C     25.89148304    48.62321910    34.20543018
H     26.78837699    48.83251316    34.50890719
H     25.82556778    47.66007882    34.10930553
C     25.42927624    50.60168474    32.78259655
C     25.21751012    51.24756179    34.08775221
C     24.88758193    50.57759931    35.23117933
C     24.89247705    49.08900913    35.24738364
H     24.00778522    48.74945996    35.03908735
H     25.14811527    48.76468638    36.12461942
C     24.60493704    51.57672931    36.16347832
C     24.13391805    51.40314812    37.55563387
C     25.43410866    53.70109174    33.51965709
C     26.53305441    53.65333615    32.69197822
H     27.08742352    52.90627262    32.69811384
C     26.81225556    54.71226445    31.85501726
C     24.62917857    54.82341732    33.54246900
H     23.89760314    54.86355970    34.11559847
H     23.90798032    52.45363268    39.14995010
H     24.54703475    53.16373754    38.04553921
N     25.66303835    49.25788397    32.89429623
N     25.12801309    52.58374936    34.35488749
N     24.76704125    52.79636555    35.63770322
N     24.17395500    52.48920713    38.32179926
O     25.31614513    51.17212180    31.71688724
O     23.71092918    50.31958071    37.92046704
C     27.16744218    56.78527233    30.03368324
H     27.14995649    57.56694136    29.47612879
H     27.00990789    56.00554120    29.49658085
H     28.02686898    56.71426184    30.45625413
O     26.16010619    56.88853514    31.02466389
C     25.99587105    55.81701044    31.84998291
C     24.91653082    55.87625505    32.71400351
H     24.38225224    56.63674552    32.73272501
C     29.34823808    44.90797262    27.51729404
H     30.00184595    45.45224792    27.05177384
H     29.81550170    44.13862314    27.87772215
O     29.45351682    45.84716589    29.69008874
