      -----------------------------------------------------------      
     |                   =====================                   |     
     |                           x T B                           |     
     |                   =====================                   |     
     |                         S. Grimme                         |     
     |          Mulliken Center for Theoretical Chemistry        |     
     |                    University of Bonn                     |     
      -----------------------------------------------------------      

   * xtb version 6.7.1pre (5071a88) compiled by 'Marcel@Raven' on 2024-07-23

   xtb is free software: you can redistribute it and/or modify it under
   the terms of the GNU Lesser General Public License as published by
   the Free Software Foundation, either version 3 of the License, or
   (at your option) any later version.
   
   xtb is distributed in the hope that it will be useful,
   but WITHOUT ANY WARRANTY; without even the implied warranty of
   MERCHANTABILITY or FITNESS FOR A PARTICULAR PURPOSE.  See the
   GNU Lesser General Public License for more details.
   
   Cite this work as:
   * C. Bannwarth, E. Caldeweyher, S. Ehlert, A. Hansen, P. Pracht,
     J. Seibert, S. Spicher, S. Grimme, WIREs Comput. Mol. Sci., 2020, 11,
     e01493. DOI: 10.1002/wcms.1493
   
   for GFN2-xTB:
   * C. Bannwarth, S. Ehlert and S. Grimme., J. Chem. Theory Comput., 2019,
     15, 1652-1671. DOI: 10.1021/acs.jctc.8b01176
   for GFN1-xTB:
   * S. Grimme, C. Bannwarth, P. Shushkov, J. Chem. Theory Comput., 2017,
     13, 1989-2009. DOI: 10.1021/acs.jctc.7b00118
   for GFN0-xTB:
   * P. Pracht, E. Caldeweyher, S. Ehlert, S. Grimme, ChemRxiv, 2019, preprint.
     DOI: 10.26434/chemrxiv.8326202.v1
   for GFN-FF:
   * S. Spicher and S. Grimme, Angew. Chem. Int. Ed., 2020, 59, 15665-15673.
     DOI: 10.1002/anie.202004239
   
   for ALPB and GBSA implicit solvation:
   * S. Ehlert, M. Stahn, S. Spicher, S. Grimme, J. Chem. Theory Comput.,
     2021, 17, 4250-4261. DOI: 10.1021/acs.jctc.1c00471
   
   for ddCOSMO and CPCM-X implicit solvation:
   * M. Stahn, S. Ehlert, S. Grimme, J. Phys. Chem. A,
     2023, XX, XXXX-XXXX. DOI: 10.1021/acs.jpca.3c04382
   
   for DFT-D4:
   * E. Caldeweyher, C. Bannwarth and S. Grimme, J. Chem. Phys., 2017,
     147, 034112. DOI: 10.1063/1.4993215
   * E. Caldeweyher, S. Ehlert, A. Hansen, H. Neugebauer, S. Spicher,
     C. Bannwarth and S. Grimme, J. Chem. Phys., 2019, 150, 154122.
     DOI: 10.1063/1.5090222
   * E. Caldeweyher, J.-M. Mewes, S. Ehlert and S. Grimme, Phys. Chem. Chem. Phys.
     2020, 22, 8499-8512. DOI: 10.1039/D0CP00502A
   
   for sTDA-xTB:
   * S. Grimme and C. Bannwarth, J. Chem. Phys., 2016, 145, 054103.
     DOI: 10.1063/1.4959605
   
   in the mass-spec context:
   * V. Asgeirsson, C. Bauer and S. Grimme, Chem. Sci., 2017, 8, 4879.
     DOI: 10.1039/c7sc00601b
   * J. Koopman and S. Grimme, ACS Omega 2019, 4, 12, 15120-15133.
     DOI: 10.1021/acsomega.9b02011
   
   for metadynamics refer to:
   * S. Grimme, J. Chem. Theory Comput., 2019, 155, 2847-2862
     DOI: 10.1021/acs.jctc.9b00143
   
   for SPH calculations refer to:
   * S. Spicher and S. Grimme, J. Chem. Theory Comput., 2021, 17, 1701-1714
     DOI: 10.1021/acs.jctc.0c01306
   
   for ONIOM refer to:
   * C. Plett, A. Katbashev, S. Ehlert, S. Grimme, M. Bursch,
     Phys. Chem. Chem. Phys., 2023, 25, 17860-17868. DOI: 10.1039/D3CP02178E
   
   for DIPRO refer to:
   * J. Kohn, N. Gildemeister, S. Grimme, D. Fazzi, A. Hansen,
     J. Chem. Phys., 2023, just accepted.
   
   for PTB refer to:
   * S. Grimme, M. Mueller, A. Hansen, J. Chem. Phys., 2023, 158, 124111.
     DOI: 10.1063/5.0137838
   
   with help from (in alphabetical order)
   P. Atkinson, C. Bannwarth, F. Bohle, G. Brandenburg, E. Caldeweyher
   M. Checinski, S. Dohm, S. Ehlert, S. Ehrlich, I. Gerasimov, C. Hölzer
   A. Katbashev, J. Kohn, J. Koopman, C. Lavigne, S. Lehtola, F. März, M. Müller,
   F. Musil, H. Neugebauer, J. Pisarek, C. Plett, P. Pracht, F. Pultar,
   J. Seibert, P. Shushkov, S. Spicher, M. Stahn, M. Steiner, T. Strunk,
   J. Stückrath, T. Rose, and J. Unsleber
   
 * started run on 2026/10/03 at 19:14:35.070     
   ID    Z sym.   atoms
    1    6 C      1, 4, 7, 10, 13, 14, 16-18, 24, 26, 27, 29-32, 35-38, 40,
                  42, 43, 45, 47, 60, 63, 66, 69, 70, 72, 73, 75, 77, 80, 82,
                  85-88, 91-94, 96, 97, 107, 112, 113, 115
    2    1 H      2, 3, 5, 6, 8, 9, 11, 12, 15, 19, 20, 23, 25, 28, 33, 34,
                  39, 41, 44, 46, 48-52, 61, 62, 64, 65, 67, 68, 71, 74, 76,
                  78, 81, 83, 84, 89, 90, 95, 98-100, 108-110, 114, 116, 117
    3    7 N      21, 53-56, 79, 101-104
    4    8 O      22, 57-59, 105, 106, 111, 118

           -------------------------------------------------
          |                Calculation Setup                |
           -------------------------------------------------

          program call               : C:\ORCA_6.1.1\xTB_bigstack\xtb.exe d_D3a_D8b.xyz -c 0 -u 0 -P 1 --acc 1.0 --namespace d_D3a_D8b
          calculation namespace      : d_D3a_D8b
          coordinate file            : d_D3a_D8b.xyz
          omp threads                :                     1


molecular fragmentation (1/2 indicates fragments):
111111111111111111111111111111111111111111111111111111111112222222222222
2222222222222222222222222222222222222222222222
# atoms in fragment 1/2:    59    59
 fragment masses (1/2) :      459.50      459.50
CMA distance (Bohr)    :  18.063
constraining FC (au)   :  0.0500

           -------------------------------------------------
          |                 G F N 2 - x T B                 |
           -------------------------------------------------

        Reference                      10.1021/acs.jctc.8b01176
      * Hamiltonian:
        H0-scaling (s, p, d)           1.850000    2.230000    2.230000
        zeta-weighting                 0.500000
      * Dispersion:
        s8                             2.700000
        a1                             0.520000
        a2                             5.000000
        s9                             5.000000
      * Repulsion:
        kExp                           1.500000    1.000000
        rExp                           1.000000
      * Coulomb:
        alpha                          2.000000
        third order                    shell-resolved
        anisotropic                    true
        a3                             3.000000
        a5                             4.000000
        cn-shift                       1.200000
        cn-exp                         4.000000
        max-rad                        5.000000


          ...................................................
          :                      SETUP                      :
          :.................................................:
          :  # basis functions                 322          :
          :  # atomic orbitals                 322          :
          :  # shells                          186          :
          :  # electrons                       348          :
          :  max. iterations                   250          :
          :  Hamiltonian                  GFN2-xTB          :
          :  restarted?                      false          :
          :  GBSA solvation                  false          :
          :  PC potential                    false          :
          :  electronic temp.          300.0000000     K    :
          :  accuracy                    1.0000000          :
          :  -> integral cutoff          0.2500000E+02      :
          :  -> integral neglect         0.1000000E-07      :
          :  -> SCF convergence          0.1000000E-05 Eh   :
          :  -> wf. convergence          0.1000000E-03 e    :
          :  Broyden damping             0.4000000          :
          :  net charge                          0          :
          :  unpaired electrons                  0          :
          ...................................................

 iter      E             dE          RMSdq      gap      omega  full diag
   1   -197.4709725 -0.197471E+03  0.412E+00    2.82       0.0  T
   2   -197.9916693 -0.520697E+00  0.243E+00    2.32       1.0  T
   3   -198.0426165 -0.509472E-01  0.129E+00    2.98       1.0  T
   4   -198.0495001 -0.688360E-02  0.437E-01    2.75       1.0  T
   5   -198.0652099 -0.157098E-01  0.939E-02    2.83       1.0  T
   6   -198.0654683 -0.258379E-03  0.536E-02    2.82       1.0  T
   7   -198.0656349 -0.166588E-03  0.224E-02    2.83       1.0  T
   8   -198.0656420 -0.716733E-05  0.860E-03    2.83       1.1  T
   9   -198.0656452 -0.319115E-05  0.380E-03    2.83       2.4  T
  10   -198.0656455 -0.283697E-06  0.157E-03    2.83       5.9  T
  11   -198.0656457 -0.142240E-06  0.532E-04    2.83      17.3  T
  12   -198.0656457 -0.830136E-08  0.256E-04    2.83      36.0  T

   *** convergence criteria satisfied after 12 iterations ***

         #    Occupation            Energy/Eh            Energy/eV
      -------------------------------------------------------------
         1        2.0000           -0.7215405             -19.6341
       ...           ...                  ...                  ...
       168        2.0000           -0.3854273             -10.4880
       169        2.0000           -0.3846519             -10.4669
       170        2.0000           -0.3808954             -10.3647
       171        2.0000           -0.3796928             -10.3320
       172        2.0000           -0.3772902             -10.2666
       173        2.0000           -0.3764063             -10.2425
       174        2.0000           -0.3723219             -10.1314 (HOMO)
       175                         -0.2682996              -7.3008 (LUMO)
       176                         -0.2617388              -7.1223
       177                         -0.2429446              -6.6109
       178                         -0.2389810              -6.5030
       179                         -0.2335331              -6.3548
       ...                                ...                  ...
       322                          0.8751292              23.8135
      -------------------------------------------------------------
                  HL-Gap            0.1040223 Eh            2.8306 eV
             Fermi-level           -0.3203108 Eh           -8.7161 eV

 SCC (total)                   0 d,  0 h,  0 min,  0.382 sec
 SCC setup                      ...        0 min,  0.002 sec (  0.524%)
 Dispersion                     ...        0 min,  0.003 sec (  0.785%)
 classical contributions        ...        0 min,  0.000 sec (  0.000%)
 integral evaluation            ...        0 min,  0.034 sec (  8.901%)
 iterations                     ...        0 min,  0.197 sec ( 51.571%)
 molecular gradient             ...        0 min,  0.144 sec ( 37.696%)
 printout                       ...        0 min,  0.002 sec (  0.524%)

         :::::::::::::::::::::::::::::::::::::::::::::::::::::
         ::                     SUMMARY                     ::
         :::::::::::::::::::::::::::::::::::::::::::::::::::::
         :: total energy            -193.681832169120 Eh    ::
         :: gradient norm              1.319438583249 Eh/a0 ::
         :: HOMO-LUMO gap              2.830590343981 eV    ::
         ::.................................................::
         :: SCC energy              -198.064630741556 Eh    ::
         :: -> isotropic ES            0.295847017885 Eh    ::
         :: -> anisotropic ES          0.001396140227 Eh    ::
         :: -> anisotropic XC          0.036909975238 Eh    ::
         :: -> dispersion             -0.154351896635 Eh    ::
         :: repulsion energy           4.382798572437 Eh    ::
         :: add. restraining           0.000000000000 Eh    ::
         :: total charge              -0.000000000000 e     ::
         :::::::::::::::::::::::::::::::::::::::::::::::::::::

           -------------------------------------------------
          |                Property Printout                |
           -------------------------------------------------

    * Orbital Energies and Occupations

         #    Occupation            Energy/Eh            Energy/eV
      -------------------------------------------------------------
         1        2.0000           -0.7215405             -19.6341
       ...           ...                  ...                  ...
       162        2.0000           -0.4025466             -10.9538
       163        2.0000           -0.3989252             -10.8553
       164        2.0000           -0.3922149             -10.6727
       165        2.0000           -0.3917392             -10.6598
       166        2.0000           -0.3898778             -10.6091
       167        2.0000           -0.3875127             -10.5448
       168        2.0000           -0.3854273             -10.4880
       169        2.0000           -0.3846519             -10.4669
       170        2.0000           -0.3808954             -10.3647
       171        2.0000           -0.3796928             -10.3320
       172        2.0000           -0.3772902             -10.2666
       173        2.0000           -0.3764063             -10.2425
       174        2.0000           -0.3723219             -10.1314 (HOMO)
       175                         -0.2682996              -7.3008 (LUMO)
       176                         -0.2617388              -7.1223
       177                         -0.2429446              -6.6109
       178                         -0.2389810              -6.5030
       179                         -0.2335331              -6.3548
       180                         -0.2324732              -6.3259
       181                         -0.2312332              -6.2922
       182                         -0.2300571              -6.2602
       183                         -0.2253262              -6.1314
       184                         -0.2225999              -6.0573
       185                         -0.2141684              -5.8278
       ...                                ...                  ...
       322                          0.8751292              23.8135
      -------------------------------------------------------------
                  HL-Gap            0.1040223 Eh            2.8306 eV
             Fermi-level           -0.3203108 Eh           -8.7161 eV

     #   Z          covCN         q      C6AA      α(0)
     1   6 C        3.762    -0.011    20.811     6.503
     2   1 H        0.930     0.057     2.233     2.337
     3   1 H        0.930     0.060     2.195     2.317
     4   6 C        3.827    -0.083    22.056     6.683
     5   1 H        0.930     0.055     2.257     2.349
     6   1 H        0.930     0.057     2.234     2.337
     7   6 C        3.825    -0.079    21.995     6.674
     8   1 H        0.930     0.052     2.291     2.367
     9   1 H        0.930     0.050     2.315     2.379
    10   6 C        3.826    -0.107    22.515     6.752
    11   1 H        0.930     0.074     2.043     2.235
    12   1 H        0.930     0.076     2.021     2.223
    13   6 C        2.766     0.268    22.476     7.764
    14   6 C        2.935    -0.056    29.392     8.891
    15   1 H        0.930     0.065     2.143     2.289
    16   6 C        2.930     0.069    26.455     8.435
    17   6 C        2.938    -0.042    29.048     8.839
    18   6 C        2.935    -0.057    29.409     8.894
    19   1 H        0.930     0.069     2.095     2.263
    20   1 H        0.930     0.069     2.096     2.264
    21   7 N        2.739    -0.113    23.465     7.194
    22   8 O        0.859    -0.467    23.076     6.441
    23   1 H        0.930     0.075     2.032     2.229
    24   6 C        2.936    -0.044    29.081     8.844
    25   1 H        0.930     0.073     2.054     2.241
    26   6 C        2.928     0.070    26.429     8.431
    27   6 C        3.764    -0.012    20.838     6.507
    28   1 H        0.930     0.057     2.228     2.334
    29   6 C        2.767     0.269    22.466     7.763
    30   6 C        3.096    -0.009    28.134     8.693
    31   6 C        3.070    -0.017    28.352     8.731
    32   6 C        3.821    -0.083    22.057     6.683
    33   1 H        0.930     0.077     2.007     2.215
    34   1 H        0.930     0.084     1.941     2.179
    35   6 C        3.172     0.027    27.036     8.494
    36   6 C        2.748     0.276    22.332     7.738
    37   6 C        2.920     0.042    27.064     8.531
    38   6 C        2.934    -0.043    29.080     8.844
    39   1 H        0.930     0.071     2.075     2.252
    40   6 C        2.932    -0.072    29.792     8.951
    41   1 H        0.930     0.077     2.011     2.218
    42   6 C        2.878     0.148    24.778     8.160
    43   6 C        2.936    -0.070    29.749     8.945
    44   1 H        0.930     0.074     2.037     2.232
    45   6 C        2.932    -0.051    29.275     8.873
    46   1 H        0.930     0.076     2.016     2.220
    47   6 C        3.664     0.010    20.666     6.520
    48   1 H        0.930     0.066     2.125     2.279
    49   1 H        0.930     0.057     2.232     2.336
    50   1 H        0.930     0.072     2.066     2.247
    51   1 H        0.862     0.229     0.971     1.543
    52   1 H        0.863     0.204     1.085     1.632
    53   7 N        2.745    -0.120    23.615     7.217
    54   7 N        3.019     0.086    19.754     6.601
    55   7 N        1.991    -0.250    27.316     7.751
    56   7 N        2.645    -0.285    27.364     7.769
    57   8 O        0.858    -0.444    22.574     6.370
    58   8 O        0.860    -0.451    22.729     6.392
    59   8 O        1.705    -0.282    18.686     5.836
    60   6 C        3.762    -0.011    20.815     6.504
    61   1 H        0.930     0.059     2.214     2.327
    62   1 H        0.930     0.061     2.187     2.313
    63   6 C        3.827    -0.083    22.065     6.684
    64   1 H        0.930     0.055     2.252     2.347
    65   1 H        0.930     0.058     2.218     2.329
    66   6 C        3.825    -0.080    22.010     6.676
    67   1 H        0.930     0.054     2.271     2.356
    68   1 H        0.930     0.053     2.284     2.363
    69   6 C        2.766     0.270    22.444     7.759
    70   6 C        2.935    -0.057    29.428     8.897
    71   1 H        0.930     0.067     2.114     2.273
    72   6 C        2.930     0.066    26.522     8.446
    73   6 C        2.938    -0.045    29.113     8.849
    74   1 H        0.930     0.076     2.022     2.224
    75   6 C        2.936    -0.045    29.125     8.851
    76   1 H        0.930     0.074     2.044     2.236
    77   6 C        2.935    -0.058    29.440     8.899
    78   1 H        0.930     0.069     2.099     2.266
    79   7 N        2.739    -0.112    23.448     7.192
    80   6 C        2.928     0.069    26.453     8.435
    81   1 H        0.930     0.071     2.079     2.254
    82   6 C        3.764    -0.016    20.906     6.517
    83   1 H        0.930     0.064     2.149     2.292
    84   1 H        0.930     0.073     2.055     2.242
    85   6 C        2.767     0.269    22.465     7.762
    86   6 C        3.096    -0.009    28.119     8.691
    87   6 C        3.070    -0.015    28.309     8.724
    88   6 C        3.821    -0.083    22.073     6.686
    89   1 H        0.930     0.077     2.008     2.216
    90   1 H        0.930     0.083     1.943     2.180
    91   6 C        3.172     0.027    27.033     8.493
    92   6 C        2.748     0.281    22.242     7.722
    93   6 C        2.920     0.046    26.967     8.516
    94   6 C        2.934    -0.042    29.038     8.838
    95   1 H        0.930     0.070     2.080     2.255
    96   6 C        2.932    -0.079    29.962     8.977
    97   6 C        2.932    -0.046    29.150     8.854
    98   1 H        0.930     0.080     1.982     2.201
    99   1 H        0.862     0.206     1.077     1.626
   100   1 H        0.863     0.213     1.044     1.600
   101   7 N        2.745    -0.119    23.590     7.214
   102   7 N        3.019     0.089    19.692     6.591
   103   7 N        1.991    -0.240    27.084     7.718
   104   7 N        2.645    -0.281    27.267     7.755
   105   8 O        0.858    -0.444    22.577     6.371
   106   8 O        0.860    -0.457    22.854     6.410
   107   6 C        3.664     0.013    20.628     6.514
   108   1 H        0.930     0.073     2.055     2.242
   109   1 H        0.930     0.059     2.207     2.323
   110   1 H        0.930     0.057     2.237     2.339
   111   8 O        1.705    -0.281    18.661     5.832
   112   6 C        2.878     0.145    24.854     8.173
   113   6 C        2.936    -0.067    29.662     8.932
   114   1 H        0.930     0.078     1.994     2.208
   115   6 C        3.826    -0.107    22.521     6.753
   116   1 H        0.930     0.076     2.022     2.224
   117   1 H        0.930     0.081     1.967     2.193
   118   8 O        0.859    -0.474    23.223     6.461

 Mol. C6AA /au·bohr⁶  :     167508.841503
 Mol. C8AA /au·bohr⁸  :    4001134.936634
 Mol. α(0) /au        :        634.352303


Wiberg/Mayer (AO) data.
largest (>0.10) Wiberg bond orders for each atom

 ---------------------------------------------------------------------------
     #   Z sym  total        # sym  WBO       # sym  WBO       # sym  WBO
 ---------------------------------------------------------------------------
     1   6 C    3.971 --     4 C    1.007     3 H    0.974     2 H    0.972
                            21 N    0.960
     2   1 H    0.997 --     1 C    0.972
     3   1 H    0.996 --     1 C    0.974
     4   6 C    3.992 --     1 C    1.007     7 C    1.006     5 H    0.979
                             6 H    0.971
     5   1 H    0.997 --     4 C    0.979
     6   1 H    0.996 --     4 C    0.971
     7   6 C    3.994 --     4 C    1.006    10 C    1.002     9 H    0.981
                             8 H    0.977
     8   1 H    0.997 --     7 C    0.977
     9   1 H    0.997 --     7 C    0.981
    10   6 C    3.990 --     7 C    1.002    13 C    0.976    12 H    0.964
                            11 H    0.955
    11   1 H    0.994 --    10 C    0.955
    12   1 H    0.994 --    10 C    0.964
    13   6 C    3.951 --    22 O    1.658    21 N    1.238    10 C    0.976
    14   6 C    3.994 --    18 C    1.442    16 C    1.406    15 H    0.974
                            24 C    0.109
    15   1 H    0.995 --    14 C    0.974
    16   6 C    3.968 --    14 C    1.406    17 C    1.405    21 N    0.990
    17   6 C    3.993 --    24 C    1.441    16 C    1.405    23 H    0.973
                            18 C    0.110
    18   6 C    3.993 --    14 C    1.442    26 C    1.401    19 H    0.974
                            17 C    0.110
    19   1 H    0.995 --    18 C    0.974
    20   1 H    0.995 --    27 C    0.974
    21   7 N    3.481 --    13 C    1.238    16 C    0.990     1 C    0.960
                            22 O    0.190
    22   8 O    1.968 --    13 C    1.658    21 N    0.190
    23   1 H    0.994 --    17 C    0.973
    24   6 C    3.992 --    17 C    1.441    26 C    1.403    25 H    0.973
                            14 C    0.109
    25   1 H    0.995 --    24 C    0.973
    26   6 C    3.966 --    24 C    1.403    18 C    1.401    53 N    0.997
    27   6 C    3.968 --    32 C    0.998    28 H    0.975    20 H    0.974
                            53 N    0.961
    28   1 H    0.997 --    27 C    0.975
    29   6 C    3.957 --    57 O    1.656    53 N    1.200    30 C    1.011
    30   6 C    3.952 --    31 C    1.429    54 N    1.220    29 C    1.011
                            55 N    0.135
    31   6 C    3.980 --    30 C    1.429    35 C    1.324    32 C    1.012
    32   6 C    3.989 --    31 C    1.012    27 C    0.998    34 H    0.963
                            33 H    0.961
    33   1 H    0.994 --    32 C    0.961
    34   1 H    0.992 --    32 C    0.963
    35   6 C    3.967 --    55 N    1.428    31 C    1.324    36 C    0.995
    36   6 C    3.954 --    58 O    1.652    56 N    1.269    35 C    0.995
    37   6 C    3.955 --    38 C    1.399    45 C    1.371    54 N    1.005
    38   6 C    3.991 --    40 C    1.438    37 C    1.399    39 H    0.973
                            43 C    0.106
    39   1 H    0.995 --    38 C    0.973
    40   6 C    3.991 --    38 C    1.438    42 C    1.377    41 H    0.969
                            45 C    0.100
    41   1 H    0.994 --    40 C    0.969
    42   6 C    3.933 --    40 C    1.377    43 C    1.344    59 O    1.074
    43   6 C    3.991 --    45 C    1.475    42 C    1.344    44 H    0.973
                            38 C    0.106
    44   1 H    0.994 --    43 C    0.973
    45   6 C    3.991 --    43 C    1.475    37 C    1.371    46 H    0.972
                            40 C    0.100
    46   1 H    0.994 --    45 C    0.972
    47   6 C    3.933 --    49 H    0.981    48 H    0.980    50 H    0.977
                            59 O    0.965
    48   1 H    0.995 --    47 C    0.980
    49   1 H    0.997 --    47 C    0.981
    50   1 H    0.995 --    47 C    0.977
    51   1 H    0.947 --    56 N    0.920
    52   1 H    0.958 --    56 N    0.944
    53   7 N    3.470 --    29 C    1.200    26 C    0.997    27 C    0.961
                            57 O    0.188
    54   7 N    3.688 --    30 C    1.220    55 N    1.215    37 C    1.005
    55   7 N    2.961 --    35 C    1.428    54 N    1.215    30 C    0.135
    56   7 N    3.383 --    36 C    1.269    52 H    0.944    51 H    0.920
                            58 O    0.200
    57   8 O    2.001 --    29 C    1.656    53 N    0.188
    58   8 O    1.970 --    36 C    1.652    56 N    0.200
    59   8 O    2.208 --    42 C    1.074    47 C    0.965
    60   6 C    3.970 --    63 C    1.007    62 H    0.974    61 H    0.972
                            79 N    0.959
    61   1 H    0.997 --    60 C    0.972
    62   1 H    0.996 --    60 C    0.974
    63   6 C    3.992 --    60 C    1.007    66 C    1.006    64 H    0.979
                            65 H    0.971
    64   1 H    0.997 --    63 C    0.979
    65   1 H    0.996 --    63 C    0.971
    66   6 C    3.994 --    63 C    1.006   115 C    1.002    68 H    0.981
                            67 H    0.976
    67   1 H    0.997 --    66 C    0.976
    68   1 H    0.997 --    66 C    0.981
    69   6 C    3.949 --   118 O    1.644    79 N    1.243   115 C    0.979
    70   6 C    3.994 --    77 C    1.442    72 C    1.405    71 H    0.974
                            75 C    0.109
    71   1 H    0.995 --    70 C    0.974
    72   6 C    3.968 --    73 C    1.405    70 C    1.405    79 N    0.991
    73   6 C    3.993 --    75 C    1.441    72 C    1.405    74 H    0.973
                            77 C    0.110
    74   1 H    0.994 --    73 C    0.973
    75   6 C    3.992 --    73 C    1.441    80 C    1.403    76 H    0.973
                            70 C    0.109
    76   1 H    0.994 --    75 C    0.973
    77   6 C    3.993 --    70 C    1.442    80 C    1.401    81 H    0.974
                            73 C    0.110
    78   1 H    0.995 --    96 C    0.971
    79   7 N    3.484 --    69 C    1.243    72 C    0.991    60 C    0.959
                           118 O    0.187
    80   6 C    3.966 --    75 C    1.403    77 C    1.401   101 N    0.999
    81   1 H    0.995 --    77 C    0.974
    82   6 C    3.965 --    88 C    0.998    83 H    0.973    84 H    0.973
                           101 N    0.960
    83   1 H    0.996 --    82 C    0.973
    84   1 H    0.994 --    82 C    0.973
    85   6 C    3.957 --   105 O    1.655   101 N    1.200    86 C    1.011
    86   6 C    3.952 --    87 C    1.430   102 N    1.219    85 C    1.011
                           103 N    0.134
    87   6 C    3.981 --    86 C    1.430    91 C    1.322    88 C    1.012
    88   6 C    3.989 --    87 C    1.012    82 C    0.998    90 H    0.961
                            89 H    0.960
    89   1 H    0.994 --    88 C    0.960
    90   1 H    0.992 --    88 C    0.961
    91   6 C    3.968 --   103 N    1.426    87 C    1.322    92 C    1.001
    92   6 C    3.951 --   106 O    1.652   104 N    1.257    91 C    1.001
    93   6 C    3.956 --    94 C    1.402    97 C    1.372   102 N    1.005
    94   6 C    3.991 --    96 C    1.435    93 C    1.402    95 H    0.973
                           113 C    0.108
    95   1 H    0.995 --    94 C    0.973
    96   6 C    3.991 --    94 C    1.435   112 C    1.380    78 H    0.971
    97   6 C    3.990 --   113 C    1.476    93 C    1.372    98 H    0.972
    98   1 H    0.993 --    97 C    0.972
    99   1 H    0.957 --   104 N    0.941
   100   1 H    0.955 --   104 N    0.942
   101   7 N    3.472 --    85 C    1.200    80 C    0.999    82 C    0.960
                           105 O    0.188
   102   7 N    3.692 --   103 N    1.220    86 C    1.219    93 C    1.005
   103   7 N    2.966 --    91 C    1.426   102 N    1.220    86 C    0.134
   104   7 N    3.373 --    92 C    1.257   100 H    0.942    99 H    0.941
                           106 O    0.192
   105   8 O    2.000 --    85 C    1.655   101 N    0.188
   106   8 O    1.965 --    92 C    1.652   104 N    0.192
   107   6 C    3.936 --   109 H    0.981   110 H    0.981   108 H    0.979
                           111 O    0.967
   108   1 H    0.994 --   107 C    0.979
   109   1 H    0.996 --   107 C    0.981
   110   1 H    0.997 --   107 C    0.981
   111   8 O    2.207 --   112 C    1.070   107 C    0.967
   112   6 C    3.933 --    96 C    1.380   113 C    1.344   111 O    1.070
   113   6 C    3.991 --    97 C    1.476   112 C    1.344   114 H    0.972
                            94 C    0.108
   114   1 H    0.993 --   113 C    0.972
   115   6 C    3.990 --    66 C    1.002    69 C    0.979   117 H    0.962
                           116 H    0.953
   116   1 H    0.994 --   115 C    0.953
   117   1 H    0.993 --   115 C    0.962
   118   8 O    1.965 --    69 C    1.644    79 N    0.187
 ---------------------------------------------------------------------------

Topologies differ in total number of bonds
Writing topology from bond orders to xtbtopo.mol

molecular dipole:
                 x           y           z       tot (Debye)
 q only:       -0.069       0.945      -0.183
   full:       -0.058       0.382      -0.141       1.045
molecular quadrupole (traceless):
                xx          xy          yy          xz          yz          zz
 q only:     -156.802      66.637     187.304     -20.082      42.631     -30.503
  q+dip:     -111.380      29.811      78.649     -20.761     -12.477      32.731
   full:     -108.325      29.805      74.731     -15.762     -12.477      33.594


           -------------------------------------------------
          | TOTAL ENERGY             -193.681832169120 Eh   |
          | GRADIENT NORM               1.319438583249 Eh/α |
          | HOMO-LUMO GAP               2.830590343981 eV   |
           -------------------------------------------------

------------------------------------------------------------------------
 * finished run on 2026/10/03 at 19:14:35.536     
------------------------------------------------------------------------
 total:
 * wall-time:     0 d,  0 h,  0 min,  0.464 sec
 *  cpu-time:     0 d,  0 h,  0 min,  0.422 sec
 * ratio c/w:     0.909 speedup
 SCF:
 * wall-time:     0 d,  0 h,  0 min,  0.383 sec
 *  cpu-time:     0 d,  0 h,  0 min,  0.375 sec
 * ratio c/w:     0.979 speedup

normal termination of xtb
