59
Coordinates from ORCA-job Apixaban_SMD_DMSO_Opt E -1542.146638420863
  C      23.764281    -17.629654     -0.033447
  C      24.212616    -18.480789      1.149285
  C      25.515057    -19.248826      0.976457
  N      26.389669    -18.823460     -0.008845
  C      26.012066    -17.853157     -1.054375
  C      24.964850    -16.865439     -0.572305
  C      27.650985    -19.470009     -0.165128
  C      28.478078    -19.697659      0.938888
  C      29.716351    -20.292717      0.777195
  C      30.163986    -20.666057     -0.492992
  C      29.347040    -20.428520     -1.596100
  C      28.096429    -19.842825     -1.431825
  N      31.424052    -21.308998     -0.652795
  C      31.530940    -22.372194     -1.676775
  C      32.530016    -23.455863     -1.281705
  C      33.795389    -22.785770     -0.879340
  C      33.775655    -21.512857     -0.340876
  C      32.557914    -20.722939     -0.101772
  O      25.780696    -20.170407      1.734370
  O      32.533095    -19.680470      0.540358
  C      35.151924    -23.140900     -0.915120
  N      35.919128    -22.147396     -0.435699
  N      35.081038    -21.167453     -0.079047
  C      35.630213    -19.952939      0.435246
  C      35.735121    -24.412602     -1.398595
  N      37.091924    -24.482143     -1.346023
  O      35.022728    -25.317655     -1.821758
  C      35.200067    -19.435921      1.655850
  C      35.779766    -18.283247      2.149397
  C      36.798514    -17.642402      1.435078
  C      37.237546    -18.170910      0.219361
  C      36.646158    -19.329474     -0.274854
  O      37.298630    -16.515072      2.010912
  C      38.342809    -15.829917      1.326470
  H      23.355427    -18.270203     -0.826972
  H      22.961101    -16.949289      0.271816
  H      24.371850    -17.842550      2.030097
  H      23.460688    -19.219387      1.441862
  H      26.926696    -17.333555     -1.362039
  H      25.621436    -18.381635     -1.939330
  H      25.388854    -16.226154      0.213722
  H      24.686415    -16.216279     -1.410559
  H      28.139206    -19.419799      1.928999
  H      30.348554    -20.464950      1.639973
  H      29.679552    -20.694212     -2.594622
  H      27.472081    -19.682897     -2.304774
  H      30.533316    -22.802053     -1.800867
  H      31.836836    -21.933639     -2.640184
  H      32.138710    -24.055505     -0.448262
  H      32.698138    -24.140304     -2.117229
  H      37.624162    -23.739202     -0.922722
  H      37.537203    -25.347440     -1.600608
  H      34.410277    -19.930622      2.207218
  H      35.460395    -17.860026      3.095908
  H      38.025028    -17.696010     -0.353192
  H      36.976438    -19.752502     -1.217954
  H      38.010214    -15.476074      0.341407
  H      38.595678    -14.972319      1.951801
  H      39.229014    -16.467755      1.208024
59
Coordinates from ORCA-job Apixaban_SMD_DMSO_Opt E -1542.147447697448
  C      23.761188    -17.623930     -0.069469
  C      24.176409    -18.513579      1.095156
  C      25.481287    -19.275887      0.934433
  N      26.381315    -18.823810     -0.010893
  C      26.031216    -17.820051     -1.038821
  C      24.975438    -16.846161     -0.551917
  C      27.642936    -19.469917     -0.159086
  C      28.464484    -19.702365      0.950159
  C      29.704543    -20.298445      0.793749
  C      30.160591    -20.664969     -0.476905
  C      29.349332    -20.423474     -1.584537
  C      28.099128    -19.833667     -1.426012
  N      31.420132    -21.308358     -0.634122
  C      31.520208    -22.381365     -1.650543
  C      32.520228    -23.459177     -1.249059
  C      33.788939    -22.787353     -0.859370
  C      33.771856    -21.508590     -0.331629
  C      32.554715    -20.713691     -0.102211
  O      25.715919    -20.241535      1.655442
  O      32.537675    -19.642453      0.496828
  C      35.146732    -23.141889     -0.901681
  N      35.914981    -22.139644     -0.440801
  N      35.078702    -21.160206     -0.080615
  C      35.634991    -19.949525      0.435834
  C      35.734053    -24.418550     -1.372871
  N      37.088781    -24.475694     -1.352712
  O      35.017908    -25.341577     -1.760483
  C      35.274105    -19.482085      1.699084
  C      35.867843    -18.337172      2.196291
  C      36.831956    -17.654900      1.441947
  C      37.203393    -18.135206      0.183335
  C      36.600245    -19.287457     -0.312376
  O      37.353412    -16.543592      2.023418
  C      38.350586    -15.819882      1.297163
  H      23.371951    -18.237528     -0.893229
  H      22.952819    -16.951897      0.239857
  H      24.312224    -17.904383      2.000696
  H      23.413978    -19.259628      1.340661
  H      26.953204    -17.292496     -1.306719
  H      25.663878    -18.323164     -1.946028
  H      25.379764    -16.231874      0.264279
  H      24.719964    -16.173071     -1.377902
  H      28.125592    -19.419151      1.939414
  H      30.327292    -20.481618      1.662254
  H      29.686113    -20.688425     -2.582064
  H      27.482289    -19.665983     -2.303147
  H      30.523785    -22.814508     -1.764664
  H      31.819126    -21.950222     -2.617538
  H      32.132962    -24.051732     -0.408162
  H      32.678764    -24.147357     -2.082313
  H      37.628771    -23.718779     -0.961255
  H      37.541232    -25.342307     -1.602478
  H      34.538948    -20.016941      2.288169
  H      35.606085    -17.957661      3.179565
  H      37.947873    -17.628745     -0.419904
  H      36.876905    -19.669418     -1.290565
  H      37.954530    -15.434785      0.348715
  H      38.635328    -14.981187      1.935272
  H      39.233395    -16.441982      1.101364
59
Coordinates from ORCA-job Apixaban_SMD_DMSO_Opt E -1542.147746706844
  C      23.785531    -17.605317     -0.040659
  C      24.203549    -18.519140      1.103370
  C      25.495218    -19.291640      0.912139
  N      26.394614    -18.823625     -0.019121
  C      26.047412    -17.796931     -1.030121
  C      25.000508    -16.827022     -0.519396
  C      27.655308    -19.467092     -0.174457
  C      28.483533    -19.694850      0.931283
  C      29.722467    -20.294326      0.770505
  C      30.170555    -20.665296     -0.502135
  C      29.353072    -20.427774     -1.606867
  C      28.103577    -19.836708     -1.443354
  N      31.429114    -21.308367     -0.662996
  C      31.521669    -22.396320     -1.667356
  C      32.519407    -23.470614     -1.252882
  C      33.790177    -22.800779     -0.864207
  C      33.774989    -21.513184     -0.357627
  C      32.565195    -20.701733     -0.158929
  O      25.741196    -20.262619      1.630027
  O      32.555080    -19.620519      0.427452
  C      35.148144    -23.161503     -0.886097
  N      35.914079    -22.157055     -0.422911
  N      35.077519    -21.166698     -0.096885
  C      35.626145    -19.954666      0.423535
  C      35.741114    -24.447780     -1.326133
  N      37.092110    -24.500771     -1.313584
  O      35.022871    -25.386065     -1.682351
  C      35.267757    -19.507032      1.694523
  C      35.848369    -18.358157      2.199725
  C      36.797430    -17.653044      1.444159
  C      37.163656    -18.113233      0.175064
  C      36.571908    -19.268308     -0.328662
  O      37.307005    -16.542633      2.031365
  C      38.293962    -15.797209      1.303009
  H      23.384420    -18.201105     -0.871479
  H      22.986263    -16.933467      0.291520
  H      24.357521    -17.925997      2.017173
  H      23.433298    -19.259418      1.342996
  H      26.971345    -17.269451     -1.290025
  H      25.675382    -18.285050     -1.941998
  H      25.413196    -16.227026      0.303261
  H      24.742929    -16.141889     -1.334604
  H      28.154378    -19.401084      1.921799
  H      30.347740    -20.478665      1.638049
  H      29.682741    -20.699522     -2.605056
  H      27.481950    -19.670970     -2.317687
  H      30.525154    -22.830499     -1.771888
  H      31.817044    -21.975826     -2.638958
  H      32.128220    -24.054626     -0.407736
  H      32.673082    -24.163167     -2.083154
  H      37.637079    -23.731281     -0.952795
  H      37.551610    -25.370293     -1.544358
  H      34.548109    -20.062645      2.286152
  H      35.588740    -17.996652      3.190856
  H      37.894263    -17.588597     -0.429841
  H      36.841868    -19.630021     -1.316965
  H      37.886557    -15.408085      0.361849
  H      38.572470    -14.961084      1.947439
  H      39.182401    -16.406569      1.097029
59
Coordinates from ORCA-job Apixaban_SMD_DMSO_Opt E -1542.147840617414
  C      23.803178    -17.595408     -0.037045
  C      24.214977    -18.522946      1.099160
  C      25.510219    -19.288136      0.908103
  N      26.412134    -18.812142     -0.014435
  C      26.071156    -17.772529     -1.015730
  C      25.020376    -16.809848     -0.499127
  C      27.670394    -19.459210     -0.174477
  C      28.499038    -19.689494      0.929390
  C      29.735234    -20.293814      0.766552
  C      30.178573    -20.666980     -0.506448
  C      29.361210    -20.425289     -1.610126
  C      28.113365    -19.831710     -1.443946
  N      31.434919    -21.315108     -0.666625
  C      31.524645    -22.408002     -1.667649
  C      32.521635    -23.483473     -1.251144
  C      33.793788    -22.815358     -0.864536
  C      33.779590    -21.525528     -0.364911
  C      32.572744    -20.710888     -0.166385
  O      25.745252    -20.280078      1.601353
  O      32.571447    -19.621383      0.404921
  C      35.151083    -23.178466     -0.877828
  N      35.917631    -22.171375     -0.419975
  N      35.080409    -21.177512     -0.106432
  C      35.622300    -19.962893      0.415183
  C      35.744244    -24.467606     -1.306814
  N      37.094285    -24.517363     -1.307795
  O      35.023598    -25.410678     -1.646014
  C      35.260207    -19.522552      1.687092
  C      35.827571    -18.368038      2.194398
  C      36.767330    -17.650035      1.439175
  C      37.135889    -18.103148      0.167793
  C      36.555864    -19.263280     -0.338274
  O      37.263651    -16.535055      2.027886
  C      38.242682    -15.777234      1.300905
  H      23.408196    -18.181913     -0.877362
  H      23.001249    -16.928617      0.299047
  H      24.361537    -17.940448      2.020686
  H      23.443882    -19.266722      1.324201
  H      26.997303    -17.242669     -1.262295
  H      25.705673    -18.251878     -1.935140
  H      25.427455    -16.219249      0.332761
  H      24.766749    -16.115498     -1.308094
  H      28.172149    -19.395615      1.920648
  H      30.361720    -20.479739      1.632756
  H      29.688492    -20.698111     -2.608765
  H      27.489785    -19.663752     -2.316532
  H      30.527065    -22.840879     -1.768882
  H      31.818754    -21.989597     -2.640803
  H      32.130199    -24.064797     -0.404601
  H      32.671715    -24.177540     -2.081421
  H      37.643080    -23.742101     -0.967026
  H      37.555772    -25.385619     -1.534644
  H      34.544029    -20.085745      2.276228
  H      35.562147    -18.011356      3.185346
  H      37.859184    -17.568915     -0.437034
  H      36.827759    -19.618433     -1.328266
  H      37.829664    -15.391393      0.361024
  H      38.510809    -14.940115      1.947901
  H      39.137013    -16.377739      1.095080
59
Coordinates from ORCA-job Apixaban_SMD_DMSO_Opt E -1542.147874884328
  C      23.809330    -17.589926     -0.033813
  C      24.223298    -18.516372      1.103515
  C      25.516162    -19.284505      0.907789
  N      26.416210    -18.809898     -0.017252
  C      26.075928    -17.769515     -1.017852
  C      25.026242    -16.805782     -0.500257
  C      27.673827    -19.458851     -0.179137
  C      28.505210    -19.682336      0.923175
  C      29.740500    -20.287881      0.760090
  C      30.178915    -20.668864     -0.511803
  C      29.358661    -20.433800     -1.614329
  C      28.111304    -19.839608     -1.447462
  N      31.435281    -21.318009     -0.670342
  C      31.524924    -22.415748     -1.666076
  C      32.523295    -23.489613     -1.246788
  C      33.795497    -22.819815     -0.863855
  C      33.781079    -21.527520     -0.370596
  C      32.573958    -20.712020     -0.173781
  O      25.754191    -20.272430      1.604506
  O      32.574215    -19.619432      0.390471
  C      35.152345    -23.182510     -0.875486
  N      35.919586    -22.172897     -0.424082
  N      35.081560    -21.179488     -0.110428
  C      35.621347    -19.964754      0.414491
  C      35.744472    -24.471967     -1.302722
  N      37.094770    -24.520195     -1.313217
  O      35.022216    -25.417481     -1.629506
  C      35.267692    -19.534996      1.692180
  C      35.832257    -18.380680      2.202544
  C      36.760381    -17.651621      1.444102
  C      37.120988    -18.094852      0.167175
  C      36.544435    -19.255732     -0.341437
  O      37.254671    -16.537176      2.036275
  C      38.223160    -15.769480      1.307122
  H      23.411874    -18.177702     -0.872098
  H      23.008794    -16.921882      0.303136
  H      24.374990    -17.931774      2.022781
  H      23.451127    -19.257163      1.333394
  H      27.003262    -17.241556     -1.264290
  H      25.709531    -18.249323     -1.937061
  H      25.435620    -16.214289      0.329682
  H      24.770850    -16.112117     -1.309433
  H      28.179965    -19.384617      1.913688
  H      30.370629    -20.467480      1.624679
  H      29.683375    -20.712314     -2.612234
  H      27.483918    -19.676858     -2.318312
  H      30.526946    -22.848962     -1.763758
  H      31.817492    -22.000693     -2.641431
  H      32.133172    -24.068444     -0.398148
  H      32.672255    -24.186641     -2.075117
  H      37.646055    -23.741416     -0.985571
  H      37.556741    -25.387761     -1.539503
  H      34.558178    -20.104965      2.282160
  H      35.571688    -18.031610      3.197221
  H      37.836579    -17.552816     -0.439703
  H      36.812049    -19.604000     -1.334870
  H      37.799163    -15.379562      0.373757
  H      38.491569    -14.936234      1.958686
  H      39.118271    -16.365072      1.090134
59
Coordinates from ORCA-job Apixaban_SMD_DMSO_Opt E -1542.147886994685
  C      23.811517    -17.589849     -0.034990
  C      24.223276    -18.519048      1.101375
  C      25.516561    -19.286843      0.905351
  N      26.417779    -18.809023     -0.017255
  C      26.081037    -17.763942     -1.013927
  C      25.028964    -16.803112     -0.495780
  C      27.675504    -19.458800     -0.180280
  C      28.508552    -19.678447      0.921255
  C      29.743806    -20.283825      0.757646
  C      30.179553    -20.668097     -0.514139
  C      29.357152    -20.437552     -1.615793
  C      28.110113    -19.842777     -1.448243
  N      31.436125    -21.317067     -0.672612
  C      31.525775    -22.415859     -1.666907
  C      32.523704    -23.490088     -1.247131
  C      33.796003    -22.821034     -0.863409
  C      33.782075    -21.527647     -0.372670
  C      32.575619    -20.709960     -0.178485
  O      25.753160    -20.276859      1.598798
  O      32.576285    -19.619172      0.388487
  C      35.152132    -23.185457     -0.871031
  N      35.919877    -22.176686     -0.418316
  N      35.082483    -21.180778     -0.110455
  C      35.621690    -19.965392      0.414672
  C      35.742206    -24.476157     -1.296832
  N      37.092769    -24.525284     -1.311644
  O      35.018233    -25.421530     -1.618970
  C      35.272138    -19.539317      1.694718
  C      35.835922    -18.384942      2.205485
  C      36.758749    -17.651752      1.444751
  C      37.115108    -18.091272      0.165636
  C      36.539860    -19.252868     -0.343178
  O      37.252287    -16.536763      2.037179
  C      38.215718    -15.765461      1.305776
  H      23.417165    -18.176000     -0.875877
  H      23.009364    -16.923419      0.301226
  H      24.373475    -17.936120      2.021939
  H      23.450333    -19.259832      1.328332
  H      27.009600    -17.235135     -1.253957
  H      25.718504    -18.239732     -1.936816
  H      25.435825    -16.214192      0.337230
  H      24.774757    -16.106581     -1.302827
  H      28.183853    -19.378981      1.911403
  H      30.376182    -20.460468      1.621101
  H      29.680519    -20.719065     -2.613308
  H      27.480233    -19.682581     -2.317785
  H      30.527408    -22.848391     -1.763969
  H      31.818569    -22.001573     -2.642549
  H      32.132879    -24.069134     -0.398972
  H      32.672362    -24.187242     -2.075377
  H      37.646420    -23.744605     -0.992443
  H      37.554575    -25.392717     -1.539648
  H      34.565649    -20.111988      2.285668
  H      35.578176    -18.038607      3.201882
  H      37.827006    -17.545940     -0.442757
  H      36.805433    -19.598907     -1.337954
  H      37.786274    -15.374720      0.375182
  H      38.484781    -14.933233      1.958399
  H      39.110928    -16.359181      1.083800
59
Coordinates from ORCA-job Apixaban_SMD_DMSO_Opt E -1542.147892580889
  C      23.815657    -17.587197     -0.038280
  C      24.222592    -18.521829      1.095414
  C      25.515364    -19.290679      0.898937
  N      26.419619    -18.808089     -0.018152
  C      26.089322    -17.755394     -1.008805
  C      25.034891    -16.797866     -0.489600
  C      27.677245    -19.459092     -0.180645
  C      28.508841    -19.679064      0.921892
  C      29.743845    -20.285417      0.759462
  C      30.180220    -20.669722     -0.512315
  C      29.358702    -20.439571     -1.614730
  C      28.111992    -19.843595     -1.448198
  N      31.436693    -21.319149     -0.669855
  C      31.527060    -22.416592     -1.665568
  C      32.524422    -23.491781     -1.247136
  C      33.796716    -22.823682     -0.862009
  C      33.782687    -21.530403     -0.370965
  C      32.576392    -20.712923     -0.174408
  O      25.750379    -20.283009      1.589395
  O      32.578218    -19.622315      0.392615
  C      35.152634    -23.188926     -0.867192
  N      35.920337    -22.180241     -0.414007
  N      35.082961    -21.183443     -0.108950
  C      35.621241    -19.967104      0.415432
  C      35.741574    -24.480414     -1.292722
  N      37.092228    -24.529416     -1.311592
  O      35.016794    -25.426551     -1.610452
  C      35.276441    -19.544435      1.697968
  C      35.838788    -18.389067      2.207920
  C      36.755244    -17.651452      1.443634
  C      37.106475    -18.087248      0.162002
  C      36.532750    -19.250088     -0.346025
  O      37.247613    -16.535343      2.035240
  C      38.204743    -15.759538      1.300143
  H      23.425230    -18.169461     -0.883690
  H      23.011898    -16.922486      0.297435
  H      24.370794    -17.942755      2.018768
  H      23.447779    -19.262406      1.316698
  H      27.019760    -17.225649     -1.239427
  H      25.731947    -18.223947     -1.937298
  H      25.438287    -16.213784      0.348565
  H      24.783779    -16.096480     -1.293328
  H      28.182623    -19.379413      1.911617
  H      30.375564    -20.462978      1.623213
  H      29.682898    -20.721802     -2.611758
  H      27.482211    -19.682951     -2.317751
  H      30.528659    -22.848631     -1.763876
  H      31.820653    -22.001137     -2.640396
  H      32.133176    -24.072564     -0.400294
  H      32.672794    -24.187580     -2.076475
  H      37.647399    -23.746444     -1.000488
  H      37.554306    -25.396186     -1.542439
  H      34.574523    -20.120689      2.291180
  H      35.585000    -18.045390      3.206348
  H      37.813197    -17.538017     -0.449013
  H      36.794643    -19.593497     -1.342764
  H      37.769163    -15.368958      0.372326
  H      38.474212    -14.927319      1.952713
  H      39.100827    -16.349846      1.072690
59
Coordinates from ORCA-job Apixaban_SMD_DMSO_Opt E -1542.147896661299
  C      23.818447    -17.586753     -0.041582
  C      24.222263    -18.523659      1.091142
  C      25.515903    -19.291584      0.896191
  N      26.421575    -18.806344     -0.017874
  C      26.095517    -17.748992     -1.004800
  C      25.038250    -16.794526     -0.485941
  C      27.678923    -19.458419     -0.180134
  C      28.510626    -19.677224      0.922625
  C      29.745166    -20.284814      0.760697
  C      30.180837    -20.670901     -0.511018
  C      29.359026    -20.441846     -1.613584
  C      28.112586    -19.845069     -1.447326
  N      31.437112    -21.320533     -0.668593
  C      31.527579    -22.417328     -1.665019
  C      32.524578    -23.492914     -1.247104
  C      33.796920    -22.825296     -0.861306
  C      33.782969    -21.531814     -0.370885
  C      32.576955    -20.714389     -0.173116
  O      25.749330    -20.286850      1.583086
  O      32.578927    -19.624990      0.396220
  C      35.152919    -23.190849     -0.865576
  N      35.920459    -22.182076     -0.412358
  N      35.082932    -21.185598     -0.107007
  C      35.620778    -19.968882      0.416966
  C      35.741179    -24.482966     -1.290918
  N      37.091771    -24.531979     -1.311430
  O      35.016104    -25.429790     -1.606066
  C      35.279555    -19.548567      1.701308
  C      35.840932    -18.392379      2.210445
  C      36.752800    -17.651755      1.443378
  C      37.100327    -18.084989      0.159916
  C      36.527469    -19.248667     -0.347356
  O      37.244597    -16.535034      2.034362
  C      38.197033    -15.755800      1.296400
  H      23.432121    -18.167410     -0.890000
  H      23.012428    -16.923994      0.292579
  H      24.367422    -17.946518      2.016180
  H      23.447091    -19.265200      1.308271
  H      27.026774    -17.217678     -1.228499
  H      25.742806    -18.212776     -1.937384
  H      25.438042    -16.212986      0.355778
  H      24.789064    -16.090449     -1.287875
  H      28.184482    -19.375524      1.911856
  H      30.377115    -20.462266      1.624354
  H      29.682841    -20.725694     -2.610240
  H      27.482141    -19.685094     -2.316538
  H      30.529231    -22.849248     -1.763953
  H      31.821628    -22.001691     -2.639587
  H      32.133143    -24.074723     -0.400997
  H      32.672901    -24.188071     -2.076964
  H      37.647653    -23.747114     -1.006418
  H      37.553889    -25.397945     -1.545203
  H      34.581220    -20.127503      2.296343
  H      35.590376    -18.050482      3.210344
  H      37.803196    -17.533081     -0.453113
  H      36.786096    -19.590096     -1.345672
  H      37.757142    -15.365298      0.370614
  H      38.466909    -14.923438      1.948665
  H      39.093942    -16.343145      1.064720
59
Coordinates from ORCA-job Apixaban_SMD_DMSO_Opt E -1542.147898963252
  C      23.820115    -17.586186     -0.045100
  C      24.220345    -18.525954      1.086291
  C      25.514534    -19.293250      0.892786
  N      26.422255    -18.805626     -0.017759
  C      26.100773    -17.743503     -1.000794
  C      25.040949    -16.791595     -0.482318
  C      27.679421    -19.458417     -0.179283
  C      28.510278    -19.677915      0.923974
  C      29.744549    -20.286233      0.762782
  C      30.180901    -20.672275     -0.508812
  C      29.359896    -20.442236     -1.611911
  C      28.113587    -19.845037     -1.446271
  N      31.436993    -21.322147     -0.666247
  C      31.528089    -22.417251     -1.664425
  C      32.524735    -23.493520     -1.247438
  C      33.796925    -22.826450     -0.860195
  C      33.782758    -21.533516     -0.368532
  C      32.576596    -20.717034     -0.168785
  O      25.746189    -20.291092      1.576738
  O      32.578109    -19.628953      0.403142
  C      35.153135    -23.191817     -0.864543
  N      35.920270    -22.183492     -0.409924
  N      35.082566    -21.187625     -0.103402
  C      35.620493    -19.970439      0.419278
  C      35.741386    -24.483728     -1.290790
  N      37.091879    -24.532921     -1.310009
  O      35.016516    -25.430160     -1.607752
  C      35.282288    -19.550613      1.704571
  C      35.843489    -18.393587      2.212060
  C      36.752059    -17.651725      1.442218
  C      37.096714    -18.084441      0.157771
  C      36.524044    -19.248967     -0.347747
  O      37.244017    -16.534408      2.031880
  C      38.192436    -15.753202      1.290824
  H      23.437482    -18.164628     -0.896737
  H      23.012164    -16.925107      0.287775
  H      24.362520    -17.951394      2.013374
  H      23.444756    -19.268431      1.298875
  H      27.032883    -17.210765     -1.217612
  H      25.752566    -18.202372     -1.937515
  H      25.437165    -16.212847      0.363005
  H      24.794246    -16.084736     -1.282574
  H      28.183476    -19.375794      1.912858
  H      30.375723    -20.464754      1.626756
  H      29.684220    -20.725876     -2.608433
  H      27.483632    -19.684397     -2.315722
  H      30.529885    -22.849141     -1.764963
  H      31.823003    -22.000408     -2.638239
  H      32.132975    -24.076798     -0.402501
  H      32.673579    -24.187515     -2.078254
  H      37.647639    -23.747084     -1.007475
  H      37.553959    -25.397560     -1.548255
  H      34.586524    -20.130660      2.301452
  H      35.595526    -18.051836      3.212619
  H      37.797014    -17.531570     -0.457253
  H      36.779923    -19.590039     -1.346865
  H      37.748951    -15.363343      0.366497
  H      38.462981    -14.920285      1.942072
  H      39.089919    -16.338349      1.055844
59
Coordinates from ORCA-job Apixaban_SMD_DMSO_Opt E -1542.147900258595
  C      23.821044    -17.585907     -0.047241
  C      24.218688    -18.528277      1.082817
  C      25.513274    -19.294877      0.889986
  N      26.422507    -18.805437     -0.017818
  C      26.104522    -17.739219     -0.997385
  C      25.042673    -16.789428     -0.478904
  C      27.679656    -19.458427     -0.178919
  C      28.509780    -19.678851      0.924598
  C      29.743965    -20.287393      0.763855
  C      30.181099    -20.672760     -0.507646
  C      29.360729    -20.441732     -1.611088
  C      28.114451    -19.844468     -1.445839
  N      31.437039    -21.322836     -0.665041
  C      31.528566    -22.416521     -1.664673
  C      32.524780    -23.493563     -1.248401
  C      33.796910    -22.827207     -0.859722
  C      33.782687    -21.534857     -0.366674
  C      32.576496    -20.718933     -0.165748
  O      25.743763    -20.294635      1.571727
  O      32.577766    -19.631975      0.408414
  C      35.153171    -23.192685     -0.863804
  N      35.920104    -22.184835     -0.407978
  N      35.082386    -21.189329     -0.100450
  C      35.620483    -19.971729      0.421051
  C      35.741642    -24.484194     -1.290846
  N      37.092035    -24.534501     -1.305913
  O      35.016908    -25.429961     -1.610269
  C      35.284538    -19.552001      1.706902
  C      35.845753    -18.394364      2.213057
  C      36.751992    -17.651809      1.441178
  C      37.094401    -18.084398      0.156017
  C      36.521760    -19.249536     -0.348011
  O      37.244089    -16.533984      2.029670
  C      38.188974    -15.751187      1.285994
  H      23.441072    -18.162321     -0.901466
  H      23.011694    -16.926204      0.285016
  H      24.358694    -17.956069      2.011659
  H      23.442881    -19.271541      1.291820
  H      27.037237    -17.205254     -1.208620
  H      25.759886    -18.194094     -1.937395
  H      25.436130    -16.212980      0.369257
  H      24.797894    -16.080343     -1.277791
  H      28.182315    -19.377150      1.913398
  H      30.374435    -20.466801      1.628125
  H      29.685504    -20.724758     -2.607642
  H      27.485013    -19.683164     -2.315557
  H      30.530407    -22.848238     -1.766587
  H      31.824246    -21.998497     -2.637770
  H      32.132517    -24.077881     -0.404450
  H      32.674082    -24.186525     -2.080044
  H      37.647574    -23.748140     -1.004438
  H      37.554019    -25.398084     -1.547962
  H      34.590460    -20.132589      2.305159
  H      35.599540    -18.052424      3.213952
  H      37.792926    -17.531065     -0.460577
  H      36.775681    -19.590662     -1.347599
  H      37.742389    -15.362351      0.362723
  H      38.459713    -14.917571      1.936245
  H      39.087056    -16.334485      1.048654
