48
Coordinates from ORCA-job DienogestGasOptFreq E -981.747924769944
  C      -4.647760      1.714840      0.273010
  C      -5.257130      0.453840     -0.180290
  C      -5.667890      2.666910      0.786640
  C      -3.322900      1.975520      0.197070
  C      -6.394510      0.702100     -1.214980
  C      -4.215290     -0.657010     -0.494390
  C      -6.537910      3.065940     -0.420430
  C      -2.436820      1.061120     -0.616970
  C      -2.758830      3.265650      0.770360
  C      -7.504060      1.952150     -1.057220
  C      -3.030630     -0.147760     -1.307550
  C      -1.179700      1.449640     -0.919630
  C      -1.254130      3.162080      0.947340
  C      -0.619180      2.670670     -0.310630
  O       0.364690      3.220030     -0.778270
  H      -5.762100      0.079040      0.751060
  C      -8.636810      3.088720     -1.474960
  C      -6.218780      0.316200     -2.653880
  C      -7.629680      0.575330     -3.058550
  C      -8.517730      0.851840     -1.753480
  O      -9.750430      1.108600     -2.391630
  H      -6.753880     -0.321640     -0.955270
  C      -9.038940     -0.001190     -0.453450
  C      -9.268590      0.901620      0.715170
  N      -9.377600      1.628290      1.613620
  H      -5.218410      3.604060      1.166040
  H      -6.288020      2.239000      1.602030
  H      -4.682340     -1.558010     -0.949200
  H      -3.779900     -0.987610      0.477080
  H      -5.881170      3.469040     -1.223790
  H      -7.020160      3.941280      0.035300
  H      -3.148690      3.417330      1.802390
  H      -3.061880      4.121540      0.131060
  H      -3.316420      0.118710     -2.346300
  H      -2.280570     -0.969330     -1.354550
  H      -0.585430      0.888820     -1.634850
  H      -1.072150      2.377040      1.717250
  H      -0.818860      4.113020      1.319060
  H      -8.719230      4.041840     -0.928130
  H      -9.683790      2.859240     -1.152880
  H      -8.570360      3.376780     -2.542430
  H      -5.471200      0.896350     -3.235780
  H      -6.000210     -0.777130     -2.797160
  H      -7.993930     -0.060910     -3.887420
  H      -7.567740      1.583500     -3.555420
  H     -10.065470      0.240720     -2.775170
  H      -9.988120     -0.534960     -0.647320
  H      -8.392030     -0.770940      0.000860
48
Coordinates from ORCA-job DienogestGasOptFreq E -981.794170359345
  C      -4.633771      1.729945      0.289030
  C      -5.257739      0.474906     -0.180013
  C      -5.668324      2.664816      0.806916
  C      -3.306027      1.988384      0.215530
  C      -6.390136      0.703429     -1.238183
  C      -4.227259     -0.627451     -0.497396
  C      -6.543914      3.062489     -0.399122
  C      -2.431566      1.092330     -0.603546
  C      -2.723059      3.265781      0.798620
  C      -7.489686      1.964047     -1.091351
  C      -3.039792     -0.105701     -1.300490
  C      -1.166673      1.469913     -0.908859
  C      -1.210556      3.151312      0.965276
  C      -0.576971      2.671905     -0.303382
  O       0.413660      3.212566     -0.777266
  H      -5.773553      0.107781      0.739880
  C      -8.609344      3.102721     -1.570345
  C      -6.228133      0.300847     -2.675111
  C      -7.669084      0.554650     -3.040507
  C      -8.547130      0.830721     -1.728102
  O      -9.797480      1.113980     -2.347279
  H      -6.802719     -0.290049     -0.965536
  C      -9.052080     -0.036905     -0.446268
  C      -9.263496      0.851450      0.718736
  N      -9.363211      1.563982      1.626337
  H      -5.233019      3.596506      1.201109
  H      -6.287062      2.220028      1.605744
  H      -4.695181     -1.514680     -0.961893
  H      -3.809634     -0.971523      0.468946
  H      -5.888647      3.470692     -1.191517
  H      -7.056880      3.923693      0.041668
  H      -3.113662      3.411366      1.822806
  H      -3.013782      4.128835      0.173006
  H      -3.326888      0.173885     -2.329537
  H      -2.293908     -0.919394     -1.366699
  H      -0.582122      0.908386     -1.631998
  H      -1.031109      2.361897      1.722758
  H      -0.763589      4.087977      1.335594
  H      -8.653509      4.060518     -1.030469
  H      -9.640904      2.847246     -1.254768
  H      -8.560901      3.360393     -2.641307
  H      -5.487540      0.867263     -3.269051
  H      -5.998931     -0.782228     -2.803735
  H      -8.065651     -0.087071     -3.843875
  H      -7.643167      1.559066     -3.523048
  H     -10.122752      0.264776     -2.713739
  H     -10.002814     -0.561856     -0.638727
  H      -8.392975     -0.811714     -0.025478
48
Coordinates from ORCA-job DienogestGasOptFreq E -981.830692740883
  C      -4.626638      1.742370      0.301786
  C      -5.263613      0.495378     -0.185907
  C      -5.673159      2.660540      0.827548
  C      -3.298387      1.997025      0.231259
  C      -6.388180      0.706747     -1.264473
  C      -4.243034     -0.601380     -0.508993
  C      -6.550566      3.058156     -0.376553
  C      -2.434992      1.121265     -0.593791
  C      -2.702214      3.261206      0.828229
  C      -7.471728      1.981915     -1.126617
  C      -3.053739     -0.065516     -1.300856
  C      -1.164588      1.490725     -0.899447
  C      -1.184374      3.138108      0.986834
  C      -0.550997      2.673571     -0.293101
  O       0.444258      3.208418     -0.768534
  H      -5.793475      0.136529      0.722227
  C      -8.565680      3.126151     -1.662226
  C      -6.240839      0.284913     -2.699328
  C      -7.706423      0.526540     -3.021814
  C      -8.566658      0.807408     -1.699014
  O      -9.834642      1.103146     -2.301467
  H      -6.851436     -0.252630     -0.978754
  C      -9.043595     -0.065255     -0.430038
  C      -9.235604      0.820304      0.723803
  N      -9.324371      1.529032      1.633286
  H      -5.250938      3.587166      1.239183
  H      -6.290966      2.196387      1.610592
  H      -4.711288     -1.475910     -0.986374
  H      -3.840025     -0.961902      0.452371
  H      -5.896202      3.471731     -1.160174
  H      -7.094336      3.905224      0.049256
  H      -3.096681      3.398691      1.846386
  H      -2.981330      4.133239      0.216296
  H      -3.342866      0.229689     -2.321336
  H      -2.308490     -0.870976     -1.387984
  H      -0.587645      0.931858     -1.631494
  H      -1.006005      2.342404      1.731673
  H      -0.727790      4.063924      1.357729
  H      -8.558676      4.082796     -1.124562
  H      -9.584277      2.856197     -1.352630
  H      -8.531463      3.361255     -2.734472
  H      -5.508791      0.836065     -3.309780
  H      -5.999752     -0.789829     -2.809668
  H      -8.135990     -0.128460     -3.792824
  H      -7.718759      1.524291     -3.497217
  H     -10.165880      0.259938     -2.648784
  H      -9.993735     -0.587377     -0.614653
  H      -8.366112     -0.839158     -0.042233
48
Coordinates from ORCA-job DienogestGasOptFreq E -981.871700495931
  C      -4.624197      1.747123      0.315674
  C      -5.267625      0.511823     -0.204906
  C      -5.688057      2.637037      0.861595
  C      -3.297351      2.003319      0.250129
  C      -6.382076      0.706873     -1.302376
  C      -4.251638     -0.576544     -0.541027
  C      -6.563094      3.041760     -0.338791
  C      -2.441417      1.159823     -0.589653
  C      -2.695027      3.250563      0.874373
  C      -7.435957      2.001740     -1.179297
  C      -3.064125     -0.012900     -1.316518
  C      -1.167676      1.528496     -0.889446
  C      -1.172902      3.125529      1.026272
  C      -0.535789      2.688559     -0.268339
  O       0.461729      3.225742     -0.736493
  H      -5.817324      0.157018      0.687071
  C      -8.468363      3.141977     -1.819529
  C      -6.275252      0.258896     -2.736415
  C      -7.770171      0.485330     -2.991616
  C      -8.589585      0.788649     -1.645369
  O      -9.876743      1.121787     -2.212177
  H      -6.910941     -0.200056     -0.995143
  C      -9.023425     -0.082270     -0.384444
  C      -9.171165      0.802656      0.763239
  N      -9.229123      1.508240      1.676843
  H      -5.287520      3.556209      1.304640
  H      -6.302852      2.136996      1.621036
  H      -4.715319     -1.435579     -1.042635
  H      -3.861324     -0.962103      0.412492
  H      -5.902850      3.468677     -1.106116
  H      -7.148163      3.868855      0.066983
  H      -3.099572      3.373460      1.886445
  H      -2.963487      4.135854      0.281325
  H      -3.359386      0.307198     -2.325437
  H      -2.312495     -0.803300     -1.436761
  H      -0.594584      0.982383     -1.635044
  H      -0.989621      2.319648      1.753866
  H      -0.711925      4.043074      1.402620
  H      -8.397005      4.104398     -1.307515
  H      -9.485235      2.874892     -1.534982
  H      -8.421204      3.328582     -2.897202
  H      -5.564697      0.789966     -3.382219
  H      -6.022071     -0.809350     -2.821395
  H      -8.249835     -0.191899     -3.709274
  H      -7.827695      1.470737     -3.470166
  H     -10.238976      0.286564     -2.534591
  H      -9.980860     -0.591800     -0.548974
  H      -8.328702     -0.862722     -0.047395
48
Coordinates from ORCA-job DienogestGasOptFreq E -981.916310934162
  C      -4.641040      1.730291      0.324069
  C      -5.272185      0.506814     -0.245883
  C      -5.729778      2.573262      0.906422
  C      -3.318649      2.004521      0.266308
  C      -6.379131      0.694442     -1.352680
  C      -4.246366     -0.561985     -0.603643
  C      -6.592881      3.005439     -0.289261
  C      -2.458283      1.209406     -0.600114
  C      -2.726357      3.233794      0.932813
  C      -7.378364      2.019006     -1.248067
  C      -3.069884      0.050763     -1.358073
  C      -1.185092      1.593863     -0.882994
  C      -1.201280      3.123323      1.083391
  C      -0.551650      2.731075     -0.225752
  O       0.445518      3.285175     -0.672396
  H      -5.841474      0.140304      0.625222
  C      -8.256767      3.173199     -2.031877
  C      -6.345872      0.211548     -2.784414
  C      -7.870179      0.415846     -2.950728
  C      -8.612504      0.786207     -1.568630
  O      -9.923672      1.160743     -2.070032
  H      -6.979245     -0.144191     -1.015032
  C      -8.980308     -0.071593     -0.300157
  C      -9.051868      0.814787      0.848174
  N      -9.052576      1.517764      1.765221
  H      -5.361942      3.478310      1.399788
  H      -6.338007      2.017043      1.629249
  H      -4.694920     -1.403468     -1.142380
  H      -3.861234     -0.978595      0.337043
  H      -5.913045      3.462611     -1.020686
  H      -7.229931      3.805692      0.093612
  H      -3.148669      3.333734      1.937931
  H      -2.991260      4.133906      0.362801
  H      -3.380131      0.403831     -2.350741
  H      -2.301521     -0.712192     -1.524115
  H      -0.606265      1.076497     -1.645297
  H      -1.002429      2.305484      1.790365
  H      -0.750026      4.038276      1.472767
  H      -8.085590      4.138792     -1.557028
  H      -9.299239      2.980816     -1.822120
  H      -8.130203      3.293186     -3.110290
  H      -5.679170      0.718447     -3.489431
  H      -6.078772     -0.852245     -2.834224
  H      -8.405687     -0.306225     -3.578273
  H      -7.980401      1.367024     -3.469561
  H     -10.335934      0.334647     -2.346736
  H      -9.953240     -0.560234     -0.421053
  H      -8.275164     -0.867228     -0.030145
48
Coordinates from ORCA-job DienogestGasOptFreq E -981.955904956840
  C      -4.653472      1.691904      0.336874
  C      -5.252983      0.468569     -0.274672
  C      -5.766845      2.484120      0.961269
  C      -3.340915      2.004664      0.275944
  C      -6.369270      0.649838     -1.371048
  C      -4.201572     -0.564332     -0.661263
  C      -6.620920      2.938749     -0.230363
  C      -2.468665      1.266687     -0.622462
  C      -2.775442      3.226751      0.975915
  C      -7.310792      1.989823     -1.272539
  C      -3.054973      0.112333     -1.405548
  C      -1.205726      1.687747     -0.895509
  C      -1.247461      3.156361      1.118322
  C      -0.589328      2.814491     -0.204968
  O       0.396239      3.399809     -0.634013
  H      -5.824270      0.076466      0.582042
  C      -7.982220      3.118558     -2.215950
  C      -6.436798      0.140768     -2.800786
  C      -7.978651      0.373691     -2.898733
  C      -8.643735      0.831676     -1.499069
  O      -9.936277      1.338667     -1.934558
  H      -7.017911     -0.122723     -0.995609
  C      -9.012073     -0.026755     -0.244777
  C      -8.992587      0.825996      0.929207
  N      -8.924597      1.495896      1.868069
  H      -5.429620      3.377258      1.494550
  H      -6.358991      1.877966      1.655145
  H      -4.626770     -1.394894     -1.232664
  H      -3.802350     -1.002833      0.262785
  H      -5.911490      3.417176     -0.920930
  H      -7.304129      3.718697      0.118669
  H      -3.209762      3.301572      1.977332
  H      -3.056969      4.134251      0.425604
  H      -3.396637      0.490256     -2.379253
  H      -2.261046     -0.610375     -1.620605
  H      -0.616937      1.208512     -1.675398
  H      -1.014382      2.333601      1.807849
  H      -0.820575      4.078682      1.516769
  H      -7.733727      4.087023     -1.788324
  H      -9.053789      3.010060     -2.132352
  H      -7.722955      3.141831     -3.276537
  H      -5.814635      0.619838     -3.561745
  H      -6.185054     -0.926207     -2.827976
  H      -8.572234     -0.367497     -3.446951
  H      -8.103971      1.293703     -3.459367
  H     -10.445423      0.564519     -2.196779
  H     -10.018958     -0.443140     -0.350207
  H      -8.351022     -0.877844     -0.042030
48
Coordinates from ORCA-job DienogestGasOptFreq E -981.991604783032
  C      -4.677617      1.646018      0.341737
  C      -5.239158      0.419094     -0.301379
  C      -5.808328      2.392522      1.004582
  C      -3.376471      2.002354      0.275713
  C      -6.375302      0.607754     -1.372370
  C      -4.158869     -0.571951     -0.718924
  C      -6.651548      2.879131     -0.184754
  C      -2.489841      1.317514     -0.652999
  C      -2.842065      3.221712      1.002511
  C      -7.258911      1.954578     -1.282319
  C      -3.047593      0.165258     -1.458346
  C      -1.240151      1.779303     -0.916122
  C      -1.313724      3.196004      1.139449
  C      -0.648847      2.900394     -0.192775
  O       0.323600      3.518194     -0.603944
  H      -5.798132     -0.007219      0.546546
  C      -7.675849      3.056501     -2.356858
  C      -6.536086      0.080534     -2.796808
  C      -8.086221      0.338100     -2.844158
  C      -8.660266      0.894395     -1.443592
  O      -9.920569      1.510170     -1.812071
  H      -7.059230     -0.114068     -0.957972
  C      -9.029213      0.028905     -0.202087
  C      -8.940257      0.830969      1.005548
  N      -8.821967      1.454888      1.970645
  H      -5.490975      3.272287      1.570013
  H      -6.383580      1.746887      1.674981
  H      -4.562482     -1.393888     -1.318012
  H      -3.736906     -1.025388      0.187507
  H      -5.905492      3.375614     -0.824171
  H      -7.364381      3.649009      0.131059
  H      -3.284354      3.273159      2.001994
  H      -3.146578      4.131659      0.467022
  H      -3.423766      0.560971     -2.413201
  H      -2.230918     -0.517445     -1.715843
  H      -0.640162      1.338564     -1.710074
  H      -1.045354      2.372734      1.815803
  H      -0.916049      4.127436      1.547777
  H      -7.361342      4.020480     -1.960150
  H      -8.753302      3.062110     -2.448498
  H      -7.247430      2.975526     -3.359615
  H      -5.962145      0.541341     -3.605881
  H      -6.300156     -0.990272     -2.807329
  H      -8.720031     -0.425034     -3.313100
  H      -8.227553      1.215317     -3.462760
  H     -10.512636      0.791887     -2.060068
  H     -10.061453     -0.325385     -0.293410
  H      -8.413011     -0.866710     -0.059933
48
Coordinates from ORCA-job DienogestGasOptFreq E -982.023971125463
  C      -4.693482      1.591085      0.351585
  C      -5.209284      0.351547     -0.315377
  C      -5.831945      2.296988      1.059171
  C      -3.408861      2.001099      0.268852
  C      -6.382266      0.551919     -1.340975
  C      -4.095711     -0.583787     -0.774717
  C      -6.671504      2.816219     -0.125448
  C      -2.510726      1.374160     -0.695413
  C      -2.910629      3.223765      1.013508
  C      -7.202813      1.899015     -1.253929
  C      -3.035712      0.220622     -1.518674
  C      -1.281753      1.886330     -0.956585
  C      -1.383924      3.255916      1.136832
  C      -0.721133      3.006499     -0.205011
  O       0.230783      3.661908     -0.604459
  H      -5.737010     -0.118686      0.529738
  C      -7.375077      2.908331     -2.439909
  C      -6.640813      0.008738     -2.753529
  C      -8.180379      0.337696     -2.783398
  C      -8.653980      0.997337     -1.405459
  O      -9.821197      1.775964     -1.726224
  H      -7.086210     -0.121350     -0.876912
  C      -9.091287      0.109478     -0.206675
  C      -8.971773      0.810347      1.062027
  N      -8.838723      1.345256      2.077199
  H      -5.524015      3.165665      1.646259
  H      -6.380262      1.618324      1.716929
  H      -4.478402     -1.398885     -1.398216
  H      -3.636044     -1.046129      0.108997
  H      -5.883079      3.319650     -0.705958
  H      -7.407920      3.582900      0.145581
  H      -3.353301      3.253038      2.014477
  H      -3.250163      4.129992      0.489785
  H      -3.459881      0.627472     -2.450170
  H      -2.195874     -0.414174     -1.823470
  H      -0.673660      1.488476     -1.766694
  H      -1.068846      2.439370      1.802516
  H      -1.022265      4.200749      1.550716
  H      -6.992615      3.877011     -2.117594
  H      -8.426501      3.011976     -2.699543
  H      -6.813897      2.661599     -3.349280
  H      -6.103397      0.443251     -3.602284
  H      -6.454008     -1.072122     -2.747367
  H      -8.860134     -0.425577     -3.185750
  H      -8.305870      1.174431     -3.465032
  H     -10.515620      1.160209     -1.990897
  H     -10.150585     -0.145195     -0.328881
  H      -8.560925     -0.846512     -0.126983
48
Coordinates from ORCA-job DienogestGasOptFreq E -982.050185500003
  C      -4.712410      1.524334      0.349736
  C      -5.175656      0.273692     -0.340499
  C      -5.863545      2.185438      1.086062
  C      -3.447329      1.993015      0.258650
  C      -6.395647      0.484689     -1.307568
  C      -4.029342     -0.588719     -0.853466
  C      -6.688453      2.759066     -0.093476
  C      -2.535709      1.432121     -0.737595
  C      -2.989891      3.217176      1.025525
  C      -7.167010      1.845466     -1.242721
  C      -3.025053      0.287961     -1.593232
  C      -1.327024      1.995550     -0.987039
  C      -1.466748      3.304138      1.146627
  C      -0.798756      3.106686     -0.198868
  O       0.138972      3.795908     -0.576242
  H      -5.650297     -0.253942      0.502693
  C      -7.117640      2.779824     -2.500136
  C      -6.743623     -0.088756     -2.693846
  C      -8.265510      0.319780     -2.717864
  C      -8.625074      1.103822     -1.387405
  O      -9.679961      2.028728     -1.657231
  H      -7.095813     -0.152002     -0.781270
  C      -9.129125      0.223645     -0.210264
  C      -8.973365      0.848419      1.094596
  N      -8.821964      1.315511      2.140278
  H      -5.561916      3.034640      1.703497
  H      -6.399435      1.473588      1.719894
  H      -4.392055     -1.394362     -1.501774
  H      -3.528806     -1.060539      0.002200
  H      -5.868478      3.279419     -0.606641
  H      -7.436693      3.519924      0.156784
  H      -3.433161      3.218251      2.026660
  H      -3.362151      4.119359      0.515383
  H      -3.495232      0.709373     -2.496408
  H      -2.165678     -0.295522     -1.943386
  H      -0.709631      1.645018     -1.811609
  H      -1.114501      2.491570      1.799167
  H      -1.142701      4.255594      1.577066
  H      -6.657706      3.735395     -2.243036
  H      -8.112212      2.987777     -2.892701
  H      -6.495671      2.374660     -3.308663
  H      -6.230482      0.305875     -3.576132
  H      -6.615063     -1.176734     -2.661599
  H      -8.984147     -0.451991     -3.025983
  H      -8.379985      1.084375     -3.485204
  H     -10.460687      1.527794     -1.922143
  H     -10.206585      0.063328     -0.347009
  H      -8.683723     -0.776431     -0.170453
48
Coordinates from ORCA-job DienogestGasOptFreq E -982.069310550321
  C      -4.706722      1.461632      0.363821
  C      -5.131401      0.200010     -0.337007
  C      -5.861265      2.090441      1.121408
  C      -3.464454      1.985902      0.247163
  C      -6.409076      0.414811     -1.227618
  C      -3.967894     -0.579500     -0.932568
  C      -6.680923      2.714198     -0.046701
  C      -2.560052      1.493278     -0.789005
  C      -3.034695      3.212828      1.024590
  C      -7.138326      1.798566     -1.198975
  C      -3.034689      0.369227     -1.676168
  C      -1.373497      2.101703     -1.043334
  C      -1.513465      3.347625      1.126700
  C      -0.855994      3.197010     -0.228797
  O       0.068442      3.910835     -0.596128
  H      -5.528557     -0.387264      0.505757
  C      -6.900366      2.663653     -2.488259
  C      -6.815881     -0.199921     -2.584739
  C      -8.307236      0.308059     -2.656598
  C      -8.586142      1.189314     -1.387099
  O      -9.512897      2.236042     -1.652000
  H      -7.098581     -0.177102     -0.632624
  C      -9.222802      0.321233     -0.262649
  C      -9.145147      0.874342      1.079715
  N      -9.070158      1.275886      2.160236
  H      -5.554381      2.918699      1.763726
  H      -6.390082      1.357227      1.734349
  H      -4.325254     -1.371465     -1.600476
  H      -3.412204     -1.063276     -0.119598
  H      -5.850226      3.250960     -0.516564
  H      -7.438239      3.465626      0.200695
  H      -3.464876      3.189920      2.030413
  H      -3.440339      4.109488      0.529961
  H      -3.564501      0.808272     -2.536834
  H      -2.168254     -0.160038     -2.087815
  H      -0.764083      1.797358     -1.891869
  H      -1.123421      2.539641      1.762818
  H      -1.216138      4.302081      1.568883
  H      -6.369014      3.587439     -2.255456
  H      -7.828695      2.951467     -2.976878
  H      -6.270152      2.141418     -3.214858
  H      -6.285774      0.134052     -3.479626
  H      -6.759921     -1.291016     -2.516131
  H      -9.059558     -0.460793     -2.875127
  H      -8.390851      0.998249     -3.499540
  H     -10.345182      1.850078     -1.947979
  H     -10.294675      0.243252     -0.490199
  H      -8.855076     -0.709539     -0.237656
48
Coordinates from ORCA-job DienogestGasOptFreq E -982.083422084166
  C      -4.728483      1.383983      0.350687
  C      -5.102984      0.123671     -0.385313
  C      -5.907020      1.965971      1.100467
  C      -3.508715      1.963408      0.245035
  C      -6.425514      0.347364     -1.200270
  C      -3.920773     -0.559716     -1.058653
  C      -6.682251      2.676162     -0.057175
  C      -2.594280      1.550662     -0.817695
  C      -3.121021      3.180449      1.059017
  C      -7.089114      1.759306     -1.232300
  C      -3.045214      0.468244     -1.765851
  C      -1.423965      2.202151     -1.041580
  C      -1.604520      3.351209      1.179434
  C      -0.929490      3.264162     -0.171796
  O      -0.005724      4.000632     -0.495208
  H      -5.425481     -0.534059      0.436981
  C      -6.747604      2.530910     -2.569339
  C      -6.894150     -0.311750     -2.509573
  C      -8.349692      0.289347     -2.601460
  C      -8.532738      1.264763     -1.388956
  O      -9.375238      2.380341     -1.647573
  H      -7.107447     -0.187611     -0.533674
  C      -9.185016      0.476108     -0.211538
  C      -9.045386      1.072213      1.108399
  N      -8.927571      1.507389      2.172294
  H      -5.615584      2.749896      1.803194
  H      -6.464424      1.197944      1.646224
  H      -4.263853     -1.326740     -1.763154
  H      -3.323314     -1.065387     -0.289578
  H      -5.848437      3.253931     -0.461340
  H      -7.459586      3.397639      0.215842
  H      -3.555967      3.118911      2.061344
  H      -3.546102      4.079538      0.584598
  H      -3.614958      0.939022     -2.583333
  H      -2.170257     -0.002998     -2.227069
  H      -0.809288      1.956486     -1.905145
  H      -1.198435      2.534225      1.794296
  H      -1.337550      4.297347      1.658327
  H      -6.173111      3.439855     -2.389631
  H      -7.635592      2.849843     -3.116015
  H      -6.134392      1.916517     -3.233354
  H      -6.346634     -0.051569     -3.418116
  H      -6.909562     -1.401259     -2.401482
  H      -9.133827     -0.470781     -2.702474
  H      -8.428469      0.894461     -3.512658
  H     -10.247453      2.069850     -1.917835
  H     -10.264075      0.438163     -0.418791
  H      -8.862405     -0.568292     -0.154849
48
Coordinates from ORCA-job DienogestGasOptFreq E -982.097332771022
  C      -4.706471      1.324972      0.369183
  C      -5.062622      0.072160     -0.385608
  C      -5.892743      1.876060      1.123569
  C      -3.509973      1.948925      0.241767
  C      -6.431938      0.290766     -1.107980
  C      -3.897231     -0.519493     -1.166229
  C      -6.656244      2.634703     -0.013092
  C      -2.622983      1.609075     -0.862718
  C      -3.133095      3.156367      1.074125
  C      -7.054423      1.719613     -1.195999
  C      -3.094159      0.576868     -1.854488
  C      -1.468358      2.288992     -1.090083
  C      -1.615685      3.347782      1.175290
  C      -0.955928      3.311716     -0.187436
  O      -0.032026      4.055869     -0.494155
  H      -5.299941     -0.642190      0.417123
  C      -6.595935      2.448576     -2.524680
  C      -6.923847     -0.405294     -2.390331
  C      -8.351867      0.250197     -2.566832
  C      -8.528317      1.285440     -1.410108
  O      -9.300833      2.441553     -1.732709
  H      -7.093313     -0.184041     -0.376774
  C      -9.276509      0.571405     -0.240099
  C      -9.213469      1.233061      1.051278
  N      -9.164012      1.719899      2.097860
  H      -5.605451      2.622151      1.867421
  H      -6.468765      1.089668      1.621552
  H      -4.254932     -1.256487     -1.894003
  H      -3.243039     -1.049267     -0.463468
  H      -5.837578      3.246773     -0.394632
  H      -7.451822      3.322833      0.287421
  H      -3.550377      3.066689      2.080689
  H      -3.577291      4.058653      0.625864
  H      -3.722591      1.080420     -2.605467
  H      -2.234483      0.162811     -2.390309
  H      -0.878569      2.095044     -1.983767
  H      -1.188506      2.521591      1.761454
  H      -1.355144      4.283012      1.676605
  H      -5.993725      3.330419     -2.306987
  H      -7.441548      2.798247     -3.116666
  H      -5.985731      1.800982     -3.156186
  H      -6.327044     -0.213291     -3.284346
  H      -6.986075     -1.487734     -2.249044
  H      -9.149323     -0.500581     -2.594825
  H      -8.402210      0.787738     -3.517804
  H     -10.173055      2.172184     -2.037879
  H     -10.336606      0.540299     -0.527625
  H      -8.976883     -0.473227     -0.115512
48
Coordinates from ORCA-job DienogestGasOptFreq E -982.107404113251
  C      -4.697701      1.283075      0.375572
  C      -5.039777      0.040357     -0.402072
  C      -5.885862      1.821777      1.130182
  C      -3.520060      1.940893      0.236112
  C      -6.449896      0.251045     -1.025799
  C      -3.899085     -0.463632     -1.282377
  C      -6.644777      2.612143      0.013586
  C      -2.651040      1.659895     -0.899238
  C      -3.152640      3.134746      1.090492
  C      -7.013246      1.689939     -1.177728
  C      -3.148954      0.688185     -1.936669
  C      -1.500689      2.351754     -1.111553
  C      -1.634920      3.321475      1.198251
  C      -0.969578      3.322595     -0.163106
  O      -0.027955      4.057841     -0.434761
  H      -5.195926     -0.728863      0.371317
  C      -6.510780      2.352179     -2.511307
  C      -6.950780     -0.479861     -2.278306
  C      -8.340684      0.213813     -2.533447
  C      -8.498880      1.300022     -1.428446
  O      -9.219256      2.466952     -1.819495
  H      -7.094005     -0.163730     -0.238961
  C      -9.292974      0.658210     -0.246639
  C      -9.271615      1.390922      1.007613
  N      -9.259904      1.935561      2.026393
  H      -5.603561      2.530603      1.912140
  H      -6.484220      1.026382      1.583636
  H      -4.275836     -1.165301     -2.035680
  H      -3.198196     -1.020728     -0.648559
  H      -5.862029      3.284010     -0.344756
  H      -7.475294      3.238696      0.349720
  H      -3.570894      3.026395      2.095489
  H      -3.595644      4.045306      0.657553
  H      -3.819828      1.229003     -2.620996
  H      -2.309219      0.323574     -2.536919
  H      -0.928405      2.206722     -2.025459
  H      -1.209507      2.479590      1.763854
  H      -1.374586      4.242244      1.726794
  H      -5.871017      3.211784     -2.304416
  H      -7.338962      2.721999     -3.119262
  H      -5.932102      1.657533     -3.123980
  H      -6.305012     -0.348125     -3.151236
  H      -7.056282     -1.555579     -2.107014
  H      -9.157979     -0.515817     -2.509057
  H      -8.359424      0.695136     -3.513876
  H     -10.089394      2.212222     -2.145772
  H     -10.340272      0.605992     -0.574264
  H      -8.994025     -0.377024     -0.054195
48
Coordinates from ORCA-job DienogestGasOptFreq E -982.113864499891
  C      -4.685061      1.277996      0.350600
  C      -5.014804      0.043132     -0.446638
  C      -5.875085      1.809709      1.112710
  C      -3.518135      1.956487      0.212339
  C      -6.461372      0.222567     -0.976054
  C      -3.897004     -0.391287     -1.399467
  C      -6.661694      2.591532      0.016399
  C      -2.642815      1.704475     -0.926344
  C      -3.156958      3.136573      1.087124
  C      -6.998229      1.662524     -1.184047
  C      -3.160126      0.793775     -2.007528
  C      -1.476372      2.379732     -1.098234
  C      -1.639171      3.281545      1.242049
  C      -0.931662      3.290796     -0.098337
  O       0.056718      3.982153     -0.311528
  H      -5.099913     -0.764517      0.300536
  C      -6.471081      2.298203     -2.511951
  C      -6.993963     -0.552870     -2.185084
  C      -8.357685      0.156346     -2.492821
  C      -8.497928      1.290404     -1.437012
  O      -9.193845      2.446170     -1.891659
  H      -7.058643     -0.139428     -0.131496
  C      -9.309757      0.714974     -0.231198
  C      -9.325406      1.515820      0.981159
  N      -9.346439      2.115560      1.968328
  H      -5.599803      2.496763      1.915960
  H      -6.478595      1.007406      1.548462
  H      -4.288998     -1.057306     -2.176596
  H      -3.173615     -0.979546     -0.820845
  H      -5.944515      3.338911     -0.332505
  H      -7.533037      3.129517      0.396845
  H      -3.606922      3.030365      2.078759
  H      -3.564197      4.061043      0.647977
  H      -3.839809      1.374611     -2.645306
  H      -2.333153      0.459139     -2.642605
  H      -0.899395      2.264145     -2.013143
  H      -1.252188      2.418460      1.804182
  H      -1.370898      4.185300      1.796221
  H      -5.784494      3.121987     -2.305088
  H      -7.287964      2.712080     -3.106801
  H      -5.943401      1.576758     -3.139709
  H      -6.324603     -0.479130     -3.047485
  H      -7.123371     -1.619658     -1.972841
  H      -9.195125     -0.548754     -2.433874
  H      -8.358928      0.596164     -3.493306
  H     -10.061036      2.182441     -2.220556
  H     -10.348637      0.619218     -0.575134
  H      -8.993558     -0.300373      0.028901
48
Coordinates from ORCA-job DienogestGasOptFreq E -982.118007867226
  C      -4.670886      1.318274      0.322503
  C      -5.003162      0.079387     -0.473268
  C      -5.850248      1.863033      1.096113
  C      -3.503620      1.996118      0.181000
  C      -6.478878      0.220664     -0.930481
  C      -3.911481     -0.316144     -1.479930
  C      -6.699009      2.596178      0.021470
  C      -2.617314      1.734301     -0.946673
  C      -3.129682      3.172294      1.054596
  C      -7.015006      1.652238     -1.176020
  C      -3.160742      0.876816     -2.055818
  C      -1.417219      2.357053     -1.075477
  C      -1.614964      3.240325      1.274092
  C      -0.848994      3.206204     -0.033734
  O       0.198031      3.821718     -0.190758
  H      -5.031900     -0.743645      0.262175
  C      -6.475803      2.262315     -2.498403
  C      -7.020325     -0.584092     -2.116521
  C      -8.365925      0.121039     -2.467491
  C      -8.513805      1.276789     -1.440039
  O      -9.206309      2.418374     -1.927231
  H      -7.037255     -0.119463     -0.052309
  C      -9.329193      0.699894     -0.237874
  C      -9.431863      1.507506      0.966605
  N      -9.527062      2.108249      1.949050
  H      -5.566648      2.560443      1.886173
  H      -6.434344      1.064123      1.566878
  H      -4.327977     -0.947200     -2.272818
  H      -3.182366     -0.939934     -0.946936
  H      -6.073427      3.417397     -0.337910
  H      -7.599417      3.042692      0.445880
  H      -3.627913      3.107727      2.026027
  H      -3.467740      4.107689      0.581228
  H      -3.832570      1.496152     -2.663177
  H      -2.347399      0.548050     -2.711486
  H      -0.825009      2.237641     -1.979977
  H      -1.295376      2.362430      1.855772
  H      -1.323576      4.132656      1.835608
  H      -5.711882      3.017395     -2.301067
  H      -7.273648      2.753587     -3.059902
  H      -6.038313      1.506647     -3.157119
  H      -6.334480     -0.538597     -2.968291
  H      -7.155329     -1.644968     -1.878148
  H      -9.215991     -0.569999     -2.413459
  H      -8.342725      0.545902     -3.474680
  H     -10.066160      2.141433     -2.265672
  H     -10.350549      0.538381     -0.608987
  H      -8.967216     -0.293162      0.049847
48
Coordinates from ORCA-job DienogestGasOptFreq E -982.121671010409
  C      -4.663520      1.357618      0.289475
  C      -4.990154      0.107778     -0.500568
  C      -5.835803      1.889100      1.084897
  C      -3.500240      2.041993      0.144680
  C      -6.485926      0.206904     -0.907896
  C      -3.917289     -0.255858     -1.543680
  C      -6.757002      2.566711      0.040583
  C      -2.599788      1.765386     -0.968116
  C      -3.114418      3.220643      1.009899
  C      -7.034020      1.627508     -1.168336
  C      -3.157721      0.943433     -2.095221
  C      -1.371715      2.337081     -1.058103
  C      -1.607852      3.222701      1.289404
  C      -0.790920      3.137568      0.014787
  O       0.307455      3.669184     -0.088568
  H      -4.972012     -0.719294      0.229243
  C      -6.447355      2.238703     -2.463128
  C      -7.048536     -0.624348     -2.071146
  C      -8.376892      0.089375     -2.452216
  C      -8.528601      1.260320     -1.441175
  O      -9.211202      2.397586     -1.945948
  H      -7.005160     -0.124833     -0.004615
  C      -9.349446      0.697262     -0.242115
  C      -9.501948      1.522364      0.944275
  N      -9.642200      2.132660      1.915585
  H      -5.551056      2.605046      1.856098
  H      -6.377110      1.083416      1.597297
  H      -4.350787     -0.857048     -2.349685
  H      -3.185022     -0.905586     -1.047580
  H      -6.234863      3.457817     -0.316969
  H      -7.681568      2.914200      0.505977
  H      -3.654384      3.206141      1.959377
  H      -3.385094      4.157226      0.498111
  H      -3.823925      1.587006     -2.683945
  H      -2.352829      0.618845     -2.762744
  H      -0.759930      2.202290     -1.947310
  H      -1.350511      2.339937      1.893956
  H      -1.296205      4.108459      1.850131
  H      -5.594277      2.882432     -2.239685
  H      -7.192229      2.850206     -2.977951
  H      -6.114952      1.474852     -3.172874
  H      -6.359783     -0.614222     -2.920541
  H      -7.195458     -1.676137     -1.802557
  H      -9.242994     -0.582225     -2.418096
  H      -8.327261      0.511614     -3.460551
  H     -10.068475      2.119969     -2.289199
  H     -10.359424      0.496829     -0.626239
  H      -8.962267     -0.276701      0.076338
48
Coordinates from ORCA-job DienogestGasOptFreq E -982.124674168060
  C      -4.651047      1.413916      0.266194
  C      -4.985609      0.146929     -0.498859
  C      -5.808464      1.933616      1.085076
  C      -3.487891      2.092907      0.105405
  C      -6.494494      0.209692     -0.886139
  C      -3.928018     -0.227242     -1.558117
  C      -6.813389      2.544581      0.085514
  C      -2.575852      1.772884     -0.988729
  C      -3.079725      3.285099      0.940941
  C      -7.069051      1.623446     -1.137130
  C      -3.142540      0.953718     -2.113191
  C      -1.320703      2.284605     -1.051684
  C      -1.584964      3.224939      1.274097
  C      -0.726763      3.056570      0.034923
  O       0.410705      3.505778     -0.030450
  H      -4.942396     -0.664186      0.246033
  C      -6.461210      2.274089     -2.396676
  C      -7.048054     -0.631667     -2.052804
  C      -8.362529      0.081706     -2.464615
  C      -8.552154      1.242701     -1.446786
  O      -9.238246      2.374231     -1.957400
  H      -6.992515     -0.143929      0.022663
  C      -9.383083      0.649438     -0.270674
  C      -9.617760      1.464879      0.909276
  N      -9.828807      2.059250      1.877902
  H      -5.519240      2.681942      1.822868
  H      -6.289085      1.123810      1.652878
  H      -4.380351     -0.812262     -2.365585
  H      -3.205037     -0.898004     -1.077038
  H      -6.404030      3.495575     -0.268678
  H      -7.741170      2.795954      0.602423
  H      -3.653324      3.341505      1.868164
  H      -3.281152      4.209044      0.377648
  H      -3.791842      1.603730     -2.712768
  H      -2.341227      0.605042     -2.772814
  H      -0.690108      2.107903     -1.920206
  H      -1.389892      2.354212      1.917973
  H      -1.248073      4.114580      1.813892
  H      -5.522234      2.775002     -2.152549
  H      -7.142772      3.024737     -2.807276
  H      -6.260680      1.550967     -3.193640
  H      -6.351109     -0.634631     -2.895210
  H      -7.200494     -1.679411     -1.772389
  H      -9.231882     -0.585939     -2.478823
  H      -8.277301      0.523477     -3.462805
  H     -10.085742      2.089764     -2.318797
  H     -10.371002      0.401074     -0.683664
  H      -8.960365     -0.304109      0.064983
48
Coordinates from ORCA-job DienogestGasOptFreq E -982.126563485655
  C      -4.643554      1.447521      0.246862
  C      -4.978448      0.167430     -0.495613
  C      -5.788345      1.936880      1.092094
  C      -3.484635      2.126467      0.070822
  C      -6.495064      0.208051     -0.873420
  C      -3.930926     -0.223462     -1.559805
  C      -6.861938      2.507068      0.140873
  C      -2.566986      1.777338     -1.011860
  C      -3.066193      3.332983      0.878340
  C      -7.086072      1.613634     -1.100829
  C      -3.133672      0.945297     -2.126059
  C      -1.299175      2.256612     -1.061977
  C      -1.579928      3.246931      1.243204
  C      -0.700713      3.021085      0.027457
  O       0.457456      3.417032     -0.014444
  H      -4.919255     -0.625133      0.266876
  C      -6.440186      2.296795     -2.316873
  C      -7.040595     -0.630979     -2.049853
  C      -8.349899      0.085910     -2.473589
  C      -8.556147      1.233715     -1.446474
  O      -9.227543      2.371540     -1.960930
  H      -6.985967     -0.171172      0.031641
  C      -9.415777      0.627137     -0.298279
  C      -9.722654      1.450498      0.860324
  N      -9.997469      2.043044      1.814028
  H      -5.498023      2.704330      1.810784
  H      -6.212041      1.112323      1.684739
  H      -4.394161     -0.799268     -2.367115
  H      -3.213689     -0.903528     -1.083629
  H      -6.540477      3.499964     -0.192348
  H      -7.784997      2.674829      0.699050
  H      -3.659513      3.441073      1.788329
  H      -3.227108      4.238984      0.274698
  H      -3.777049      1.586887     -2.742004
  H      -2.331977      0.579154     -2.775499
  H      -0.656796      2.048114     -1.914713
  H      -1.416085      2.393804      1.918440
  H      -1.230999      4.145428      1.760445
  H      -5.439925      2.645191     -2.050859
  H      -7.032288      3.165225     -2.618703
  H      -6.350902      1.638336     -3.186611
  H      -6.342318     -0.641574     -2.891225
  H      -7.199420     -1.675890     -1.764156
  H      -9.218424     -0.581434     -2.516244
  H      -8.248262      0.540550     -3.463697
  H     -10.072042      2.097308     -2.336934
  H     -10.380910      0.351024     -0.746183
  H      -8.981580     -0.311137      0.064280
48
Coordinates from ORCA-job DienogestGasOptFreq E -982.127520220164
  C      -4.633452      1.473211      0.229782
  C      -4.972843      0.183853     -0.489723
  C      -5.765521      1.937303      1.098909
  C      -3.473410      2.143888      0.042374
  C      -6.490118      0.212463     -0.879743
  C      -3.926015     -0.244657     -1.539430
  C      -6.902404      2.476361      0.198209
  C      -2.551055      1.762127     -1.026079
  C      -3.049541      3.364388      0.823263
  C      -7.110151      1.614711     -1.067821
  C      -3.109489      0.903680     -2.124021
  C      -1.275039      2.219527     -1.068074
  C      -1.570011      3.268446      1.211923
  C      -0.677268      2.993932      0.015332
  O       0.490301      3.361799     -0.015582
  H      -4.918338     -0.584823      0.297137
  C      -6.466652      2.360265     -2.249593
  C      -7.009669     -0.608701     -2.079855
  C      -8.334470      0.090474     -2.488875
  C      -8.570941      1.217716     -1.445512
  O      -9.246261      2.355058     -1.960928
  H      -6.984172     -0.206294      0.007044
  C      -9.442452      0.601524     -0.311337
  C      -9.815825      1.457657      0.804134
  N     -10.145429      2.072797      1.725654
  H      -5.471898      2.719072      1.802250
  H      -6.138675      1.098551      1.704182
  H      -4.392484     -0.822806     -2.342726
  H      -3.221937     -0.927340     -1.047900
  H      -6.646725      3.495804     -0.113137
  H      -7.810281      2.574738      0.796680
  H      -3.657903      3.511480      1.718129
  H      -3.184485      4.252495      0.187314
  H      -3.739487      1.527867     -2.771193
  H      -2.301005      0.512298     -2.750059
  H      -0.622482      1.978912     -1.904521
  H      -1.425442      2.435554      1.916219
  H      -1.215679      4.178495      1.705174
  H      -5.451299      2.644582     -1.967188
  H      -7.027984      3.273962     -2.460916
  H      -6.413488      1.770619     -3.169471
  H      -6.312790     -0.592694     -2.922394
  H      -7.151999     -1.660607     -1.811301
  H      -9.185330     -0.597950     -2.545691
  H      -8.242169      0.560720     -3.471889
  H     -10.089459      2.079403     -2.339758
  H     -10.382906      0.280377     -0.780382
  H      -8.986538     -0.308325      0.094750
48
Coordinates from ORCA-job DienogestGasOptFreq E -982.128268344644
  C      -4.628127      1.462590      0.238050
  C      -4.968291      0.168911     -0.471133
  C      -5.747276      1.908176      1.129951
  C      -3.474356      2.138154      0.034101
  C      -6.484667      0.198898     -0.863983
  C      -3.926571     -0.269442     -1.520101
  C      -6.919743      2.439708      0.263015
  C      -2.564618      1.755130     -1.043258
  C      -3.052281      3.369111      0.797847
  C      -7.101708      1.605675     -1.027380
  C      -3.129528      0.883440     -2.125766
  C      -1.292388      2.221189     -1.102940
  C      -1.568491      3.290892      1.172173
  C      -0.687400      3.007578     -0.031480
  O       0.478286      3.379302     -0.077053
  H      -4.913230     -0.591010      0.324724
  C      -6.439005      2.375865     -2.187370
  C      -6.978305     -0.591773     -2.091621
  C      -8.308078      0.102029     -2.493770
  C      -8.555937      1.218776     -1.444371
  O      -9.208284      2.366133     -1.970797
  H      -6.991774     -0.244543      0.003531
  C      -9.461841      0.612582     -0.332571
  C      -9.917468      1.509552      0.719123
  N     -10.314304      2.157008      1.590563
  H      -5.447385      2.689063      1.831902
  H      -6.094773      1.055309      1.730241
  H      -4.394821     -0.856129     -2.315758
  H      -3.212608     -0.939731     -1.026034
  H      -6.704061      3.476714     -0.017648
  H      -7.818510      2.482427      0.880429
  H      -3.655831      3.523818      1.694879
  H      -3.199716      4.248124      0.151466
  H      -3.777675      1.493525     -2.770324
  H      -2.325753      0.495778     -2.760411
  H      -0.646570      1.977379     -1.943649
  H      -1.407149      2.470254      1.887275
  H      -1.217317      4.211534      1.648134
  H      -5.408675      2.601441     -1.901085
  H      -6.960026      3.321770     -2.351627
  H      -6.417775      1.823518     -3.130797
  H      -6.273379     -0.546926     -2.926310
  H      -7.114582     -1.651389     -1.850502
  H      -9.149473     -0.597757     -2.554506
  H      -8.219780      0.575446     -3.475458
  H     -10.053371      2.103840     -2.355526
  H     -10.367786      0.245031     -0.834399
  H      -9.000269     -0.265063      0.133582
48
Coordinates from ORCA-job DienogestGasOptFreq E -982.129221138696
  C      -4.619638      1.425479      0.259422
  C      -4.961132      0.132121     -0.446848
  C      -5.729453      1.856578      1.170376
  C      -3.474721      2.111488      0.037911
  C      -6.472192      0.178236     -0.860529
  C      -3.912572     -0.317474     -1.480858
  C      -6.932673      2.386373      0.332971
  C      -2.583477      1.739266     -1.057251
  C      -3.063394      3.353103      0.789648
  C      -7.087129      1.591700     -0.986913
  C      -3.149977      0.843124     -2.117793
  C      -1.325569      2.238647     -1.151919
  C      -1.568855      3.319741      1.123058
  C      -0.715296      3.052815     -0.104050
  O       0.437691      3.456538     -0.184774
  H      -4.921169     -0.621887      0.356081
  C      -6.417457      2.399683     -2.119685
  C      -6.936197     -0.563190     -2.123979
  C      -8.281269      0.115714     -2.499140
  C      -8.535279      1.223347     -1.443703
  O      -9.157108      2.383534     -1.985194
  H      -7.000302     -0.293413     -0.021389
  C      -9.475831      0.647064     -0.346860
  C     -10.009032      1.610169      0.604880
  N     -10.467313      2.316651      1.396193
  H      -5.424015      2.631060      1.876401
  H      -6.058823      0.988995      1.758676
  H      -4.368008     -0.933200     -2.260951
  H      -3.181890     -0.955085     -0.969020
  H      -6.750762      3.438347      0.090578
  H      -7.825995      2.368196      0.959719
  H      -3.648652      3.492004      1.701304
  H      -3.254682      4.227498      0.147988
  H      -3.825799      1.428395     -2.757404
  H      -2.349962      0.465601     -2.763358
  H      -0.694109      2.004005     -2.005962
  H      -1.362868      2.510059      1.839106
  H      -1.232058      4.253712      1.582995
  H      -5.385220      2.613681     -1.829533
  H      -6.933691      3.351527     -2.255994
  H      -6.400568      1.874704     -3.078160
  H      -6.226228     -0.462036     -2.948736
  H      -7.051586     -1.635668     -1.933504
  H      -9.107411     -0.602820     -2.549408
  H      -8.215639      0.590980     -3.481775
  H     -10.009346      2.138827     -2.365664
  H     -10.343303      0.217275     -0.866998
  H      -9.012713     -0.179553      0.203404
48
Coordinates from ORCA-job DienogestGasOptFreq E -982.130059595347
  C      -4.611660      1.375476      0.293813
  C      -4.957183      0.084181     -0.411475
  C      -5.715733      1.796102      1.220475
  C      -3.479402      2.076351      0.048011
  C      -6.458345      0.152134     -0.855669
  C      -3.898385     -0.374655     -1.425746
  C      -6.942873      2.317246      0.405303
  C      -2.613810      1.719379     -1.072413
  C      -3.079157      3.330125      0.785827
  C      -7.068730      1.572883     -0.945082
  C      -3.182858      0.791744     -2.105076
  C      -1.378349      2.262901     -1.215895
  C      -1.572918      3.351688      1.059918
  C      -0.759458      3.108582     -0.198778
  O       0.371213      3.559508     -0.330512
  H      -4.940791     -0.667733      0.394216
  C      -6.385521      2.426041     -2.032818
  C      -6.885435     -0.526783     -2.161423
  C      -8.245743      0.132653     -2.511096
  C      -8.509808      1.234947     -1.451321
  O      -9.091443      2.410322     -2.012210
  H      -7.011706     -0.347458     -0.049451
  C      -9.482849      0.695438     -0.365387
  C     -10.083734      1.723840      0.470326
  N     -10.593616      2.494067      1.164293
  H      -5.409893      2.563017      1.933368
  H      -6.031400      0.916749      1.798804
  H      -4.334230     -1.036788     -2.178916
  H      -3.144991     -0.963743     -0.889495
  H      -6.807955      3.385326      0.210448
  H      -7.832680      2.223265      1.031152
  H      -3.633008      3.445497      1.719818
  H      -3.329225      4.199112      0.157061
  H      -3.893223      1.346248     -2.734210
  H      -2.389714      0.426669     -2.765834
  H      -0.770135      2.043364     -2.090572
  H      -1.309376      2.553807      1.770061
  H      -1.252091      4.298836      1.503384
  H      -5.356282      2.639213     -1.733395
  H      -6.909257      3.376944     -2.141846
  H      -6.366414      1.935603     -3.009826
  H      -6.164088     -0.352108     -2.964055
  H      -6.970357     -1.611999     -2.040134
  H      -9.056175     -0.603905     -2.549962
  H      -8.204181      0.611724     -3.493594
  H      -9.952739      2.187454     -2.385097
  H     -10.310141      0.191955     -0.884535
  H      -9.016820     -0.063309      0.272908
48
Coordinates from ORCA-job DienogestGasOptFreq E -982.130483088151
  C      -4.611067      1.356002      0.308536
  C      -4.958839      0.065794     -0.398785
  C      -5.715645      1.782329      1.234880
  C      -3.482709      2.061434      0.055721
  C      -6.452715      0.145524     -0.863990
  C      -3.890332     -0.394754     -1.399667
  C      -6.946737      2.292590      0.419402
  C      -2.624669      1.711357     -1.073904
  C      -3.085941      3.316350      0.794119
  C      -7.057698      1.569035     -0.941645
  C      -3.192011      0.770136     -2.096647
  C      -1.400341      2.274196     -1.236940
  C      -1.575485      3.359409      1.040272
  C      -0.781021      3.134743     -0.233298
  O       0.341495      3.600831     -0.382410
  H      -4.959002     -0.690136      0.402968
  C      -6.373092      2.437690     -2.014187
  C      -6.871361     -0.513174     -2.182899
  C      -8.241241      0.132436     -2.516272
  C      -8.498036      1.243041     -1.459401
  O      -9.063966      2.420193     -2.031858
  H      -7.016959     -0.361736     -0.069341
  C      -9.477282      0.718520     -0.369533
  C     -10.083650      1.761572      0.443588
  N     -10.595029      2.551638      1.113614
  H      -5.411135      2.549745      1.947730
  H      -6.028568      0.906383      1.819971
  H      -4.312563     -1.084478     -2.136820
  H      -3.129290     -0.958419     -0.846422
  H      -6.842400      3.367927      0.245229
  H      -7.839026      2.161146      1.036642
  H      -3.621798      3.413871      1.740802
  H      -3.363879      4.186694      0.179106
  H      -3.912878      1.314348     -2.722463
  H      -2.399972      0.408851     -2.760558
  H      -0.801821      2.061643     -2.120063
  H      -1.288332      2.560930      1.740603
  H      -1.260197      4.308322      1.483719
  H      -5.348732      2.667552     -1.714764
  H      -6.912857      3.380154     -2.123708
  H      -6.348770      1.954555     -2.995399
  H      -6.149253     -0.303539     -2.977209
  H      -6.935711     -1.602686     -2.092193
  H      -9.046603     -0.610373     -2.533675
  H      -8.221958      0.606080     -3.502257
  H      -9.932776      2.205433     -2.392004
  H     -10.298317      0.190448     -0.873866
  H      -9.002501     -0.017694      0.288636
48
Coordinates from ORCA-job DienogestGasOptFreq E -982.130756458592
  C      -4.610532      1.352408      0.317772
  C      -4.963336      0.060542     -0.383358
  C      -5.713087      1.780251      1.244973
  C      -3.484347      2.056953      0.055961
  C      -6.451839      0.143338     -0.866632
  C      -3.891370     -0.407751     -1.375661
  C      -6.957597      2.265675      0.438504
  C      -2.631706      1.702869     -1.077629
  C      -3.084946      3.316078      0.785669
  C      -7.057486      1.568047     -0.933608
  C      -3.200774      0.749582     -2.090010
  C      -1.411604      2.270200     -1.253950
  C      -1.572520      3.364761      1.018576
  C      -0.785861      3.135445     -0.258628
  O       0.328193      3.616039     -0.425059
  H      -4.975142     -0.694168      0.418745
  C      -6.362899      2.457229     -1.981242
  C      -6.853657     -0.496385     -2.200917
  C      -8.232611      0.131577     -2.524111
  C      -8.493463      1.249089     -1.470148
  O      -9.048121      2.425489     -2.052486
  H      -7.025496     -0.377854     -0.086194
  C      -9.478122      0.727421     -0.383610
  C     -10.097272      1.774192      0.414770
  N     -10.616349      2.574799      1.066203
  H      -5.411449      2.556302      1.950131
  H      -6.009891      0.909019      1.846672
  H      -4.308283     -1.118636     -2.096481
  H      -3.126834     -0.954587     -0.809527
  H      -6.904403      3.348733      0.288669
  H      -7.841708      2.084121      1.055355
  H      -3.610568      3.413523      1.738236
  H      -3.373136      4.183369      0.171117
  H      -3.925702      1.287456     -2.716658
  H      -2.410017      0.384700     -2.753230
  H      -0.819900      2.055967     -2.141340
  H      -1.278019      2.569718      1.719721
  H      -1.255293      4.316108      1.455552
  H      -5.335866      2.669147     -1.681666
  H      -6.896777      3.406263     -2.061701
  H      -6.352449      2.005615     -2.978001
  H      -6.129719     -0.249782     -2.983737
  H      -6.893824     -1.588824     -2.139132
  H      -9.031524     -0.617938     -2.525447
  H      -8.230998      0.600839     -3.512465
  H      -9.923420      2.217209     -2.400815
  H     -10.289384      0.176539     -0.878451
  H      -8.991562      0.011225      0.288629
48
Coordinates from ORCA-job DienogestGasOptFreq E -982.130886569681
  C      -4.612015      1.358491      0.320643
  C      -4.968218      0.065450     -0.375658
  C      -5.711951      1.790982      1.246499
  C      -3.483902      2.057962      0.056724
  C      -6.453408      0.147864     -0.870290
  C      -3.895142     -0.410089     -1.363717
  C      -6.964676      2.258989      0.444269
  C      -2.632370      1.698675     -1.076488
  C      -3.080207      3.317266      0.784050
  C      -7.061359      1.571885     -0.932640
  C      -3.203284      0.741033     -2.084692
  C      -1.412057      2.263364     -1.257425
  C      -1.566890      3.364097      1.011259
  C      -0.785735      3.136383     -0.269294
  O       0.333733      3.604631     -0.434198
  H      -4.986310     -0.687712      0.427456
  C      -6.365644      2.468191     -1.974617
  C      -6.841876     -0.484691     -2.211951
  C      -8.229602      0.126021     -2.526741
  C      -8.493667      1.249414     -1.475798
  O      -9.047183      2.422479     -2.062193
  H      -7.033450     -0.383113     -0.100390
  C      -9.482099      0.723314     -0.394444
  C     -10.095389      1.763631      0.417066
  N     -10.607858      2.564457      1.073601
  H      -5.409987      2.578089      1.939858
  H      -5.996944      0.927496      1.865187
  H      -4.312849     -1.127870     -2.077513
  H      -3.131699     -0.953002     -0.791708
  H      -6.936069      3.344233      0.303057
  H      -7.843497      2.058119      1.063030
  H      -3.600459      3.414379      1.739770
  H      -3.370624      4.184674      0.170734
  H      -3.926619      1.278603     -2.713928
  H      -2.412539      0.371676     -2.745366
  H      -0.821626      2.043085     -2.144229
  H      -1.271970      2.566632      1.709767
  H      -1.246815      4.314339      1.448608
  H      -5.337187      2.673371     -1.676138
  H      -6.896862      3.419692     -2.044334
  H      -6.360334      2.027722     -2.976444
  H      -6.121395     -0.213335     -2.990251
  H      -6.862609     -1.578230     -2.164269
  H      -9.021936     -0.630137     -2.512731
  H      -8.243393      0.587781     -3.518407
  H      -9.926517      2.216699     -2.401830
  H     -10.295790      0.178050     -0.890863
  H      -8.994390      0.000870      0.270329
48
Coordinates from ORCA-job DienogestGasOptFreq E -982.130974518992
  C      -4.613825      1.363480      0.320679
  C      -4.971516      0.069748     -0.372380
  C      -5.710372      1.799421      1.246845
  C      -3.482338      2.057469      0.057587
  C      -6.454312      0.152100     -0.874857
  C      -3.897241     -0.412345     -1.357098
  C      -6.971870      2.253018      0.449225
  C      -2.631077      1.694507     -1.074251
  C      -3.076427      3.318098      0.781520
  C      -7.064861      1.574375     -0.932403
  C      -3.203438      0.735492     -2.080445
  C      -1.410212      2.257136     -1.256930
  C      -1.563139      3.362088      1.009816
  C      -0.781426      3.129640     -0.269405
  O       0.331805      3.609473     -0.442249
  H      -4.993514     -0.681548      0.432487
  C      -6.367854      2.473383     -1.972364
  C      -6.831903     -0.474970     -2.221033
  C      -8.228623      0.119256     -2.525618
  C      -8.493881      1.248405     -1.478069
  O      -9.045960      2.419041     -2.067784
  H      -7.039439     -0.387113     -0.114346
  C      -9.488775      0.721465     -0.402826
  C     -10.090107      1.757223      0.423891
  N     -10.591633      2.559084      1.087652
  H      -5.406905      2.597699      1.927041
  H      -5.984550      0.942905      1.879728
  H      -4.316604     -1.131298     -2.068531
  H      -3.135516     -0.954759     -0.782118
  H      -6.958326      3.339398      0.314474
  H      -7.846236      2.040133      1.070414
  H      -3.596162      3.418780      1.737269
  H      -3.364823      4.184227      0.165363
  H      -3.924987      1.274016     -2.711346
  H      -2.412612      0.363436     -2.739652
  H      -0.821081      2.035060     -2.144131
  H      -1.270687      2.565048      1.709823
  H      -1.241426      4.312438      1.445981
  H      -5.337809      2.672357     -1.673876
  H      -6.893854      3.428184     -2.036613
  H      -6.364713      2.037643     -2.975991
  H      -6.117741     -0.183142     -2.997727
  H      -6.836438     -1.569072     -2.183591
  H      -9.013359     -0.644296     -2.493694
  H      -8.259234      0.570385     -3.521824
  H      -9.929463      2.217625     -2.399235
  H     -10.309189      0.193542     -0.906715
  H      -9.009016     -0.016322      0.250663
48
Coordinates from ORCA-job DienogestGasOptFreq E -982.131027674760
  C      -4.613584      1.367105      0.319696
  C      -4.971718      0.072346     -0.369704
  C      -5.707086      1.800959      1.249815
  C      -3.480511      2.058912      0.055516
  C      -6.454114      0.152485     -0.873774
  C      -3.897784     -0.414951     -1.352813
  C      -6.980105      2.241172      0.460595
  C      -2.630664      1.692606     -1.075849
  C      -3.072232      3.320572      0.776950
  C      -7.069204      1.572956     -0.926474
  C      -3.204782      0.731899     -2.079092
  C      -1.409333      2.253650     -1.261048
  C      -1.558594      3.363777      1.003461
  C      -0.779673      3.129899     -0.277247
  O       0.335159      3.605504     -0.450937
  H      -4.993632     -0.675120      0.438987
  C      -6.369557      2.477990     -1.958490
  C      -6.821363     -0.466993     -2.224428
  C      -8.224101      0.114977     -2.523880
  C      -8.495376      1.246542     -1.479605
  O      -9.043331      2.417076     -2.074506
  H      -7.041564     -0.392820     -0.119400
  C      -9.497932      0.722946     -0.411057
  C     -10.100726      1.762192      0.410385
  N     -10.603435      2.569223      1.066874
  H      -5.404146      2.606871      1.920750
  H      -5.970771      0.945692      1.888671
  H      -4.318609     -1.133173     -2.063552
  H      -3.136118     -0.956748     -0.777647
  H      -6.982040      3.328694      0.335147
  H      -7.846908      2.011237      1.085476
  H      -3.590728      3.424258      1.732847
  H      -3.359948      4.185619      0.158996
  H      -3.927298      1.268907     -2.710133
  H      -2.415033      0.358634     -2.739015
  H      -0.821002      2.028228     -2.147895
  H      -1.265809      2.567235      1.703864
  H      -1.236143      4.314459      1.438178
  H      -5.335755      2.661268     -1.661366
  H      -6.884750      3.439401     -2.007040
  H      -6.375345      2.054497     -2.966954
  H      -6.109885     -0.161123     -2.997848
  H      -6.815966     -1.561349     -2.195587
  H      -9.001073     -0.656035     -2.480651
  H      -8.265547      0.558016     -3.523354
  H      -9.928931      2.219890     -2.402486
  H     -10.317718      0.202873     -0.924331
  H      -9.027905     -0.020349      0.243316
48
Coordinates from ORCA-job DienogestGasOptFreq E -982.131053160124
  C      -4.612933      1.369736      0.317673
  C      -4.970996      0.075360     -0.372722
  C      -5.706309      1.805991      1.247542
  C      -3.477667      2.060247      0.056833
  C      -6.454410      0.152592     -0.872134
  C      -3.898411     -0.409685     -1.358785
  C      -6.982031      2.241580      0.458022
  C      -2.627860      1.695475     -1.074438
  C      -3.067630      3.319436      0.781954
  C      -7.071932      1.571928     -0.928649
  C      -3.203951      0.739608     -2.080683
  C      -1.405369      2.255115     -1.257598
  C      -1.553962      3.359190      1.009741
  C      -0.775209      3.128532     -0.271703
  O       0.339611      3.604544     -0.444468
  H      -4.989317     -0.672203      0.436153
  C      -6.374683      2.474981     -1.963301
  C      -6.821932     -0.470510     -2.220325
  C      -8.226817      0.106218     -2.519197
  C      -8.498366      1.243168     -1.481171
  O      -9.045127      2.412366     -2.081246
  H      -7.039843     -0.389101     -0.113704
  C      -9.503162      0.724493     -0.413366
  C     -10.093981      1.764511      0.415450
  N     -10.587769      2.573302      1.076457
  H      -5.403869      2.615636      1.913616
  H      -5.969893      0.952324      1.888378
  H      -4.321226     -1.122562     -2.073591
  H      -3.137193     -0.955750     -0.787491
  H      -6.983571      3.329004      0.331695
  H      -7.847801      2.011138      1.083747
  H      -3.586580      3.422019      1.737616
  H      -3.352905      4.186726      0.166031
  H      -3.926187      1.280015     -2.708986
  H      -2.415551      0.367900     -2.743143
  H      -0.817250      2.031341     -2.144973
  H      -1.263047      2.559747      1.707532
  H      -1.230491      4.307827      1.447995
  H      -5.340388      2.659400     -1.668526
  H      -6.889704      3.436338     -2.014347
  H      -6.381890      2.047599     -2.970029
  H      -6.111782     -0.165404     -2.995090
  H      -6.815124     -1.564818     -2.189425
  H      -9.000337     -0.667794     -2.465133
  H      -8.274903      0.540488     -3.522184
  H      -9.931074      2.215145     -2.408002
  H     -10.329333      0.219761     -0.932214
  H      -9.042514     -0.031045      0.233546
48
Coordinates from ORCA-job DienogestGasOptFreq E -982.131065805000
  C      -4.611784      1.367965      0.317144
  C      -4.969350      0.073242     -0.373382
  C      -5.704046      1.803058      1.249171
  C      -3.476918      2.059597      0.056577
  C      -6.452666      0.150279     -0.872472
  C      -3.895628     -0.411013     -1.358341
  C      -6.984427      2.233161      0.462299
  C      -2.627651      1.696325     -1.075720
  C      -3.067253      3.317924      0.783336
  C      -7.070460      1.569904     -0.927107
  C      -3.202640      0.738933     -2.080984
  C      -1.406311      2.258245     -1.260161
  C      -1.553197      3.359735      1.008364
  C      -0.776498      3.132378     -0.274897
  O       0.336313      3.612330     -0.449994
  H      -4.987508     -0.673819      0.435975
  C      -6.373642      2.476680     -1.958677
  C      -6.820861     -0.470753     -2.221390
  C      -8.228282      0.101719     -2.515683
  C      -8.497291      1.242756     -1.481331
  O      -9.038939      2.411987     -2.086829
  H      -7.038097     -0.391006     -0.113559
  C      -9.507201      0.731914     -0.414894
  C     -10.097934      1.777723      0.406615
  N     -10.592451      2.592077      1.060195
  H      -5.402586      2.614520      1.913235
  H      -5.964401      0.948882      1.890724
  H      -4.316553     -1.124751     -2.073459
  H      -3.133683     -0.955247     -0.786296
  H      -6.994509      3.321299      0.341942
  H      -7.847454      1.990768      1.087367
  H      -3.584632      3.418132      1.740172
  H      -3.354995      4.186041      0.169679
  H      -3.926411      1.277526     -2.709136
  H      -2.414277      0.368021     -2.743942
  H      -0.819003      2.035921     -2.148450
  H      -1.259603      2.559729      1.704389
  H      -1.230626      4.308272      1.447546
  H      -5.338987      2.660674     -1.665452
  H      -6.888692      3.438180     -2.006556
  H      -6.382902      2.052010     -2.966731
  H      -6.112420     -0.161638     -2.996199
  H      -6.811412     -1.565238     -2.194302
  H      -8.998750     -0.674793     -2.452887
  H      -8.284263      0.530383     -3.520646
  H      -9.926064      2.216665     -2.411810
  H     -10.333198      0.228971     -0.936108
  H      -9.052528     -0.023762      0.236027
48
Coordinates from ORCA-job DienogestGasOptFreq E -982.131070113992
  C      -4.611445      1.367312      0.317699
  C      -4.969235      0.072431     -0.372571
  C      -5.703652      1.802582      1.249550
  C      -3.476977      2.059340      0.056980
  C      -6.452457      0.149242     -0.871603
  C      -3.895839     -0.410837     -1.358102
  C      -6.985488      2.229963      0.463233
  C      -2.628299      1.696770     -1.076068
  C      -3.067165      3.317228      0.784220
  C      -7.070495      1.568936     -0.926923
  C      -3.203462      0.739210     -2.081066
  C      -1.407596      2.259700     -1.261618
  C      -1.552859      3.359624      1.007465
  C      -0.777499      3.134068     -0.276889
  O       0.334494      3.615549     -0.453242
  H      -4.986950     -0.674633      0.436693
  C      -6.372000      2.476988     -1.955972
  C      -6.820471     -0.471362     -2.221032
  C      -8.228424      0.099424     -2.514801
  C      -8.496922      1.242975     -1.482933
  O      -9.035735      2.412252     -2.091125
  H      -7.038203     -0.391270     -0.112258
  C      -9.508683      0.735049     -0.416922
  C     -10.096109      1.781985      0.405414
  N     -10.588815      2.597628      1.058756
  H      -5.402917      2.615121      1.912613
  H      -5.962535      0.948980      1.892517
  H      -4.316432     -1.124934     -2.073145
  H      -3.133425     -0.954788     -0.786307
  H      -7.000054      3.318313      0.345558
  H      -7.847572      1.982031      1.087578
  H      -3.583276      3.416170      1.741865
  H      -3.356214      4.185889      0.171938
  H      -3.927888      1.277471     -2.708835
  H      -2.415451      0.368479     -2.744459
  H      -0.821148      2.038224     -2.150705
  H      -1.258053      2.559016      1.702287
  H      -1.230281      4.307884      1.447240
  H      -5.338186      2.662231     -1.660916
  H      -6.888379      3.437735     -2.004487
  H      -6.379316      2.053083     -2.964442
  H      -6.112124     -0.160426     -2.995287
  H      -6.809545     -1.565860     -2.195546
  H      -8.997882     -0.677773     -2.448640
  H      -8.286694      0.525412     -3.520801
  H      -9.922722      2.217298     -2.416700
  H     -10.336098      0.234664     -0.938330
  H      -9.056194     -0.022461      0.233476
48
Coordinates from ORCA-job DienogestGasOptFreq E -982.131072053344
  C      -4.610983      1.367862      0.317265
  C      -4.968923      0.072923     -0.373072
  C      -5.703075      1.803007      1.249015
  C      -3.476432      2.059709      0.057004
  C      -6.452387      0.149094     -0.871694
  C      -3.895892     -0.409738     -1.359268
  C      -6.985844      2.228969      0.463480
  C      -2.627541      1.697271     -1.076002
  C      -3.066443      3.317225      0.784644
  C      -7.070644      1.568714     -0.927096
  C      -3.202779      0.740311     -2.081457
  C      -1.406735      2.260017     -1.261232
  C      -1.552174      3.359017      1.008182
  C      -0.776651      3.133991     -0.276159
  O       0.335482      3.615316     -0.452085
  H      -4.986015     -0.674234      0.436057
  C      -6.372503      2.477429     -1.955774
  C      -6.821230     -0.472436     -2.220689
  C      -8.229531      0.097483     -2.513659
  C      -8.497275      1.242557     -1.483224
  O      -9.035698      2.411159     -2.092996
  H      -7.037887     -0.391119     -0.111933
  C      -9.509805      0.736390     -0.417219
  C     -10.096004      1.783996      0.405151
  N     -10.588732      2.599873      1.058193
  H      -5.402588      2.616136      1.911539
  H      -5.960727      0.949872      1.893073
  H      -4.316604     -1.123093     -2.074981
  H      -3.133748     -0.954695     -0.787999
  H      -7.002797      3.317408      0.346840
  H      -7.847096      1.978428      1.087971
  H      -3.582639      3.415935      1.742263
  H      -3.355105      4.186269      0.172713
  H      -3.926739      1.278997     -2.709433
  H      -2.414720      0.369320     -2.744620
  H      -0.820246      2.038753     -2.150352
  H      -1.257753      2.557911      1.702599
  H      -1.229356      4.306944      1.448499
  H      -5.339106      2.663685     -1.660038
  H      -6.890046      3.437519     -2.004496
  H      -6.378745      2.053744     -2.964382
  H      -6.113728     -0.161546     -2.995749
  H      -6.809577     -1.566911     -2.194709
  H      -8.998558     -0.680003     -2.445915
  H      -8.288978      0.522037     -3.520183
  H      -9.922026      2.215171     -2.419726
  H     -10.337901      0.236829     -0.938276
  H      -9.058183     -0.021586      0.233291
48
Coordinates from ORCA-job DienogestGasOptFreq E -982.131073521551
  C      -4.610876      1.368127      0.317139
  C      -4.968825      0.073137     -0.373129
  C      -5.702834      1.803028      1.248959
  C      -3.476242      2.059801      0.057000
  C      -6.452399      0.148972     -0.871527
  C      -3.896131     -0.409298     -1.359823
  C      -6.986395      2.228056      0.464248
  C      -2.627458      1.697493     -1.076161
  C      -3.066072      3.317174      0.784755
  C      -7.070924      1.568410     -0.926766
  C      -3.202918      0.740839     -2.081731
  C      -1.406668      2.260212     -1.261482
  C      -1.551786      3.358718      1.008177
  C      -0.776450      3.134058     -0.276340
  O       0.335608      3.615510     -0.452328
  H      -4.985476     -0.674029      0.435989
  C      -6.372477      2.477574     -1.954923
  C      -6.821165     -0.472713     -2.220424
  C      -8.229715      0.096619     -2.513014
  C      -8.497284      1.242455     -1.483428
  O      -9.035276      2.410789     -2.094087
  H      -7.037985     -0.391600     -0.112037
  C      -9.510429      0.737398     -0.417534
  C     -10.095978      1.785617      0.404559
  N     -10.589424      2.601495      1.057057
  H      -5.402407      2.616545      1.911098
  H      -5.959414      0.950199      1.893828
  H      -4.317022     -1.122217     -2.075848
  H      -3.133989     -0.954811     -0.789057
  H      -7.004901      3.316548      0.348541
  H      -7.847092      1.975806      1.088826
  H      -3.582132      3.415716      1.742472
  H      -3.354680      4.186416      0.173082
  H      -3.926766      1.279657     -2.709723
  H      -2.414924      0.369696     -2.744903
  H      -0.820335      2.039087     -2.150737
  H      -1.257394      2.557342      1.702291
  H      -1.228802      4.306468      1.448755
  H      -5.339656      2.664933     -1.657798
  H      -6.890993      3.437093     -2.004584
  H      -6.376834      2.053627     -2.963436
  H      -6.114184     -0.161436     -2.995826
  H      -6.808782     -1.567173     -2.194265
  H      -8.998362     -0.681184     -2.444558
  H      -8.289474      0.520271     -3.519930
  H      -9.920610      2.213950     -2.422985
  H     -10.338933      0.238255     -0.938312
  H      -9.059403     -0.020718      0.233284
