16
Coordinates from ORCA-job Monomer_XTB2_ALPB E -22.310199545840
  N          -0.00406311114085      1.17889469519381      0.00139365385650
  C          -1.13443198010711      0.44585868058361     -0.00066059943100
  C          -0.74762138447494     -1.02463237660334     -0.00282071233738
  C           0.78385969558835     -1.05126664797593      0.00381719679867
  C           1.22337807283908      0.42418113552602     -0.00261231641296
  O          -2.25736489862631      0.89925147766669     -0.00084738865185
  C          -0.01840700553307      2.62042876068603      0.00205647122991
  H           1.00319591502602      2.99231855785851     -0.00444874065563
  H          -0.53592781786549      2.99154029524656      0.88916943634870
  H          -0.54741364550777      2.99197857636145     -0.87803213260116
  H          -1.18207240687016     -1.50568757659380      0.87320212869235
  H          -1.17418535494365     -1.50246950486217     -0.88435306590009
  H           1.16341914390352     -1.56049637776776      0.88812419228262
  H           1.17185888188536     -1.57082835243938     -0.87068324318708
  H           1.82409764461425      0.67431680156863      0.87997607837882
  H           1.81467825121278      0.66861185555106     -0.89328095841042
