
                                 *****************
                                 * O   R   C   A *
                                 *****************

                                            #,                                       
                                            ###                                      
                                            ####                                     
                                            #####                                    
                                            ######                                   
                                           ########,                                 
                                     ,,################,,,,,                         
                               ,,#################################,,                 
                          ,,##########################################,,             
                       ,#########################################, ''#####,          
                    ,#############################################,,   '####,        
                  ,##################################################,,,,####,       
                ,###########''''           ''''###############################       
              ,#####''   ,,,,##########,,,,          '''####'''          '####       
            ,##' ,,,,###########################,,,                        '##       
           ' ,,###''''                  '''############,,,                           
         ,,##''                                '''############,,,,        ,,,,,,###''
      ,#''                                            '''#######################'''  
     '                                                          ''''####''''         
             ,#######,   #######,   ,#######,      ##                                
            ,#'     '#,  ##    ##  ,#'     '#,    #''#        ,####,    ,#,          
            ##       ##  ##   ,#'  ##            #'  '#       #'       ,# #          
            ##       ##  #######   ##           ,######,      #####,      #          
            '#,     ,#'  ##    ##  '#,     ,#' ,#      #,     #,   #      #          
             '#######'   ##     ##  '#######'  #'      '#     '####' #    #          



                #########################################################
                #                        -***-                          #
                #          Department of theory and spectroscopy        #
                #                                                       #
                #                      Frank Neese                      #
                #                                                       #
                #     Directorship, Architecture, Infrastructure        #
                #                    SHARK, DRIVERS                     #
                #        Core code/Algorithms in most modules           #
                #                                                       #
                #        Max Planck Institute fuer Kohlenforschung      #
                #                Kaiser Wilhelm Platz 1                 #
                #                 D-45470 Muelheim/Ruhr                 #
                #                      Germany                          #
                #                                                       #
                #                  All rights reserved                  #
                #                        -***-                          #
                #########################################################


                         Program Version 6.1.1  -  RELEASE   -


 With contributions from (in alphabetic order):
[Max-Planck-Institut fuer Kohlenforschung]                               
  Daniel Aravena         : Magnetic Suceptibility                        
  Michael Atanasov       : Ab Initio Ligand Field Theory (pilot matlab implementation)
  Alexander A. Auer      : GIAO ZORA, VPT2 properties, NMR spectrum      
  Ute Becker             : All parallelization in ORCA, NUMFREQ, NUMCALC 
  Giovanni Bistoni       : ED, misc. LED, open-shell LED, HFLD           
  Dmytro Bykov           : pre 5.0 version of the SCF Hessian            
  Marcos Casanova-Pﾃ｡ez   : Triplet and SCS-CIS(D). UHF-(DLPNO)-IP/EA/STEOM-CCSD. UHF-CVS-IP/STEOM-CCSD   
  Vijay G. Chilkuri      : MRCI spin determinant printing, contributions to CSF-ICE 
  Pauline Colinet        : FMM embedding                                 
  Dipayan Datta          : RHF DLPNO-CCSD density                        
  Achintya Kumar Dutta   : EOM-CC, STEOM-CC                              
  Nicolas Foglia         : Exact transition moments, OPA infrastructure, MCD improvements    
  Dmitry Ganyushin       : Spin-Orbit,Spin-Spin,Magnetic field MRCI      
  Miquel Garcia-Rates    : C-PCM and meta-GGA Hessian, CCSD/C-PCM, Gaussian charge scheme 
  Tiago L. C. Gouveia    : GS-ROHF, GS-ROCIS                             
  Yang Guo               : DLPNO-NEVPT2, F12-NEVPT2, CIM, IAO-localization        
  Andreas Hansen         : Spin unrestricted coupled pair/coupled cluster methods 
  Ingolf Harden          : AUTO-CI MPn and infrastructure                
  Benjamin Helmich-Paris : MC-RPA, TRAH-(SCF,CASSCF), AVAS, COSX integrals, SCF dyn. polar., MC-PDFT, srDFT 
  Lee Huntington         : MR-EOM, pCC                                   
  Robert Izsak           : Overlap fitted RIJCOSX, COSX-SCS-MP3, EOM     
  Riya Kayal             : Wick's Theorem for AUTO-CI, AUTO-CI UHF-CCSDT 
  Emily Kempfer          : AUTO-CI RHF CISDT and CCSDT, approximate NEVPT4
  Christian Kollmar      : KDIIS, OOCD, Brueckner-CCSD(T), CCSD density, CASPT2, CASPT2-K, improved NEVPT2 
  Axel Koslowski         : Symmetry handling                             
  Simone Kossmann        : meta-GGA functionals, TD-DFT gradient, OOMP2, (MP2 Hessian; deprecated post 5.0) 
  Lucas Lang             : DCDCAS, Hyperfine gauge corrections, ICE-SOC+SSC
  Marvin Lechner         : AUTO-CI (C++ implementation), FIC-MRCC        
  Spencer Leger          : CASSCF response                               
  Dagmar Lenk            : GEPOL surface, SMD, ORCA-2-JSON               
  Dimitrios Liakos       : Extrapolation schemes; Compound Job, Property file
  Dimitrios Manganas     : Further ROCIS development; embedding schemes. LFT, Crystal Embedding 
  Dimitrios Pantazis     : SARC Basis sets                               
  Anastasios Papadopoulos: AUTO-CI, single reference methods and gradients 
  Taras Petrenko         : pre 6.0 DFT Hessian and TD-DFT gradient,  ECA, NRVS 
  Petra Pikulova         : Analytic Raman intensities                    
  Peter Pinski           : DLPNO-MP2, DLPNO-MP2 Gradient                 
  Shashank Vittal Rao    : ES-AILFT, MagRelax                            
  Christoph Reimann      : Effective Core Potentials                     
  Marius Retegan         : Local ZFS, SOC                                
  Christoph Riplinger    : Optimizer, TS searches, QM/MM, DLPNO-CCSD(T), (RO)-DLPNO pert. Triples 
  Michael Roemelt        : Original ROCIS implementation, recursive CI coupling coefficients
  Masaaki Saitow         : Open-shell DLPNO-CCSD energy and density      
  Barbara Sandhoefer     : DKH picture change effects                    
  Yorick L. A. Schmerwitz: GMF and freeze-and-release deltaSCF, NEB S-IDPP initial path                    
  Kantharuban Sivalingam : CASSCF convergence/infrastructure, NEVPT2, NEVPT3, NEVPT4(SD), FIC-MRCI and CEPA variants
  Bernardo de Souza      : ESD, SOC TD-DFT                               
  Georgi L. Stoychev     : AutoAux, RI-MP2 NMR, DLPNO-MP2 response, X2C  
  Van Anh Tran           : RI-MP2 g-tensors                              
  Willem Van den Heuvel  : Paramagnetic NMR                              
  Zikuan Wang            : NOTCH, Electric field optimization            
  Frank Wennmohs         : Technical directorship and infrastructure     
  Hang Xu                : AUTO-CI-Response properties                   
                                                                         
[FACCTs GmbH]                                                            
  Markus Bursch, Nicolas Foglia, Miquel Garcia-Rates, Ingolf Harden, Hagen Neugebauer, Anastasios Papadopoulos, 
  Christoph Riplinger, Bernardo de Souza, Georgi L. Stoychev                                                    
                                                                 
  APM, various basis sets, CI-OPT, improved COSX, DLPNO-Multilevel,           
  DOCKER, DRACO, updates on ESD, Fragmentator, GOAT, IRC, LR-CPCM, L-BFGS, MBIS, meta-GGA TD-DFT gradient, ML-optimized integration grids, 
  MM, NACMEs, nearIR, NEB, NEB-TS, NL-DFT gradient (VV10), 2- and 3-layer-ONIOM, interface openCOSMO-RS, QMMM,   
  Crystal-QMMM, RESP, rigid body optimization, SF, symmetry and pop. for TD-DFT, various functionals, SOLVATOR                                   
                                                                         
[Other institutions]                                                     
  V. Asgeirsson          : NEB                                           
  Christoph Bannwarth    : sTDA-DFT, sTD-DFT, PBEh-3c, B97-3c, D3        
  Giovanni Bistoni       : ETS/NOCV, ADLD/ADEX, COVALED                  
  Martin Brehm           : Molecular dynamics                            
  Ronald Cardenas        : ETS/NOCV                                      
  Martina Colucci        : COVALED                                       
  Sebastian Ehlert       : rSCAN, r2SCAN, r2SCAN-3c, D4, dhf basis sets  
  Marvin Friede          : D4 for Fr, Ra, Ac-Lr                          
  Lars Goerigk           : TD-DFT with DH, B97 family of functionals     
  Stefan Grimme          : VdW corrections, initial TS optimization, DFT functionals, gCP, sTDA/sTD-DF 
  Waldemar Hujo          : DFT-NL                                        
  H. Jonsson             : NEB                                           
  Holger Kruse           : gCP                                           
  Marcel Mueller         : wB97X-3c, vDZP basis set                      
  Hagen Neugebauer       : wr2SCAN, Native XTB                           
  Gianluca Regni         : ADLD/ADEX                                     
  Tobias Risthaus        : pre 6.0 range-separated hybrid DFT and stability analysis
  Lukas Wittmann         : regularized MP2, r2SCAN double-hybrids, wr2SCAN        
                                                                         
We gratefully acknowledge several colleagues who have allowed us to      
interface, adapt or use parts of their codes:                            
  Ed Valeev, F. Pavosevic, A. Kumar             : LibInt (2-el integral package), F12 methods 
  Garnet Chan, S. Sharma, J. Yang, R. Olivares  : DMRG                   
  Ulf Ekstrom                                   : XCFun DFT Library      
  Mihaly Kallay                                 : mrcc  (arbitrary order and MRCC methods)
  Frank Weinhold                                : gennbo (NPA and NBO analysis)           
  Simon Mueller                                 : openCOSMO-RS                            
  Christopher J. Cramer and Donald G. Truhlar   : smd solvation model                     
  S Lehtola, MJT Oliveira, MAL Marques          : LibXC Library                           
  Liviu Ungur et al                             : ANISO software                          


 Your calculation uses the libint2 library for the computation of 2-el integrals
 For citations please refer to: http://libint.valeyev.net

 Your ORCA version has been built with support for libXC version: 7.0.0
 For citations please refer to: https://libxc.gitlab.io

 This ORCA versions uses:
   CBLAS   interface :  Fast vector & matrix operations
   LAPACKE interface :  Fast linear algebra routines
   Shared memory     :  Shared parallel matrices


  ***********************************
  * Starting time: Sat Sep 12 18:03:39 2026
  * Host name:     DESKTOP-2KDTO5M
  * Process ID:    19232
  * Working dir.:  C:\Users\naoki\Downloads\デスクトップ\data\Molecules\Calculations\NMP\XTB2
  ***********************************

Your calculation utilizes the semiempirical GFN2-xTB method
Please cite in your paper:
Bannwarth, C.; Ehlert S.; Grimme, S. J. Chem. Theory Comput. 2019, 15, 1652.
   

================================================================================

================================================================================
                                        WARNINGS
                       Please study these warnings very carefully!
================================================================================


WARNING: Geometry Optimization
  ===> : Switching off AutoStart
         For restart on a previous wavefunction, please use MOREAD

WARNING: Found dipole moment calculation with XTB calculation
  ===> : Switching off dipole moment calculation

Environment variable XTBEXE for xtb has been set!

================================================================================
                                       INPUT FILE
================================================================================
NAME = Monomer_XTB2_ALPB.inp
|  1> # N-Methyl-2-pyrrolidone (NMP): gas-phase XTB2 Opt (no solvation)
|  2> #
|  3> # UPDATE: "ALPB(nmp)" was confirmed NOT to be a recognized ORCA keyword -
|  4> #   ORCA rejected the input outright ("UNRECOGNIZED OR DUPLICATED
|  5> #   KEYWORD(S) IN SIMPLE INPUT LINE: ALPB(NMP)"). Per the chosen fallback,
|  6> #   this run drops implicit solvation entirely and is a plain gas-phase
|  7> #   XTB2 optimization. The solvated reference for NMP comes from the
|  8> #   r2SCAN-3c/CPCM calculation instead (Monomer_r2SCAN3c_CPCM.inp, which
|  9> #   uses an explicit dielectric constant/refractive index rather than a
| 10> #   named solvent, so it does not depend on NMP being in any named list).
| 11> #
| 12> # Starting geometry: same idealized pyrrolidone-ring guess as
| 13> # Monomer_r2SCAN3c_CPCM.inp.
| 14> 
| 15> ! XTB2 Opt
| 16> 
| 17> * xyz 0 1
| 18> N     0.000000    1.276000    0.000000
| 19> C    -1.213000    0.394000    0.000000
| 20> C    -0.750000   -1.032000    0.000000
| 21> C     0.750000   -1.032000    0.000000
| 22> C     1.213000    0.394000    0.000000
| 23> O    -2.373000    0.771000    0.000000
| 24> C     0.000000    2.746000    0.000000
| 25> H     1.028000    3.109000    0.000000
| 26> H    -0.514000    3.109000    0.890000
| 27> H    -0.514000    3.109000   -0.890000
| 28> H    -1.162000   -1.598000    0.750000
| 29> H    -1.162000   -1.598000   -0.750000
| 30> H     1.162000   -1.598000    0.750000
| 31> H     1.162000   -1.598000   -0.750000
| 32> H     1.878000    0.610000    0.750000
| 33> H     1.878000    0.610000   -0.750000
| 34> *
| 35> 
| 36>                          ****END OF INPUT****
================================================================================

                       *****************************
                       * Geometry Optimization Run *
                       *****************************

Geometry optimization settings:
Update method            Update   .... BFGS
Choice of coordinates    CoordSys .... (2022) Redundant Internals
Initial Hessian          InHess   .... Almloef's Model
Max. no of cycles        MaxIter  .... 50

Convergence Tolerances:
Energy Change            TolE     ....  5.0000e-06 Eh
Max. Gradient            TolMAXG  ....  3.0000e-04 Eh/bohr
RMS Gradient             TolRMSG  ....  1.0000e-04 Eh/bohr
Max. Displacement        TolMAXD  ....  4.0000e-03 bohr
RMS Displacement         TolRMSD  ....  2.0000e-03 bohr
Strict Convergence                .... False

------------------------------------------------------------------------------
                        ORCA OPTIMIZATION COORDINATE SETUP
------------------------------------------------------------------------------

The optimization will be done in redundant internal coordinates (2022)
Making redundant internal coordinates   ...  (2022 redundants) done
Evaluating the initial hessian          ...  (Almloef) done
Evaluating the coordinates              ...  done
Calculating the B-matrix                .... done
Calculating the G-matrix                .... done
The number of degrees of freedom        ....   77

    -----------------------------------------------------------------
                    Redundant Internal Coordinates


    -----------------------------------------------------------------
         Definition                    Initial Value    Approx d2E/dq
    -----------------------------------------------------------------
      1. B(C   1,N   0)                  1.4998         0.373898   
      2. B(C   2,C   1)                  1.4993         0.418203   
      3. B(C   3,C   2)                  1.5000         0.417100   
      4. B(C   4,N   0)                  1.4998         0.373898   
      5. B(C   4,C   3)                  1.4993         0.418203   
      6. B(O   5,C   1)                  1.2197         1.046016   
      7. B(C   6,N   0)                  1.4700         0.417100   
      8. B(H   7,C   6)                  1.0902         0.359825   
      9. B(H   8,C   6)                  1.0900         0.360121   
     10. B(H   9,C   6)                  1.0900         0.360121   
     11. B(H  10,C   2)                  1.0260         0.455607   
     12. B(H  11,C   2)                  1.0260         0.455607   
     13. B(H  12,C   3)                  1.0260         0.455607   
     14. B(H  13,C   3)                  1.0260         0.455607   
     15. B(H  14,C   4)                  1.0254         0.456602   
     16. B(H  15,C   4)                  1.0254         0.456602   
     17. A(C   1,N   0,C   6)          126.0218         0.365725   
     18. A(C   1,N   0,C   4)          107.9565         0.358961   
     19. A(C   4,N   0,C   6)          126.0218         0.365725   
     20. A(N   0,C   1,C   2)          108.0339         0.368188   
     21. A(N   0,C   1,O   5)          125.9741         0.429741   
     22. A(C   2,C   1,O   5)          125.9920         0.441388   
     23. A(C   1,C   2,C   3)          107.9878         0.377558   
     24. A(H  10,C   2,H  11)           93.9440         0.313520   
     25. A(C   3,C   2,H  11)          113.6766         0.343457   
     26. A(C   1,C   2,H  11)          113.6220         0.343609   
     27. A(C   3,C   2,H  10)          113.6766         0.343457   
     28. A(C   1,C   2,H  10)          113.6220         0.343609   
     29. A(C   4,C   3,H  13)          113.6220         0.343609   
     30. A(C   2,C   3,H  13)          113.6766         0.343457   
     31. A(C   4,C   3,H  12)          113.6220         0.343609   
     32. A(C   2,C   3,H  12)          113.6766         0.343457   
     33. A(H  12,C   3,H  13)           93.9440         0.313520   
     34. A(C   2,C   3,C   4)          107.9878         0.377558   
     35. A(N   0,C   4,H  15)          113.6192         0.335316   
     36. A(C   3,C   4,H  14)          113.6182         0.343735   
     37. A(N   0,C   4,H  14)          113.6192         0.335316   
     38. A(C   3,C   4,H  15)          113.6182         0.343735   
     39. A(N   0,C   4,C   3)          108.0339         0.368188   
     40. A(H  14,C   4,H  15)           94.0152         0.313742   
     41. A(H   8,C   6,H   9)          109.4770         0.290845   
     42. A(H   7,C   6,H   9)          109.4978         0.290807   
     43. A(N   0,C   6,H   9)          109.4529         0.328280   
     44. A(H   7,C   6,H   8)          109.4978         0.290807   
     45. A(N   0,C   6,H   8)          109.4529         0.328280   
     46. A(N   0,C   6,H   7)          109.4488         0.328236   
     47. D(O   5,C   1,N   0,C   4)    180.0000         0.011103   
     48. D(C   2,C   1,N   0,C   6)    180.0000         0.011103   
     49. D(O   5,C   1,N   0,C   6)      0.0000         0.011103   
     50. D(C   2,C   1,N   0,C   4)      0.0000         0.011103   
     51. D(C   3,C   2,C   1,O   5)    180.0000         0.012936   
     52. D(H  10,C   2,C   1,N   0)    127.0723         0.012936   
     53. D(H  11,C   2,C   1,N   0)   -127.0723         0.012936   
     54. D(H  10,C   2,C   1,O   5)    -52.9277         0.012936   
     55. D(C   3,C   2,C   1,N   0)      0.0000         0.012936   
     56. D(H  12,C   3,C   2,H  10)      0.0000         0.013769   
     57. D(C   4,C   3,C   2,H  11)    127.0406         0.013769   
     58. D(C   4,C   3,C   2,H  10)   -127.0406         0.013769   
     59. D(C   4,C   3,C   2,C   1)      0.0000         0.013769   
     60. D(H  12,C   3,C   2,H  11)   -105.9187         0.013769   
     61. D(H  12,C   3,C   2,C   1)    127.0406         0.013769   
     62. D(H  14,C   4,C   3,H  13)   -105.8971         0.013840   
     63. D(H  14,C   4,C   3,H  12)     -0.0418         0.013840   
     64. D(H  14,C   4,C   3,C   2)    127.0305         0.013840   
     65. D(N   0,C   4,C   3,H  12)   -127.0723         0.013840   
     66. D(N   0,C   4,C   3,C   2)      0.0000         0.013840   
     67. D(H  15,C   4,N   0,C   1)    127.0300         0.011985   
     68. D(N   0,C   4,C   3,H  13)    127.0723         0.013840   
     69. D(H  14,C   4,N   0,C   6)     52.9700         0.011985   
     70. D(H  14,C   4,N   0,C   1)   -127.0300         0.011985   
     71. D(C   3,C   4,N   0,C   6)    180.0000         0.011985   
     72. D(C   3,C   4,N   0,C   1)      0.0000         0.011985   
     73. D(H   8,C   6,N   0,C   4)   -120.0076         0.014836   
     74. D(H   8,C   6,N   0,C   1)     59.9924         0.014836   
     75. D(H   7,C   6,N   0,C   4)      0.0000         0.014836   
     76. D(H   9,C   6,N   0,C   1)    -59.9924         0.014836   
     77. D(H   7,C   6,N   0,C   1)    180.0000         0.014836   
    -----------------------------------------------------------------

Number of atoms                         .... 16
Number of degrees of freedom            .... 77


         *************************************************************
         *                GEOMETRY OPTIMIZATION CYCLE   1            *
         *************************************************************
---------------------------------
CARTESIAN COORDINATES (ANGSTROEM)
---------------------------------
  N     0.000000    1.276000    0.000000
  C    -1.213000    0.394000    0.000000
  C    -0.750000   -1.032000    0.000000
  C     0.750000   -1.032000    0.000000
  C     1.213000    0.394000    0.000000
  O    -2.373000    0.771000    0.000000
  C     0.000000    2.746000    0.000000
  H     1.028000    3.109000    0.000000
  H    -0.514000    3.109000    0.890000
  H    -0.514000    3.109000   -0.890000
  H    -1.162000   -1.598000    0.750000
  H    -1.162000   -1.598000   -0.750000
  H     1.162000   -1.598000    0.750000
  H     1.162000   -1.598000   -0.750000
  H     1.878000    0.610000    0.750000
  H     1.878000    0.610000   -0.750000

----------------------------
CARTESIAN COORDINATES (A.U.)
----------------------------
  NO LB    ZA    FRAG    MASS        X           Y           Z
   0 N   7.0000    0    14.007    0.000000    2.411291    0.000000
   1 C   6.0000    0    12.011   -2.292238    0.744552    0.000000
   2 C   6.0000    0    12.011   -1.417295   -1.950197    0.000000
   3 C   6.0000    0    12.011    1.417295   -1.950197    0.000000
   4 C   6.0000    0    12.011    2.292238    0.744552    0.000000
   5 O   8.0000    0    15.999   -4.484320    1.456979    0.000000
   6 C   6.0000    0    12.011    0.000000    5.189188    0.000000
   7 H   1.0000    0     1.008    1.942638    5.875159    0.000000
   8 H   1.0000    0     1.008   -0.971319    5.875159    1.681856
   9 H   1.0000    0     1.008   -0.971319    5.875159   -1.681856
  10 H   1.0000    0     1.008   -2.195862   -3.019782    1.417295
  11 H   1.0000    0     1.008   -2.195862   -3.019782   -1.417295
  12 H   1.0000    0     1.008    2.195862   -3.019782    1.417295
  13 H   1.0000    0     1.008    2.195862   -3.019782   -1.417295
  14 H   1.0000    0     1.008    3.548906    1.152733    1.417295
  15 H   1.0000    0     1.008    3.548906    1.152733   -1.417295

      -----------------------------------------------------------      
     |                   =====================                   |     
     |                           x T B                           |     
     |                   =====================                   |     
     |                         S. Grimme                         |     
     |          Mulliken Center for Theoretical Chemistry        |     
     |                    University of Bonn                     |     
      -----------------------------------------------------------      

   * xtb version 6.7.1pre (5071a88) compiled by 'Marcel@Raven' on 2024-07-23

   xtb is free software: you can redistribute it and/or modify it under
   the terms of the GNU Lesser General Public License as published by
   the Free Software Foundation, either version 3 of the License, or
   (at your option) any later version.
   
   xtb is distributed in the hope that it will be useful,
   but WITHOUT ANY WARRANTY; without even the implied warranty of
   MERCHANTABILITY or FITNESS FOR A PARTICULAR PURPOSE.  See the
   GNU Lesser General Public License for more details.
   
   Cite this work as:
   * C. Bannwarth, E. Caldeweyher, S. Ehlert, A. Hansen, P. Pracht,
     J. Seibert, S. Spicher, S. Grimme, WIREs Comput. Mol. Sci., 2020, 11,
     e01493. DOI: 10.1002/wcms.1493
   
   for GFN2-xTB:
   * C. Bannwarth, S. Ehlert and S. Grimme., J. Chem. Theory Comput., 2019,
     15, 1652-1671. DOI: 10.1021/acs.jctc.8b01176
   for GFN1-xTB:
   * S. Grimme, C. Bannwarth, P. Shushkov, J. Chem. Theory Comput., 2017,
     13, 1989-2009. DOI: 10.1021/acs.jctc.7b00118
   for GFN0-xTB:
   * P. Pracht, E. Caldeweyher, S. Ehlert, S. Grimme, ChemRxiv, 2019, preprint.
     DOI: 10.26434/chemrxiv.8326202.v1
   for GFN-FF:
   * S. Spicher and S. Grimme, Angew. Chem. Int. Ed., 2020, 59, 15665-15673.
     DOI: 10.1002/anie.202004239
   
   for ALPB and GBSA implicit solvation:
   * S. Ehlert, M. Stahn, S. Spicher, S. Grimme, J. Chem. Theory Comput.,
     2021, 17, 4250-4261. DOI: 10.1021/acs.jctc.1c00471
   
   for ddCOSMO and CPCM-X implicit solvation:
   * M. Stahn, S. Ehlert, S. Grimme, J. Phys. Chem. A,
     2023, XX, XXXX-XXXX. DOI: 10.1021/acs.jpca.3c04382
   
   for DFT-D4:
   * E. Caldeweyher, C. Bannwarth and S. Grimme, J. Chem. Phys., 2017,
     147, 034112. DOI: 10.1063/1.4993215
   * E. Caldeweyher, S. Ehlert, A. Hansen, H. Neugebauer, S. Spicher,
     C. Bannwarth and S. Grimme, J. Chem. Phys., 2019, 150, 154122.
     DOI: 10.1063/1.5090222
   * E. Caldeweyher, J.-M. Mewes, S. Ehlert and S. Grimme, Phys. Chem. Chem. Phys.
     2020, 22, 8499-8512. DOI: 10.1039/D0CP00502A
   
   for sTDA-xTB:
   * S. Grimme and C. Bannwarth, J. Chem. Phys., 2016, 145, 054103.
     DOI: 10.1063/1.4959605
   
   in the mass-spec context:
   * V. Asgeirsson, C. Bauer and S. Grimme, Chem. Sci., 2017, 8, 4879.
     DOI: 10.1039/c7sc00601b
   * J. Koopman and S. Grimme, ACS Omega 2019, 4, 12, 15120-15133.
     DOI: 10.1021/acsomega.9b02011
   
   for metadynamics refer to:
   * S. Grimme, J. Chem. Theory Comput., 2019, 155, 2847-2862
     DOI: 10.1021/acs.jctc.9b00143
   
   for SPH calculations refer to:
   * S. Spicher and S. Grimme, J. Chem. Theory Comput., 2021, 17, 1701-1714
     DOI: 10.1021/acs.jctc.0c01306
   
   for ONIOM refer to:
   * C. Plett, A. Katbashev, S. Ehlert, S. Grimme, M. Bursch,
     Phys. Chem. Chem. Phys., 2023, 25, 17860-17868. DOI: 10.1039/D3CP02178E
   
   for DIPRO refer to:
   * J. Kohn, N. Gildemeister, S. Grimme, D. Fazzi, A. Hansen,
     J. Chem. Phys., 2023, just accepted.
   
   for PTB refer to:
   * S. Grimme, M. Mueller, A. Hansen, J. Chem. Phys., 2023, 158, 124111.
     DOI: 10.1063/5.0137838
   
   with help from (in alphabetical order)
   P. Atkinson, C. Bannwarth, F. Bohle, G. Brandenburg, E. Caldeweyher
   M. Checinski, S. Dohm, S. Ehlert, S. Ehrlich, I. Gerasimov, C. Hﾃｶlzer
   A. Katbashev, J. Kohn, J. Koopman, C. Lavigne, S. Lehtola, F. Mﾃ､rz, M. Mﾃｼller,
   F. Musil, H. Neugebauer, J. Pisarek, C. Plett, P. Pracht, F. Pultar,
   J. Seibert, P. Shushkov, S. Spicher, M. Stahn, M. Steiner, T. Strunk,
   J. Stﾃｼckrath, T. Rose, and J. Unsleber
   
 * started run on 2026/09/12 at 18:03:39.679     
   ID    Z sym.   atoms
    1    7 N      1
    2    6 C      2-5, 7
    3    8 O      6
    4    1 H      8-16

           -------------------------------------------------
          |                Calculation Setup                |
           -------------------------------------------------

          program call               : C:\ORCA_6.1.1\xtb-6.7.1pre\xtb.exe  Monomer_XTB2_ALPB_XTB.xyz --grad -c 0 -u 0 -P 1 --namespace Monomer_XTB2_ALPB --input Monomer_XTB2_ALPB_XTB.input.tmp --acc 0.200000      
          calculation namespace      : Monomer_XTB2_ALPB
          coordinate file            : Monomer_XTB2_ALPB_XTB.xyz
          omp threads                :                     1


           -------------------------------------------------
          |                 G F N 2 - x T B                 |
           -------------------------------------------------

        Reference                      10.1021/acs.jctc.8b01176
      * Hamiltonian:
        H0-scaling (s, p, d)           1.850000    2.230000    2.230000
        zeta-weighting                 0.500000
      * Dispersion:
        s8                             2.700000
        a1                             0.520000
        a2                             5.000000
        s9                             5.000000
      * Repulsion:
        kExp                           1.500000    1.000000
        rExp                           1.000000
      * Coulomb:
        alpha                          2.000000
        third order                    shell-resolved
        anisotropic                    true
        a3                             3.000000
        a5                             4.000000
        cn-shift                       1.200000
        cn-exp                         4.000000
        max-rad                        5.000000


          ...................................................
          :                      SETUP                      :
          :.................................................:
          :  # basis functions                  37          :
          :  # atomic orbitals                  37          :
          :  # shells                           23          :
          :  # electrons                        40          :
          :  max. iterations                   250          :
          :  Hamiltonian                  GFN2-xTB          :
          :  restarted?                      false          :
          :  GBSA solvation                  false          :
          :  PC potential                    false          :
          :  electronic temp.          300.0000000     K    :
          :  accuracy                    0.2000000          :
          :  -> integral cutoff          0.3198970E+02      :
          :  -> integral neglect         0.2000000E-08      :
          :  -> SCF convergence          0.2000000E-06 Eh   :
          :  -> wf. convergence          0.2000000E-04 e    :
          :  Broyden damping             0.4000000          :
          :  net charge                          0          :
          :  unpaired electrons                  0          :
          ...................................................

 iter      E             dE          RMSdq      gap      omega  full diag
   1    -22.5397716 -0.225398E+02  0.365E+00    4.11       0.0  T
   2    -22.5733104 -0.335388E-01  0.201E+00    4.25       1.0  T
   3    -22.5744382 -0.112781E-02  0.104E+00    4.15       1.0  T
   4    -22.5760459 -0.160766E-02  0.152E-01    4.03       1.0  T
   5    -22.5762963 -0.250385E-03  0.767E-02    4.12       1.0  T
   6    -22.5763170 -0.207601E-04  0.365E-02    4.10       1.0  T
   7    -22.5763180 -0.926950E-06  0.821E-03    4.10       3.0  T
   8    -22.5763181 -0.139124E-06  0.235E-03    4.10      10.7  T
   9    -22.5763181 -0.629995E-08  0.120E-03    4.10      20.9  T
  10    -22.5763181 -0.298726E-08  0.144E-04    4.10     173.2  T
  11    -22.5763181 -0.541718E-10  0.535E-05    4.10     467.4  T

   *** convergence criteria satisfied after 11 iterations ***

         #    Occupation            Energy/Eh            Energy/eV
      -------------------------------------------------------------
         1        2.0000           -0.6873940             -18.7049
       ...           ...                  ...                  ...
        14        2.0000           -0.4844701             -13.1831
        15        2.0000           -0.4790649             -13.0360
        16        2.0000           -0.4741025             -12.9010
        17        2.0000           -0.4725032             -12.8575
        18        2.0000           -0.4307556             -11.7215
        19        2.0000           -0.3936757             -10.7125
        20        2.0000           -0.3677307             -10.0065 (HOMO)
        21                         -0.2170586              -5.9065 (LUMO)
        22                         -0.0669227              -1.8211
        23                          0.0217058               0.5906
        24                          0.0910442               2.4774
        25                          0.1415527               3.8518
       ...                                ...                  ...
        37                          0.6164505              16.7745
      -------------------------------------------------------------
                  HL-Gap            0.1506722 Eh            4.1000 eV
             Fermi-level           -0.2923947 Eh           -7.9565 eV

 SCC (total)                   0 d,  0 h,  0 min,  0.008 sec
 SCC setup                      ...        0 min,  0.001 sec ( 12.499%)
 Dispersion                     ...        0 min,  0.000 sec (  0.000%)
 classical contributions        ...        0 min,  0.000 sec (  0.000%)
 integral evaluation            ...        0 min,  0.001 sec ( 12.499%)
 iterations                     ...        0 min,  0.003 sec ( 37.501%)
 molecular gradient             ...        0 min,  0.003 sec ( 37.501%)
 printout                       ...        0 min,  0.000 sec (  0.000%)

         :::::::::::::::::::::::::::::::::::::::::::::::::::::
         ::                     SUMMARY                     ::
         :::::::::::::::::::::::::::::::::::::::::::::::::::::
         :: total energy             -22.251429587570 Eh    ::
         :: gradient norm              0.195868994261 Eh/a0 ::
         :: HOMO-LUMO gap              4.099998921627 eV    ::
         ::.................................................::
         :: SCC energy               -22.576291787583 Eh    ::
         :: -> isotropic ES            0.036612309627 Eh    ::
         :: -> anisotropic ES          0.004660719560 Eh    ::
         :: -> anisotropic XC          0.007224355210 Eh    ::
         :: -> dispersion             -0.009886477859 Eh    ::
         :: repulsion energy           0.324862200013 Eh    ::
         :: add. restraining           0.000000000000 Eh    ::
         :: total charge               0.000000000000 e     ::
         :::::::::::::::::::::::::::::::::::::::::::::::::::::


Property printout bound to 'properties.out'

           -------------------------------------------------
          | TOTAL ENERGY              -22.251429587570 Eh   |
          | GRADIENT NORM               0.195868994261 Eh/ﾎｱ |
          | HOMO-LUMO GAP               4.099998921627 eV   |
           -------------------------------------------------

------------------------------------------------------------------------
 * finished run on 2026/09/12 at 18:03:39.707     
------------------------------------------------------------------------
 total:
 * wall-time:     0 d,  0 h,  0 min,  0.026 sec
 *  cpu-time:     0 d,  0 h,  0 min,  0.031 sec
 * ratio c/w:     1.202 speedup
 SCF:
 * wall-time:     0 d,  0 h,  0 min,  0.008 sec
 *  cpu-time:     0 d,  0 h,  0 min,  0.016 sec
 * ratio c/w:     1.953 speedup


-------------------------   --------------------
FINAL SINGLE POINT ENERGY       -22.251429587570
-------------------------   --------------------


-------------
DIPOLE MOMENT
-------------
                                X             Y             Z
Total Dipole Moment    :      1.68000      -0.41000       0.00000
                        -----------------------------------------
Magnitude (a.u.)       :      1.72931
Magnitude (Debye)      :      4.39555


------------------
CARTESIAN GRADIENT
------------------

   1   N   :    0.034601331    0.057038565    0.000000000
   2   C   :   -0.027306280   -0.049198735    0.000000000
   3   C   :   -0.019215503   -0.030528239    0.000000000
   4   C   :    0.013827719   -0.018343952   -0.000000000
   5   C   :    0.049247217   -0.021698325    0.000000000
   6   O   :   -0.031342658    0.000439641   -0.000000000
   7   C   :    0.004973398    0.024660025   -0.000000000
   8   H   :    0.001483121    0.002713099    0.000000000
   9   H   :    0.000524323   -0.000527021    0.000146754
  10   H   :    0.000524323   -0.000527021   -0.000146754
  11   H   :    0.016084394    0.013375986   -0.057737161
  12   H   :    0.016084394    0.013375986    0.057737161
  13   H   :   -0.012060094    0.015263026   -0.059993581
  14   H   :   -0.012060094    0.015263026    0.059993581
  15   H   :   -0.017682795   -0.010653031   -0.063429925
  16   H   :   -0.017682795   -0.010653031    0.063429925

Difference to translation invariance:
           :    0.0000000000   -0.0000000000    0.0000000000

Difference to rotation invariance:
           :   -0.0000000000   -0.0000000000   -0.0229187650

Norm of the Cartesian gradient     ...    0.1958689943
RMS gradient                       ...    0.0282712541
MAX gradient                       ...    0.0634299253
------------------------------------------------------------------------------
                         ORCA GEOMETRY RELAXATION STEP
------------------------------------------------------------------------------

Reading the OPT-File                    .... done
Getting information on internals        .... done
Copying old internal coords+grads       .... done
Making the new internal coordinates     .... (2022 redundants) done
Validating the new internal coordinates .... (2022 redundants) done
Calculating the B-matrix                .... done
Calculating the G,G- and P matrices     .... done
Transforming gradient to internals      .... done
Projecting the internal gradient        .... done
Number of atoms                         ....  16
Number of internal coordinates          ....  77
Current Energy                          ....   -22.251429588 Eh
Current gradient norm                   ....     0.195868994 Eh/bohr
Maximum allowed component of the step   ....  0.300
Current trust radius                    ....  0.300
Evaluating the initial hessian          ....  (Almloef) done
Projecting the Hessian                  .... done
Forming the augmented Hessian           .... done
Diagonalizing the augmented Hessian     .... done
Last element of RFO vector              ....  0.918573640
Lowest eigenvalues of augmented Hessian:
 -0.075364911  0.011916921  0.012214660  0.013025738  0.013554302
Length of the computed step             ....  0.430286547
Warning: the length of the step is outside the trust region - taking restricted step instead
The input lambda is                     ....     0.010917
   iter:   5  x=   -0.239263  g=    0.330491 f(x)=     0.002639
The output lambda is                    ....    -0.239450 (9 iterations)
The final length of the internal step   ....  0.300000000
Converting the step to Cartesian space:
 Initial RMS(Int)=    0.0341881729
Transforming coordinates:
 Iter   0:  RMS(Cart)=    0.0605683710 RMS(Int)=    1.0123309584
 Iter   5:  RMS(Cart)=    0.0000000078 RMS(Int)=    0.0000000063
done
Storing new coordinates                 .... done

                                .--------------------.
          ----------------------|Geometry convergence|-------------------------
          Item                value                   Tolerance       Converged
          ---------------------------------------------------------------------
          RMS gradient        0.0211279763            0.0001000000      NO
          MAX gradient        0.0767398657            0.0003000000      NO
          RMS step            0.0341881729            0.0020000000      NO
          MAX step            0.1276082417            0.0040000000      NO
          -------------------------------------------------------------------------
          ........................................................
          Max(Bonds)      0.0675      Max(Angles)    3.63
          Max(Dihed)        2.69      Max(Improp)    0.00
          ---------------------------------------------------------------------

The optimization has not yet converged - more geometry cycles are needed


    ---------------------------------------------------------------------------
                         Redundant Internal Coordinates
                            (Angstroem and degrees)

        Definition                    Value    dE/dq     Step     New-Value
    ----------------------------------------------------------------------------
     1. B(C   1,N   0)                1.4998  0.076740 -0.0675    1.4322   
     2. B(C   2,C   1)                1.4993  0.004171 -0.0036    1.4957   
     3. B(C   3,C   2)                1.5000 -0.011557  0.0104    1.5104   
     4. B(C   4,N   0)                1.4998  0.030799 -0.0271    1.4726   
     5. B(C   4,C   3)                1.4993 -0.012043  0.0106    1.5099   
     6. B(O   5,C   1)                1.2197  0.029863 -0.0123    1.2074   
     7. B(C   6,N   0)                1.4700  0.026261 -0.0212    1.4488   
     8. B(H   7,C   6)                1.0902  0.001938 -0.0017    1.0885   
     9. B(H   8,C   6)                1.0900 -0.000128  0.0001    1.0901   
    10. B(H   9,C   6)                1.0900 -0.000128  0.0001    1.0901   
    11. B(H  10,C   2)                1.0260 -0.056070  0.0427    1.0687   
    12. B(H  11,C   2)                1.0260 -0.056070  0.0427    1.0687   
    13. B(H  12,C   3)                1.0260 -0.057079  0.0435    1.0694   
    14. B(H  13,C   3)                1.0260 -0.057079  0.0435    1.0694   
    15. B(H  14,C   4)                1.0254 -0.060058  0.0457    1.0710   
    16. B(H  15,C   4)                1.0254 -0.060058  0.0457    1.0710   
    17. A(C   1,N   0,C   6)          126.02  0.018364   -1.76    124.26   
    18. A(C   1,N   0,C   4)          107.96 -0.026597    2.56    110.51   
    19. A(C   4,N   0,C   6)          126.02  0.008233   -0.80    125.22   
    20. A(N   0,C   1,C   2)          108.03 -0.004120    0.43    108.46   
    21. A(N   0,C   1,O   5)          125.97  0.013214   -1.16    124.81   
    22. A(C   2,C   1,O   5)          125.99 -0.009094    0.73    126.73   
    23. A(C   1,C   2,C   3)          107.99  0.006713   -0.72    107.27   
    24. A(H  10,C   2,H  11)           93.94 -0.016046    2.51     96.46   
    25. A(C   3,C   2,H  11)          113.68  0.000096   -0.06    113.62   
    26. A(C   1,C   2,H  11)          113.62  0.002024   -0.52    113.11   
    27. A(C   3,C   2,H  10)          113.68 -0.002259    0.10    113.77   
    28. A(C   1,C   2,H  10)          113.62  0.007108   -1.01    112.61   
    29. A(C   4,C   3,H  13)          113.62  0.011523   -1.08    112.55   
    30. A(C   2,C   3,H  13)          113.68 -0.006173    0.08    113.76   
    31. A(C   4,C   3,H  12)          113.62 -0.002706   -0.01    113.61   
    32. A(C   2,C   3,H  12)          113.68  0.000129   -0.27    113.41   
    33. A(H  12,C   3,H  13)           93.94 -0.021321    3.00     96.94   
    34. A(C   2,C   3,C   4)          107.99  0.014303   -1.28    106.71   
    35. A(N   0,C   4,H  15)          113.62  0.018985   -1.82    111.80   
    36. A(C   3,C   4,H  14)          113.62 -0.002233    0.13    113.75   
    37. A(N   0,C   4,H  14)          113.62  0.000322   -0.31    113.31   
    38. A(C   3,C   4,H  15)          113.62 -0.001918   -0.21    113.41   
    39. A(N   0,C   4,C   3)          108.03  0.009701   -0.99    107.05   
    40. A(H  14,C   4,H  15)           94.02 -0.028612    3.63     97.65   
    41. A(H   8,C   6,H   9)          109.48  0.000665   -0.04    109.44   
    42. A(H   7,C   6,H   9)          109.50 -0.000929    0.08    109.58   
    43. A(N   0,C   6,H   9)          109.45 -0.001411    0.15    109.60   
    44. A(H   7,C   6,H   8)          109.50 -0.000890    0.08    109.58   
    45. A(N   0,C   6,H   8)          109.45 -0.001391    0.15    109.60   
    46. A(N   0,C   6,H   7)          109.45  0.003955   -0.42    109.03   
    47. D(O   5,C   1,N   0,C   4)    180.00  0.002041   -0.30    179.70   
    48. D(C   2,C   1,N   0,C   6)    180.00 -0.001185    0.24    180.24   
    49. D(O   5,C   1,N   0,C   6)      0.00  0.000991   -0.17     -0.17   
    50. D(C   2,C   1,N   0,C   4)      0.00 -0.000135    0.12      0.12   
    51. D(C   3,C   2,C   1,O   5)    180.00 -0.002281    0.36    180.36   
    52. D(H  10,C   2,C   1,N   0)    127.07  0.007488   -1.25    125.83   
    53. D(H  11,C   2,C   1,N   0)   -127.07 -0.007050    0.97   -126.10   
    54. D(H  10,C   2,C   1,O   5)    -52.93  0.005312   -0.83    -53.76   
    55. D(C   3,C   2,C   1,N   0)      0.00 -0.000105   -0.06     -0.06   
    56. D(H  12,C   3,C   2,H  10)      0.00 -0.004837    0.58      0.58   
    57. D(C   4,C   3,C   2,H  11)    127.04  0.008375   -1.33    125.71   
    58. D(C   4,C   3,C   2,H  10)   -127.04 -0.012728    1.81   -125.24   
    59. D(C   4,C   3,C   2,C   1)      0.00  0.000305   -0.03     -0.03   
    60. D(H  12,C   3,C   2,H  11)   -105.92  0.016266   -2.55   -108.47   
    61. D(H  12,C   3,C   2,C   1)    127.04  0.008196   -1.26    125.79   
    62. D(H  14,C   4,C   3,H  13)   -105.90  0.017799   -2.69   -108.59   
    63. D(H  14,C   4,C   3,H  12)     -0.04 -0.003439    0.38      0.34   
    64. D(H  14,C   4,C   3,C   2)    127.03  0.006085   -0.99    126.04   
    65. D(N   0,C   4,C   3,H  12)   -127.07 -0.009912    1.48   -125.59   
    66. D(N   0,C   4,C   3,C   2)      0.00 -0.000388    0.11      0.11   
    67. D(H  15,C   4,N   0,C   1)    127.03  0.019498   -2.55    124.48   
    68. D(N   0,C   4,C   3,H  13)    127.07  0.011326   -1.59    125.48   
    69. D(H  14,C   4,N   0,C   6)     52.97 -0.003619    0.58     53.55   
    70. D(H  14,C   4,N   0,C   1)   -127.03 -0.004669    0.70   -126.33   
    71. D(C   3,C   4,N   0,C   6)    180.00  0.001373   -0.26    179.74   
    72. D(C   3,C   4,N   0,C   1)      0.00  0.000324   -0.14     -0.14   
    73. D(H   8,C   6,N   0,C   4)   -120.01 -0.001112    0.14   -119.87   
    74. D(H   8,C   6,N   0,C   1)     59.99  0.000122   -0.00     59.99   
    75. D(H   7,C   6,N   0,C   4)      0.00 -0.000633    0.07      0.07   
    76. D(H   9,C   6,N   0,C   1)    -59.99  0.001021   -0.14    -60.13   
    77. D(H   7,C   6,N   0,C   1)    180.00  0.000601   -0.07    179.93   
    ----------------------------------------------------------------------------

Geometry step timings:
Preparation and reading OPT file:      0.001 s (14.286 %)
Internal coordinates            :      0.000 s ( 0.000 %)
B/P matrices and projection     :      0.000 s ( 0.000 %)
Hessian update/contruction      :      0.002 s (28.571 %)
Making the step                 :      0.001 s (14.286 %)
Converting the step to Cartesian:      0.001 s (14.286 %)
Storing new data                :      0.000 s ( 0.000 %)
Checking convergence            :      0.000 s ( 0.000 %)
Final printing                  :      0.002 s (28.571 %)
Total time                      :      0.007 s

Time for energy+gradient        :      0.079 s
Time for complete geometry iter :      0.115 s

         *************************************************************
         *                GEOMETRY OPTIMIZATION CYCLE   2            *
         *************************************************************
---------------------------------
CARTESIAN COORDINATES (ANGSTROEM)
---------------------------------
  N    -0.000621    1.243346   -0.000797
  C    -1.175362    0.424001   -0.004814
  C    -0.752426   -1.010520   -0.000533
  C     0.757721   -1.032128    0.004947
  C     1.212167    0.407796    0.003018
  O    -2.307822    0.842839   -0.003512
  C    -0.016925    2.692086    0.001868
  H     1.008010    3.058579    0.005922
  H    -0.536454    3.050331    0.890722
  H    -0.530593    3.053664   -0.889041
  H    -1.193852   -1.566568    0.798197
  H    -1.185802   -1.577854   -0.795726
  H     1.171280   -1.610581    0.803708
  H     1.182869   -1.597051   -0.797406
  H     1.889056    0.647237    0.797745
  H     1.861754    0.646822   -0.814298

----------------------------
CARTESIAN COORDINATES (A.U.)
----------------------------
  NO LB    ZA    FRAG    MASS        X           Y           Z
   0 N   7.0000    0    14.007   -0.001174    2.349584   -0.001506
   1 C   6.0000    0    12.011   -2.221112    0.801247   -0.009097
   2 C   6.0000    0    12.011   -1.421878   -1.909606   -0.001006
   3 C   6.0000    0    12.011    1.431885   -1.950439    0.009348
   4 C   6.0000    0    12.011    2.290663    0.770623    0.005703
   5 O   8.0000    0    15.999   -4.361151    1.592734   -0.006637
   6 C   6.0000    0    12.011   -0.031984    5.087305    0.003530
   7 H   1.0000    0     1.008    1.904862    5.779876    0.011190
   8 H   1.0000    0     1.008   -1.013751    5.764290    1.683221
   9 H   1.0000    0     1.008   -1.002676    5.770588   -1.680043
  10 H   1.0000    0     1.008   -2.256054   -2.960384    1.508374
  11 H   1.0000    0     1.008   -2.240841   -2.981711   -1.503705
  12 H   1.0000    0     1.008    2.213399   -3.043557    1.518788
  13 H   1.0000    0     1.008    2.235299   -3.017989   -1.506879
  14 H   1.0000    0     1.008    3.569799    1.223101    1.507519
  15 H   1.0000    0     1.008    3.518204    1.222316   -1.538800

      -----------------------------------------------------------      
     |                   =====================                   |     
     |                           x T B                           |     
     |                   =====================                   |     
     |                         S. Grimme                         |     
     |          Mulliken Center for Theoretical Chemistry        |     
     |                    University of Bonn                     |     
      -----------------------------------------------------------      

   * xtb version 6.7.1pre (5071a88) compiled by 'Marcel@Raven' on 2024-07-23

   xtb is free software: you can redistribute it and/or modify it under
   the terms of the GNU Lesser General Public License as published by
   the Free Software Foundation, either version 3 of the License, or
   (at your option) any later version.
   
   xtb is distributed in the hope that it will be useful,
   but WITHOUT ANY WARRANTY; without even the implied warranty of
   MERCHANTABILITY or FITNESS FOR A PARTICULAR PURPOSE.  See the
   GNU Lesser General Public License for more details.
   
   Cite this work as:
   * C. Bannwarth, E. Caldeweyher, S. Ehlert, A. Hansen, P. Pracht,
     J. Seibert, S. Spicher, S. Grimme, WIREs Comput. Mol. Sci., 2020, 11,
     e01493. DOI: 10.1002/wcms.1493
   
   for GFN2-xTB:
   * C. Bannwarth, S. Ehlert and S. Grimme., J. Chem. Theory Comput., 2019,
     15, 1652-1671. DOI: 10.1021/acs.jctc.8b01176
   for GFN1-xTB:
   * S. Grimme, C. Bannwarth, P. Shushkov, J. Chem. Theory Comput., 2017,
     13, 1989-2009. DOI: 10.1021/acs.jctc.7b00118
   for GFN0-xTB:
   * P. Pracht, E. Caldeweyher, S. Ehlert, S. Grimme, ChemRxiv, 2019, preprint.
     DOI: 10.26434/chemrxiv.8326202.v1
   for GFN-FF:
   * S. Spicher and S. Grimme, Angew. Chem. Int. Ed., 2020, 59, 15665-15673.
     DOI: 10.1002/anie.202004239
   
   for ALPB and GBSA implicit solvation:
   * S. Ehlert, M. Stahn, S. Spicher, S. Grimme, J. Chem. Theory Comput.,
     2021, 17, 4250-4261. DOI: 10.1021/acs.jctc.1c00471
   
   for ddCOSMO and CPCM-X implicit solvation:
   * M. Stahn, S. Ehlert, S. Grimme, J. Phys. Chem. A,
     2023, XX, XXXX-XXXX. DOI: 10.1021/acs.jpca.3c04382
   
   for DFT-D4:
   * E. Caldeweyher, C. Bannwarth and S. Grimme, J. Chem. Phys., 2017,
     147, 034112. DOI: 10.1063/1.4993215
   * E. Caldeweyher, S. Ehlert, A. Hansen, H. Neugebauer, S. Spicher,
     C. Bannwarth and S. Grimme, J. Chem. Phys., 2019, 150, 154122.
     DOI: 10.1063/1.5090222
   * E. Caldeweyher, J.-M. Mewes, S. Ehlert and S. Grimme, Phys. Chem. Chem. Phys.
     2020, 22, 8499-8512. DOI: 10.1039/D0CP00502A
   
   for sTDA-xTB:
   * S. Grimme and C. Bannwarth, J. Chem. Phys., 2016, 145, 054103.
     DOI: 10.1063/1.4959605
   
   in the mass-spec context:
   * V. Asgeirsson, C. Bauer and S. Grimme, Chem. Sci., 2017, 8, 4879.
     DOI: 10.1039/c7sc00601b
   * J. Koopman and S. Grimme, ACS Omega 2019, 4, 12, 15120-15133.
     DOI: 10.1021/acsomega.9b02011
   
   for metadynamics refer to:
   * S. Grimme, J. Chem. Theory Comput., 2019, 155, 2847-2862
     DOI: 10.1021/acs.jctc.9b00143
   
   for SPH calculations refer to:
   * S. Spicher and S. Grimme, J. Chem. Theory Comput., 2021, 17, 1701-1714
     DOI: 10.1021/acs.jctc.0c01306
   
   for ONIOM refer to:
   * C. Plett, A. Katbashev, S. Ehlert, S. Grimme, M. Bursch,
     Phys. Chem. Chem. Phys., 2023, 25, 17860-17868. DOI: 10.1039/D3CP02178E
   
   for DIPRO refer to:
   * J. Kohn, N. Gildemeister, S. Grimme, D. Fazzi, A. Hansen,
     J. Chem. Phys., 2023, just accepted.
   
   for PTB refer to:
   * S. Grimme, M. Mueller, A. Hansen, J. Chem. Phys., 2023, 158, 124111.
     DOI: 10.1063/5.0137838
   
   with help from (in alphabetical order)
   P. Atkinson, C. Bannwarth, F. Bohle, G. Brandenburg, E. Caldeweyher
   M. Checinski, S. Dohm, S. Ehlert, S. Ehrlich, I. Gerasimov, C. Hﾃｶlzer
   A. Katbashev, J. Kohn, J. Koopman, C. Lavigne, S. Lehtola, F. Mﾃ､rz, M. Mﾃｼller,
   F. Musil, H. Neugebauer, J. Pisarek, C. Plett, P. Pracht, F. Pultar,
   J. Seibert, P. Shushkov, S. Spicher, M. Stahn, M. Steiner, T. Strunk,
   J. Stﾃｼckrath, T. Rose, and J. Unsleber
   
 * started run on 2026/09/12 at 18:03:39.787     
   ID    Z sym.   atoms
    1    7 N      1
    2    6 C      2-5, 7
    3    8 O      6
    4    1 H      8-16

           -------------------------------------------------
          |                Calculation Setup                |
           -------------------------------------------------

          program call               : C:\ORCA_6.1.1\xtb-6.7.1pre\xtb.exe  Monomer_XTB2_ALPB_XTB.xyz --grad -c 0 -u 0 -P 1 --namespace Monomer_XTB2_ALPB --input Monomer_XTB2_ALPB_XTB.input.tmp --acc 0.200000      
          calculation namespace      : Monomer_XTB2_ALPB
          coordinate file            : Monomer_XTB2_ALPB_XTB.xyz
          omp threads                :                     1


           -------------------------------------------------
          |                 G F N 2 - x T B                 |
           -------------------------------------------------

        Reference                      10.1021/acs.jctc.8b01176
      * Hamiltonian:
        H0-scaling (s, p, d)           1.850000    2.230000    2.230000
        zeta-weighting                 0.500000
      * Dispersion:
        s8                             2.700000
        a1                             0.520000
        a2                             5.000000
        s9                             5.000000
      * Repulsion:
        kExp                           1.500000    1.000000
        rExp                           1.000000
      * Coulomb:
        alpha                          2.000000
        third order                    shell-resolved
        anisotropic                    true
        a3                             3.000000
        a5                             4.000000
        cn-shift                       1.200000
        cn-exp                         4.000000
        max-rad                        5.000000

q/qsh data taken from xtbrestart
CAMM data taken from xtbrestart

          ...................................................
          :                      SETUP                      :
          :.................................................:
          :  # basis functions                  37          :
          :  # atomic orbitals                  37          :
          :  # shells                           23          :
          :  # electrons                        40          :
          :  max. iterations                   250          :
          :  Hamiltonian                  GFN2-xTB          :
          :  restarted?                       true          :
          :  GBSA solvation                  false          :
          :  PC potential                    false          :
          :  electronic temp.          300.0000000     K    :
          :  accuracy                    0.2000000          :
          :  -> integral cutoff          0.3198970E+02      :
          :  -> integral neglect         0.2000000E-08      :
          :  -> SCF convergence          0.2000000E-06 Eh   :
          :  -> wf. convergence          0.2000000E-04 e    :
          :  Broyden damping             0.4000000          :
          :  net charge                          0          :
          :  unpaired electrons                  0          :
          ...................................................

 iter      E             dE          RMSdq      gap      omega  full diag
   1    -22.5777639 -0.225778E+02  0.464E-01    4.46       0.0  T
   2    -22.5789732 -0.120935E-02  0.292E-01    4.61       1.0  T
   3    -22.5790878 -0.114599E-03  0.159E-01    4.56       1.0  T
   4    -22.5790961 -0.830754E-05  0.193E-02    4.57       1.3  T
   5    -22.5790968 -0.681791E-06  0.835E-03    4.57       3.0  T
   6    -22.5790969 -0.127682E-06  0.374E-03    4.57       6.7  T
   7    -22.5790970 -0.418280E-07  0.110E-03    4.57      22.7  T
   8    -22.5790970 -0.252734E-08  0.293E-04    4.57      85.2  T
   9    -22.5790970 -0.581970E-10  0.165E-04    4.57     151.8  T
  10    -22.5790970 -0.555787E-10  0.199E-05    4.57    1256.1  T

   *** convergence criteria satisfied after 10 iterations ***

         #    Occupation            Energy/Eh            Energy/eV
      -------------------------------------------------------------
         1        2.0000           -0.6893138             -18.7572
       ...           ...                  ...                  ...
        14        2.0000           -0.4837092             -13.1624
        15        2.0000           -0.4779119             -13.0046
        16        2.0000           -0.4761712             -12.9573
        17        2.0000           -0.4731554             -12.8752
        18        2.0000           -0.4340695             -11.8116
        19        2.0000           -0.3909876             -10.6393
        20        2.0000           -0.3741777             -10.1819 (HOMO)
        21                         -0.2061921              -5.6108 (LUMO)
        22                         -0.0341629              -0.9296
        23                          0.0524282               1.4266
        24                          0.0883754               2.4048
        25                          0.0924282               2.5151
       ...                                ...                  ...
        37                          0.6637225              18.0608
      -------------------------------------------------------------
                  HL-Gap            0.1679856 Eh            4.5711 eV
             Fermi-level           -0.2901849 Eh           -7.8963 eV

 SCC (total)                   0 d,  0 h,  0 min,  0.008 sec
 SCC setup                      ...        0 min,  0.000 sec (  0.000%)
 Dispersion                     ...        0 min,  0.000 sec (  0.000%)
 classical contributions        ...        0 min,  0.000 sec (  0.000%)
 integral evaluation            ...        0 min,  0.001 sec ( 12.499%)
 iterations                     ...        0 min,  0.004 sec ( 50.000%)
 molecular gradient             ...        0 min,  0.003 sec ( 37.501%)
 printout                       ...        0 min,  0.000 sec (  0.000%)

         :::::::::::::::::::::::::::::::::::::::::::::::::::::
         ::                     SUMMARY                     ::
         :::::::::::::::::::::::::::::::::::::::::::::::::::::
         :: total energy             -22.290992903001 Eh    ::
         :: gradient norm              0.099155877561 Eh/a0 ::
         :: HOMO-LUMO gap              4.571121062622 eV    ::
         ::.................................................::
         :: SCC energy               -22.579071157586 Eh    ::
         :: -> isotropic ES            0.036869438892 Eh    ::
         :: -> anisotropic ES          0.003979518627 Eh    ::
         :: -> anisotropic XC          0.007540749798 Eh    ::
         :: -> dispersion             -0.010002715280 Eh    ::
         :: repulsion energy           0.288078254585 Eh    ::
         :: add. restraining           0.000000000000 Eh    ::
         :: total charge               0.000000000000 e     ::
         :::::::::::::::::::::::::::::::::::::::::::::::::::::


Property printout bound to 'properties.out'

           -------------------------------------------------
          | TOTAL ENERGY              -22.290992903001 Eh   |
          | GRADIENT NORM               0.099155877561 Eh/ﾎｱ |
          | HOMO-LUMO GAP               4.571121062622 eV   |
           -------------------------------------------------

------------------------------------------------------------------------
 * finished run on 2026/09/12 at 18:03:39.818     
------------------------------------------------------------------------
 total:
 * wall-time:     0 d,  0 h,  0 min,  0.029 sec
 *  cpu-time:     0 d,  0 h,  0 min,  0.031 sec
 * ratio c/w:     1.078 speedup
 SCF:
 * wall-time:     0 d,  0 h,  0 min,  0.008 sec
 *  cpu-time:     0 d,  0 h,  0 min,  0.000 sec
 * ratio c/w:     0.000 speedup


-------------------------   --------------------
FINAL SINGLE POINT ENERGY       -22.290992903000
-------------------------   --------------------


-------------
DIPOLE MOMENT
-------------
                                X             Y             Z
Total Dipole Moment    :      1.67200      -0.35400       0.00200
                        -----------------------------------------
Magnitude (a.u.)       :      1.70907
Magnitude (Debye)      :      4.34410


------------------
CARTESIAN GRADIENT
------------------

   1   N   :    0.027028445    0.044519562   -0.001064334
   2   C   :   -0.030789264   -0.033945517   -0.000651185
   3   C   :   -0.001944920    0.005897792    0.000233790
   4   C   :   -0.005103406    0.008800657    0.000346707
   5   C   :    0.007797251   -0.020927703    0.001395004
   6   O   :   -0.004478624   -0.003061250    0.000358249
   7   C   :   -0.002009569    0.012180015   -0.000065740
   8   H   :    0.000604480    0.000453532    0.000004760
   9   H   :    0.000831804   -0.001389970    0.000112211
  10   H   :    0.000826686   -0.001307735   -0.000115636
  11   H   :    0.002713384   -0.002116449   -0.025653275
  12   H   :    0.002865243   -0.002203867    0.025692486
  13   H   :    0.000131336   -0.001506394   -0.025827432
  14   H   :    0.000715827   -0.000505300    0.025607716
  15   H   :    0.000972114   -0.002916923   -0.027614826
  16   H   :   -0.000160788   -0.001970450    0.027241506

Difference to translation invariance:
           :    0.0000000000   -0.0000000000    0.0000000000

Difference to rotation invariance:
           :    0.0000000073    0.0000000056    0.0000000072

Norm of the Cartesian gradient     ...    0.0991558776
RMS gradient                       ...    0.0143119182
MAX gradient                       ...    0.0445195622
------------------------------------------------------------------------------
                         ORCA GEOMETRY RELAXATION STEP
------------------------------------------------------------------------------

Reading the OPT-File                    .... done
Getting information on internals        .... done
Copying old internal coords+grads       .... done
Making the new internal coordinates     .... (2022 redundants) done
Validating the new internal coordinates .... (2022 redundants) done
Calculating the B-matrix                .... done
Calculating the G,G- and P matrices     .... done
Transforming gradient to internals      .... done
Projecting the internal gradient        .... done
Number of atoms                         ....  16
Number of internal coordinates          ....  77
Current Energy                          ....   -22.290992903 Eh
Current gradient norm                   ....     0.099155878 Eh/bohr
Maximum allowed component of the step   ....  0.300
Current trust radius                    ....  0.300
Updating the Hessian (BFGS)             .... done
Forming the augmented Hessian           .... done
Diagonalizing the augmented Hessian     .... done
Last element of RFO vector              ....  0.944394802
Lowest eigenvalues of augmented Hessian:
 -0.028154604  0.011919544  0.012223420  0.013026614  0.013554335
Length of the computed step             ....  0.348173998
Warning: the length of the step is outside the trust region - taking restricted step instead
The input lambda is                     ....     0.010917
   iter:   5  x=   -0.049254  g=    1.435418 f(x)=     0.042371
   iter:  10  x=   -0.061149  g=    0.733879 f(x)=     0.000000
The output lambda is                    ....    -0.061149 (10 iterations)
The final length of the internal step   ....  0.300000000
Converting the step to Cartesian space:
 Initial RMS(Int)=    0.0341881729
Transforming coordinates:
 Iter   0:  RMS(Cart)=    0.0584057589 RMS(Int)=    0.0339086648
 Iter   5:  RMS(Cart)=    0.0000000097 RMS(Int)=    0.0000000056
done
Storing new coordinates                 .... done
The predicted energy change is          ....    -0.015108517
Previously predicted energy change      ....    -0.037951212
Actually observed energy change         ....    -0.039563315
Ratio of predicted to observed change   ....     1.042478316
New trust radius                        ....     0.450000000

                                .--------------------.
          ----------------------|Geometry convergence|-------------------------
          Item                value                   Tolerance       Converged
          ---------------------------------------------------------------------
          Energy change      -0.0395633154            0.0000050000      NO
          RMS gradient        0.0099456870            0.0001000000      NO
          MAX gradient        0.0494274815            0.0003000000      NO
          RMS step            0.0341881729            0.0020000000      NO
          MAX step            0.1570633663            0.0040000000      NO
          -------------------------------------------------------------------------
          ........................................................
          Max(Bonds)      0.0831      Max(Angles)    4.50
          Max(Dihed)        4.00      Max(Improp)    0.00
          ---------------------------------------------------------------------

The optimization has not yet converged - more geometry cycles are needed


    ---------------------------------------------------------------------------
                         Redundant Internal Coordinates
                            (Angstroem and degrees)

        Definition                    Value    dE/dq     Step     New-Value
    ----------------------------------------------------------------------------
     1. B(C   1,N   0)                1.4323  0.049427 -0.0831    1.3491   
     2. B(C   2,C   1)                1.4956 -0.002531  0.0058    1.5013   
     3. B(C   3,C   2)                1.5103 -0.004498  0.0077    1.5180   
     4. B(C   4,N   0)                1.4728  0.018541 -0.0311    1.4416   
     5. B(C   4,C   3)                1.5099 -0.005772  0.0092    1.5192   
     6. B(O   5,C   1)                1.2074  0.003139 -0.0015    1.2059   
     7. B(C   6,N   0)                1.4488  0.009932 -0.0126    1.4362   
     8. B(H   7,C   6)                1.0885  0.000722 -0.0010    1.0875   
     9. B(H   8,C   6)                1.0901 -0.000762  0.0016    1.0917   
    10. B(H   9,C   6)                1.0901 -0.000729  0.0015    1.0916   
    11. B(H  10,C   2)                1.0687 -0.019193  0.0224    1.0910   
    12. B(H  11,C   2)                1.0687 -0.019110  0.0222    1.0909   
    13. B(H  12,C   3)                1.0694 -0.018425  0.0208    1.0902   
    14. B(H  13,C   3)                1.0694 -0.018661  0.0212    1.0906   
    15. B(H  14,C   4)                1.0710 -0.020529  0.0239    1.0949   
    16. B(H  15,C   4)                1.0710 -0.021326  0.0253    1.0963   
    17. A(C   1,N   0,C   6)          124.25  0.008439   -1.35    122.90   
    18. A(C   1,N   0,C   4)          110.54 -0.017840    3.24    113.78   
    19. A(C   4,N   0,C   6)          125.21  0.009402   -1.89    123.32   
    20. A(N   0,C   1,C   2)          108.47 -0.000206    0.04    108.51   
    21. A(N   0,C   1,O   5)          124.81  0.005167   -0.75    124.05   
    22. A(C   2,C   1,O   5)          126.72 -0.004950    0.71    127.44   
    23. A(C   1,C   2,C   3)          107.25  0.003535   -0.70    106.55   
    24. A(H  10,C   2,H  11)           96.45 -0.011888    3.89    100.34   
    25. A(C   3,C   2,H  11)          113.62  0.000839   -0.27    113.35   
    26. A(C   1,C   2,H  11)          113.10  0.001831   -0.90    112.20   
    27. A(C   3,C   2,H  10)          113.76 -0.000506   -0.20    113.56   
    28. A(C   1,C   2,H  10)          112.61  0.005196   -1.47    111.14   
    29. A(C   4,C   3,H  13)          112.53  0.007540   -1.24    111.29   
    30. A(C   2,C   3,H  13)          113.72 -0.003042   -0.17    113.55   
    31. A(C   4,C   3,H  12)          113.60 -0.001011   -0.37    113.23   
    32. A(C   2,C   3,H  12)          113.40  0.000174   -0.42    112.98   
    33. A(H  12,C   3,H  13)           96.94 -0.014716    4.27    101.21   
    34. A(C   2,C   3,C   4)          106.70  0.009228   -1.55    105.15   
    35. A(N   0,C   4,H  15)          111.77  0.011035   -1.76    110.01   
    36. A(C   3,C   4,H  14)          113.73 -0.000787   -0.09    113.65   
    37. A(N   0,C   4,H  14)          113.30  0.000993   -0.78    112.52   
    38. A(C   3,C   4,H  15)          113.35  0.000296   -0.44    112.91   
    39. A(N   0,C   4,C   3)          107.05  0.005284   -1.03    106.02   
    40. A(H  14,C   4,H  15)           97.65 -0.017909    4.50    102.15   
    41. A(H   8,C   6,H   9)          109.44  0.001849   -0.54    108.90   
    42. A(H   7,C   6,H   9)          109.58  0.000075   -0.03    109.55   
    43. A(N   0,C   6,H   9)          109.60 -0.001378    0.28    109.88   
    44. A(H   7,C   6,H   8)          109.58  0.000259   -0.05    109.52   
    45. A(N   0,C   6,H   8)          109.60 -0.001442    0.31    109.91   
    46. A(N   0,C   6,H   7)          109.03  0.000627    0.03    109.06   
    47. D(O   5,C   1,N   0,C   4)    179.71  0.001227   -0.25    179.46   
    48. D(C   2,C   1,N   0,C   6)   -179.76 -0.001020    0.44   -179.31   
    49. D(O   5,C   1,N   0,C   6)     -0.17  0.000500   -0.03     -0.20   
    50. D(C   2,C   1,N   0,C   4)      0.13 -0.000293    0.22      0.35   
    51. D(C   3,C   2,C   1,O   5)   -179.63 -0.001592    0.39   -179.25   
    52. D(H  10,C   2,C   1,N   0)    125.83  0.005538   -1.96    123.87   
    53. D(H  11,C   2,C   1,N   0)   -126.11 -0.005001    1.46   -124.65   
    54. D(H  10,C   2,C   1,O   5)    -53.74  0.003927   -1.48    -55.22   
    55. D(C   3,C   2,C   1,N   0)     -0.06  0.000018   -0.09     -0.15   
    56. D(H  12,C   3,C   2,H  10)      0.59 -0.003077    0.55      1.14   
    57. D(C   4,C   3,C   2,H  11)    125.71  0.005878   -2.00    123.71   
    58. D(C   4,C   3,C   2,H  10)   -125.23 -0.008818    2.55   -122.68   
    59. D(C   4,C   3,C   2,C   1)     -0.03  0.000227   -0.07     -0.10   
    60. D(H  12,C   3,C   2,H  11)   -108.47  0.011619   -4.00   -112.47   
    61. D(H  12,C   3,C   2,C   1)    125.79  0.005968   -2.07    123.72   
    62. D(H  14,C   4,C   3,H  13)   -108.58  0.012210   -3.99   -112.57   
    63. D(H  14,C   4,C   3,H  12)      0.34 -0.002073    0.34      0.68   
    64. D(H  14,C   4,C   3,C   2)    126.03  0.004414   -1.69    124.34   
    65. D(N   0,C   4,C   3,H  12)   -125.59 -0.006854    2.24   -123.36   
    66. D(N   0,C   4,C   3,C   2)      0.11 -0.000367    0.20      0.31   
    67. D(H  15,C   4,N   0,C   1)    124.52  0.011656   -2.85    121.67   
    68. D(N   0,C   4,C   3,H  13)    125.50  0.007429   -2.10    123.40   
    69. D(H  14,C   4,N   0,C   6)     53.55 -0.002511    1.00     54.55   
    70. D(H  14,C   4,N   0,C   1)   -126.33 -0.003244    1.22   -125.11   
    71. D(C   3,C   4,N   0,C   6)    179.74  0.001168   -0.48    179.25   
    72. D(C   3,C   4,N   0,C   1)     -0.15  0.000434   -0.27     -0.41   
    73. D(H   8,C   6,N   0,C   4)   -119.87 -0.000307    0.03   -119.84   
    74. D(H   8,C   6,N   0,C   1)     59.99  0.000495   -0.22     59.78   
    75. D(H   7,C   6,N   0,C   4)      0.07 -0.000478    0.18      0.24   
    76. D(H   9,C   6,N   0,C   1)    -60.13 -0.000033    0.08    -60.05   
    77. D(H   7,C   6,N   0,C   1)    179.93  0.000324   -0.08    179.86   
    ----------------------------------------------------------------------------

Geometry step timings:
Preparation and reading OPT file:      0.005 s (45.455 %)
Internal coordinates            :      0.000 s ( 0.000 %)
B/P matrices and projection     :      0.001 s ( 9.091 %)
Hessian update/contruction      :      0.002 s (18.182 %)
Making the step                 :      0.001 s ( 9.091 %)
Converting the step to Cartesian:      0.000 s ( 0.000 %)
Storing new data                :      0.000 s ( 0.000 %)
Checking convergence            :      0.000 s ( 0.000 %)
Final printing                  :      0.002 s (18.182 %)
Total time                      :      0.011 s

Time for energy+gradient        :      0.079 s
Time for complete geometry iter :      0.110 s

         *************************************************************
         *                GEOMETRY OPTIMIZATION CYCLE   3            *
         *************************************************************
---------------------------------
CARTESIAN COORDINATES (ANGSTROEM)
---------------------------------
  N    -0.009714    1.196105   -0.003538
  C    -1.134839    0.451635   -0.011407
  C    -0.746904   -0.998325   -0.001684
  C     0.770320   -1.037921    0.009394
  C     1.204352    0.418130    0.003034
  O    -2.249278    0.912270   -0.008880
  C    -0.025541    2.632189    0.004916
  H     0.998364    2.998628    0.012530
  H    -0.548798    2.993070    0.892473
  H    -0.539513    3.003058   -0.883862
  H    -1.201811   -1.521467    0.840746
  H    -1.187296   -1.548182   -0.834570
  H     1.174219   -1.602408    0.850128
  H     1.196385   -1.580870   -0.835111
  H     1.865775    0.681612    0.834846
  H     1.817279    0.674477   -0.869015

----------------------------
CARTESIAN COORDINATES (A.U.)
----------------------------
  NO LB    ZA    FRAG    MASS        X           Y           Z
   0 N   7.0000    0    14.007   -0.018356    2.260311   -0.006686
   1 C   6.0000    0    12.011   -2.144535    0.853467   -0.021556
   2 C   6.0000    0    12.011   -1.411444   -1.886560   -0.003182
   3 C   6.0000    0    12.011    1.455695   -1.961387    0.017752
   4 C   6.0000    0    12.011    2.275895    0.790151    0.005734
   5 O   8.0000    0    15.999   -4.250520    1.723940   -0.016780
   6 C   6.0000    0    12.011   -0.048265    4.974116    0.009289
   7 H   1.0000    0     1.008    1.886634    5.666585    0.023678
   8 H   1.0000    0     1.008   -1.037077    5.656083    1.686530
   9 H   1.0000    0     1.008   -1.019532    5.674956   -1.670257
  10 H   1.0000    0     1.008   -2.271095   -2.875155    1.588779
  11 H   1.0000    0     1.008   -2.243665   -2.925640   -1.577109
  12 H   1.0000    0     1.008    2.218953   -3.028111    1.606510
  13 H   1.0000    0     1.008    2.260840   -2.987412   -1.578132
  14 H   1.0000    0     1.008    3.525805    1.288059    1.577630
  15 H   1.0000    0     1.008    3.434159    1.274576   -1.642200

      -----------------------------------------------------------      
     |                   =====================                   |     
     |                           x T B                           |     
     |                   =====================                   |     
     |                         S. Grimme                         |     
     |          Mulliken Center for Theoretical Chemistry        |     
     |                    University of Bonn                     |     
      -----------------------------------------------------------      

   * xtb version 6.7.1pre (5071a88) compiled by 'Marcel@Raven' on 2024-07-23

   xtb is free software: you can redistribute it and/or modify it under
   the terms of the GNU Lesser General Public License as published by
   the Free Software Foundation, either version 3 of the License, or
   (at your option) any later version.
   
   xtb is distributed in the hope that it will be useful,
   but WITHOUT ANY WARRANTY; without even the implied warranty of
   MERCHANTABILITY or FITNESS FOR A PARTICULAR PURPOSE.  See the
   GNU Lesser General Public License for more details.
   
   Cite this work as:
   * C. Bannwarth, E. Caldeweyher, S. Ehlert, A. Hansen, P. Pracht,
     J. Seibert, S. Spicher, S. Grimme, WIREs Comput. Mol. Sci., 2020, 11,
     e01493. DOI: 10.1002/wcms.1493
   
   for GFN2-xTB:
   * C. Bannwarth, S. Ehlert and S. Grimme., J. Chem. Theory Comput., 2019,
     15, 1652-1671. DOI: 10.1021/acs.jctc.8b01176
   for GFN1-xTB:
   * S. Grimme, C. Bannwarth, P. Shushkov, J. Chem. Theory Comput., 2017,
     13, 1989-2009. DOI: 10.1021/acs.jctc.7b00118
   for GFN0-xTB:
   * P. Pracht, E. Caldeweyher, S. Ehlert, S. Grimme, ChemRxiv, 2019, preprint.
     DOI: 10.26434/chemrxiv.8326202.v1
   for GFN-FF:
   * S. Spicher and S. Grimme, Angew. Chem. Int. Ed., 2020, 59, 15665-15673.
     DOI: 10.1002/anie.202004239
   
   for ALPB and GBSA implicit solvation:
   * S. Ehlert, M. Stahn, S. Spicher, S. Grimme, J. Chem. Theory Comput.,
     2021, 17, 4250-4261. DOI: 10.1021/acs.jctc.1c00471
   
   for ddCOSMO and CPCM-X implicit solvation:
   * M. Stahn, S. Ehlert, S. Grimme, J. Phys. Chem. A,
     2023, XX, XXXX-XXXX. DOI: 10.1021/acs.jpca.3c04382
   
   for DFT-D4:
   * E. Caldeweyher, C. Bannwarth and S. Grimme, J. Chem. Phys., 2017,
     147, 034112. DOI: 10.1063/1.4993215
   * E. Caldeweyher, S. Ehlert, A. Hansen, H. Neugebauer, S. Spicher,
     C. Bannwarth and S. Grimme, J. Chem. Phys., 2019, 150, 154122.
     DOI: 10.1063/1.5090222
   * E. Caldeweyher, J.-M. Mewes, S. Ehlert and S. Grimme, Phys. Chem. Chem. Phys.
     2020, 22, 8499-8512. DOI: 10.1039/D0CP00502A
   
   for sTDA-xTB:
   * S. Grimme and C. Bannwarth, J. Chem. Phys., 2016, 145, 054103.
     DOI: 10.1063/1.4959605
   
   in the mass-spec context:
   * V. Asgeirsson, C. Bauer and S. Grimme, Chem. Sci., 2017, 8, 4879.
     DOI: 10.1039/c7sc00601b
   * J. Koopman and S. Grimme, ACS Omega 2019, 4, 12, 15120-15133.
     DOI: 10.1021/acsomega.9b02011
   
   for metadynamics refer to:
   * S. Grimme, J. Chem. Theory Comput., 2019, 155, 2847-2862
     DOI: 10.1021/acs.jctc.9b00143
   
   for SPH calculations refer to:
   * S. Spicher and S. Grimme, J. Chem. Theory Comput., 2021, 17, 1701-1714
     DOI: 10.1021/acs.jctc.0c01306
   
   for ONIOM refer to:
   * C. Plett, A. Katbashev, S. Ehlert, S. Grimme, M. Bursch,
     Phys. Chem. Chem. Phys., 2023, 25, 17860-17868. DOI: 10.1039/D3CP02178E
   
   for DIPRO refer to:
   * J. Kohn, N. Gildemeister, S. Grimme, D. Fazzi, A. Hansen,
     J. Chem. Phys., 2023, just accepted.
   
   for PTB refer to:
   * S. Grimme, M. Mueller, A. Hansen, J. Chem. Phys., 2023, 158, 124111.
     DOI: 10.1063/5.0137838
   
   with help from (in alphabetical order)
   P. Atkinson, C. Bannwarth, F. Bohle, G. Brandenburg, E. Caldeweyher
   M. Checinski, S. Dohm, S. Ehlert, S. Ehrlich, I. Gerasimov, C. Hﾃｶlzer
   A. Katbashev, J. Kohn, J. Koopman, C. Lavigne, S. Lehtola, F. Mﾃ､rz, M. Mﾃｼller,
   F. Musil, H. Neugebauer, J. Pisarek, C. Plett, P. Pracht, F. Pultar,
   J. Seibert, P. Shushkov, S. Spicher, M. Stahn, M. Steiner, T. Strunk,
   J. Stﾃｼckrath, T. Rose, and J. Unsleber
   
 * started run on 2026/09/12 at 18:03:39.899     
   ID    Z sym.   atoms
    1    7 N      1
    2    6 C      2-5, 7
    3    8 O      6
    4    1 H      8-16

           -------------------------------------------------
          |                Calculation Setup                |
           -------------------------------------------------

          program call               : C:\ORCA_6.1.1\xtb-6.7.1pre\xtb.exe  Monomer_XTB2_ALPB_XTB.xyz --grad -c 0 -u 0 -P 1 --namespace Monomer_XTB2_ALPB --input Monomer_XTB2_ALPB_XTB.input.tmp --acc 0.200000      
          calculation namespace      : Monomer_XTB2_ALPB
          coordinate file            : Monomer_XTB2_ALPB_XTB.xyz
          omp threads                :                     1


           -------------------------------------------------
          |                 G F N 2 - x T B                 |
           -------------------------------------------------

        Reference                      10.1021/acs.jctc.8b01176
      * Hamiltonian:
        H0-scaling (s, p, d)           1.850000    2.230000    2.230000
        zeta-weighting                 0.500000
      * Dispersion:
        s8                             2.700000
        a1                             0.520000
        a2                             5.000000
        s9                             5.000000
      * Repulsion:
        kExp                           1.500000    1.000000
        rExp                           1.000000
      * Coulomb:
        alpha                          2.000000
        third order                    shell-resolved
        anisotropic                    true
        a3                             3.000000
        a5                             4.000000
        cn-shift                       1.200000
        cn-exp                         4.000000
        max-rad                        5.000000

q/qsh data taken from xtbrestart
CAMM data taken from xtbrestart

          ...................................................
          :                      SETUP                      :
          :.................................................:
          :  # basis functions                  37          :
          :  # atomic orbitals                  37          :
          :  # shells                           23          :
          :  # electrons                        40          :
          :  max. iterations                   250          :
          :  Hamiltonian                  GFN2-xTB          :
          :  restarted?                       true          :
          :  GBSA solvation                  false          :
          :  PC potential                    false          :
          :  electronic temp.          300.0000000     K    :
          :  accuracy                    0.2000000          :
          :  -> integral cutoff          0.3198970E+02      :
          :  -> integral neglect         0.2000000E-08      :
          :  -> SCF convergence          0.2000000E-06 Eh   :
          :  -> wf. convergence          0.2000000E-04 e    :
          :  Broyden damping             0.4000000          :
          :  net charge                          0          :
          :  unpaired electrons                  0          :
          ...................................................

 iter      E             dE          RMSdq      gap      omega  full diag
   1    -22.5855817 -0.225856E+02  0.524E-01    5.00       0.0  T
   2    -22.5875386 -0.195686E-02  0.326E-01    5.17       1.0  T
   3    -22.5876757 -0.137147E-03  0.181E-01    5.14       1.0  T
   4    -22.5876790 -0.326464E-05  0.150E-02    5.14       1.7  T
   5    -22.5876800 -0.977398E-06  0.812E-03    5.14       3.1  T
   6    -22.5876801 -0.836496E-07  0.267E-03    5.14       9.4  T
   7    -22.5876801 -0.123501E-07  0.859E-04    5.14      29.1  T
   8    -22.5876801 -0.185184E-08  0.265E-04    5.14      94.4  T
   9    -22.5876801 -0.984883E-10  0.144E-04    5.14     173.1  T
  10    -22.5876801 -0.309406E-10  0.299E-05    5.14     835.8  T

   *** convergence criteria satisfied after 10 iterations ***

         #    Occupation            Energy/Eh            Energy/eV
      -------------------------------------------------------------
         1        2.0000           -0.6894869             -18.7619
       ...           ...                  ...                  ...
        14        2.0000           -0.4822159             -13.1218
        15        2.0000           -0.4786307             -13.0242
        16        2.0000           -0.4771255             -12.9832
        17        2.0000           -0.4720106             -12.8441
        18        2.0000           -0.4372853             -11.8991
        19        2.0000           -0.3854401             -10.4884
        20        2.0000           -0.3814367             -10.3794 (HOMO)
        21                         -0.1925098              -5.2385 (LUMO)
        22                         -0.0026818              -0.0730
        23                          0.0562708               1.5312
        24                          0.0725087               1.9731
        25                          0.0964646               2.6249
       ...                                ...                  ...
        37                          0.6904414              18.7879
      -------------------------------------------------------------
                  HL-Gap            0.1889269 Eh            5.1410 eV
             Fermi-level           -0.2869733 Eh           -7.8089 eV

 SCC (total)                   0 d,  0 h,  0 min,  0.009 sec
 SCC setup                      ...        0 min,  0.000 sec (  0.000%)
 Dispersion                     ...        0 min,  0.000 sec (  0.000%)
 classical contributions        ...        0 min,  0.000 sec (  0.000%)
 integral evaluation            ...        0 min,  0.002 sec ( 22.223%)
 iterations                     ...        0 min,  0.003 sec ( 33.331%)
 molecular gradient             ...        0 min,  0.004 sec ( 44.446%)
 printout                       ...        0 min,  0.000 sec (  0.000%)

         :::::::::::::::::::::::::::::::::::::::::::::::::::::
         ::                     SUMMARY                     ::
         :::::::::::::::::::::::::::::::::::::::::::::::::::::
         :: total energy             -22.306175266135 Eh    ::
         :: gradient norm              0.043002368643 Eh/a0 ::
         :: HOMO-LUMO gap              5.140963530381 eV    ::
         ::.................................................::
         :: SCC energy               -22.587655255993 Eh    ::
         :: -> isotropic ES            0.039046512483 Eh    ::
         :: -> anisotropic ES          0.003519852250 Eh    ::
         :: -> anisotropic XC          0.007646404469 Eh    ::
         :: -> dispersion             -0.010109683091 Eh    ::
         :: repulsion energy           0.281479989859 Eh    ::
         :: add. restraining           0.000000000000 Eh    ::
         :: total charge               0.000000000000 e     ::
         :::::::::::::::::::::::::::::::::::::::::::::::::::::


Property printout bound to 'properties.out'

           -------------------------------------------------
          | TOTAL ENERGY              -22.306175266135 Eh   |
          | GRADIENT NORM               0.043002368643 Eh/ﾎｱ |
          | HOMO-LUMO GAP               5.140963530381 eV   |
           -------------------------------------------------

------------------------------------------------------------------------
 * finished run on 2026/09/12 at 18:03:39.931     
------------------------------------------------------------------------
 total:
 * wall-time:     0 d,  0 h,  0 min,  0.029 sec
 *  cpu-time:     0 d,  0 h,  0 min,  0.031 sec
 * ratio c/w:     1.078 speedup
 SCF:
 * wall-time:     0 d,  0 h,  0 min,  0.009 sec
 *  cpu-time:     0 d,  0 h,  0 min,  0.000 sec
 * ratio c/w:     0.000 speedup


-------------------------   --------------------
FINAL SINGLE POINT ENERGY       -22.306175266130
-------------------------   --------------------


-------------
DIPOLE MOMENT
-------------
                                X             Y             Z
Total Dipole Moment    :      1.74900      -0.29200       0.00700
                        -----------------------------------------
Magnitude (a.u.)       :      1.77322
Magnitude (Debye)      :      4.50717


------------------
CARTESIAN GRADIENT
------------------

   1   N   :   -0.003222911    0.009471917   -0.002163356
   2   C   :   -0.003832576   -0.005713738   -0.001112366
   3   C   :    0.007076859    0.019612209    0.000160332
   4   C   :   -0.009013005    0.012428712    0.000979017
   5   C   :   -0.012861816   -0.012367870    0.003211306
   6   O   :    0.010669750   -0.001960006    0.000751507
   7   C   :   -0.001932941   -0.000343727   -0.000048053
   8   H   :    0.000121972   -0.000713534    0.000027689
   9   H   :    0.000574326   -0.000952731    0.000597792
  10   H   :    0.000559279   -0.000906929   -0.000589791
  11   H   :   -0.002359043   -0.005536953   -0.007908332
  12   H   :   -0.001871099   -0.006152701    0.008095794
  13   H   :    0.003353131   -0.005882352   -0.007877867
  14   H   :    0.004763801   -0.003701387    0.007304026
  15   H   :    0.005355739    0.000613025   -0.008630235
  16   H   :    0.002618533    0.002106066    0.007202535

Difference to translation invariance:
           :    0.0000000000    0.0000000000    0.0000000000

Difference to rotation invariance:
           :    0.0000000061    0.0000000044    0.0000000279

Norm of the Cartesian gradient     ...    0.0430023686
RMS gradient                       ...    0.0062068573
MAX gradient                       ...    0.0196122092
------------------------------------------------------------------------------
                         ORCA GEOMETRY RELAXATION STEP
------------------------------------------------------------------------------

Reading the OPT-File                    .... done
Getting information on internals        .... done
Copying old internal coords+grads       .... done
Making the new internal coordinates     .... (2022 redundants) done
Validating the new internal coordinates .... (2022 redundants) done
Calculating the B-matrix                .... done
Calculating the G,G- and P matrices     .... done
Transforming gradient to internals      .... done
Projecting the internal gradient        .... done
Number of atoms                         ....  16
Number of internal coordinates          ....  77
Current Energy                          ....   -22.306175266 Eh
Current gradient norm                   ....     0.043002369 Eh/bohr
Maximum allowed component of the step   ....  0.300
Current trust radius                    ....  0.450
Updating the Hessian (BFGS)             .... done
Forming the augmented Hessian           .... done
Diagonalizing the augmented Hessian     .... done
Last element of RFO vector              ....  0.981008426
Lowest eigenvalues of augmented Hessian:
 -0.004511676  0.011927105  0.012258347  0.013026255  0.013554887
Length of the computed step             ....  0.197720137
The final length of the internal step   ....  0.197720137
Converting the step to Cartesian space:
 Initial RMS(Int)=    0.0225323008
Transforming coordinates:
 Iter   0:  RMS(Cart)=    0.0213073398 RMS(Int)=    1.0102077098
done
Storing new coordinates                 .... done
The predicted energy change is          ....    -0.002344026
Previously predicted energy change      ....    -0.015108517
Actually observed energy change         ....    -0.015182363
Ratio of predicted to observed change   ....     1.004887707
New trust radius                        ....     0.675000000

                                .--------------------.
          ----------------------|Geometry convergence|-------------------------
          Item                value                   Tolerance       Converged
          ---------------------------------------------------------------------
          Energy change      -0.0151823631            0.0000050000      NO
          RMS gradient        0.0031447921            0.0001000000      NO
          MAX gradient        0.0106077324            0.0003000000      NO
          RMS step            0.0225323008            0.0020000000      NO
          MAX step            0.0712875887            0.0040000000      NO
          -------------------------------------------------------------------------
          ........................................................
          Max(Bonds)      0.0115      Max(Angles)    3.51
          Max(Dihed)        4.08      Max(Improp)    0.00
          ---------------------------------------------------------------------

The optimization has not yet converged - more geometry cycles are needed


    ---------------------------------------------------------------------------
                         Redundant Internal Coordinates
                            (Angstroem and degrees)

        Definition                    Value    dE/dq     Step     New-Value
    ----------------------------------------------------------------------------
     1. B(C   1,N   0)                1.3491 -0.003256 -0.0053    1.3439   
     2. B(C   2,C   1)                1.5010 -0.005607  0.0095    1.5105   
     3. B(C   3,C   2)                1.5178 -0.004226  0.0088    1.5266   
     4. B(C   4,N   0)                1.4420  0.001081 -0.0062    1.4358   
     5. B(C   4,C   3)                1.5194 -0.006096  0.0115    1.5309   
     6. B(O   5,C   1)                1.2059 -0.010608  0.0065    1.2124   
     7. B(C   6,N   0)                1.4362 -0.002909  0.0034    1.4396   
     8. B(H   7,C   6)                1.0875 -0.000125  0.0002    1.0877   
     9. B(H   8,C   6)                1.0917 -0.000104  0.0004    1.0921   
    10. B(H   9,C   6)                1.0916 -0.000091  0.0004    1.0920   
    11. B(H  10,C   2)                1.0910 -0.002468  0.0055    1.0965   
    12. B(H  11,C   2)                1.0909 -0.002325  0.0053    1.0961   
    13. B(H  12,C   3)                1.0902 -0.001787  0.0043    1.0945   
    14. B(H  13,C   3)                1.0906 -0.001952  0.0046    1.0952   
    15. B(H  14,C   4)                1.0949 -0.003174  0.0066    1.1015   
    16. B(H  15,C   4)                1.0963 -0.003773  0.0077    1.1040   
    17. A(C   1,N   0,C   6)          122.86  0.001613   -0.46    122.40   
    18. A(C   1,N   0,C   4)          113.86 -0.004717    1.32    115.18   
    19. A(C   4,N   0,C   6)          123.28  0.003106   -0.86    122.42   
    20. A(N   0,C   1,C   2)          108.51  0.002312   -0.31    108.20   
    21. A(N   0,C   1,O   5)          124.05 -0.003719    0.49    124.54   
    22. A(C   2,C   1,O   5)          127.43  0.001416   -0.19    127.25   
    23. A(C   1,C   2,C   3)          106.48  0.001045   -0.46    106.01   
    24. A(H  10,C   2,H  11)          100.34 -0.006945    3.51    103.85   
    25. A(C   3,C   2,H  11)          113.33  0.000614   -0.20    113.12   
    26. A(C   1,C   2,H  11)          112.19  0.001788   -1.11    111.08   
    27. A(C   3,C   2,H  10)          113.49  0.000302   -0.32    113.18   
    28. A(C   1,C   2,H  10)          111.13  0.003109   -1.18    109.95   
    29. A(C   4,C   3,H  13)          111.24  0.003374   -0.62    110.62   
    30. A(C   2,C   3,H  13)          113.44  0.001862   -0.95    112.50   
    31. A(C   4,C   3,H  12)          113.18  0.001937   -1.06    112.12   
    32. A(C   2,C   3,H  12)          112.92  0.002384   -0.90    112.02   
    33. A(H  12,C   3,H  13)          101.22 -0.007825    3.35    104.57   
    34. A(C   2,C   3,C   4)          105.10 -0.001445    0.22    105.32   
    35. A(N   0,C   4,H  15)          109.93  0.002231   -0.18    109.75   
    36. A(C   3,C   4,H  14)          113.58  0.000212   -0.56    113.02   
    37. A(N   0,C   4,H  14)          112.47  0.000729   -1.07    111.40   
    38. A(C   3,C   4,H  15)          112.78  0.001524   -0.42    112.36   
    39. A(N   0,C   4,C   3)          106.05  0.002807   -0.77    105.29   
    40. A(H  14,C   4,H  15)          102.14 -0.007590    3.23    105.37   
    41. A(H   8,C   6,H   9)          108.90  0.001694   -0.56    108.34   
    42. A(H   7,C   6,H   9)          109.54  0.000431   -0.07    109.47   
    43. A(N   0,C   6,H   9)          109.88 -0.000870    0.20    110.08   
    44. A(H   7,C   6,H   8)          109.52  0.000581   -0.07    109.45   
    45. A(N   0,C   6,H   8)          109.91 -0.000872    0.22    110.14   
    46. A(N   0,C   6,H   7)          109.06 -0.000954    0.28    109.34   
    47. D(O   5,C   1,N   0,C   4)    179.49  0.000387    1.03    180.53   
    48. D(C   2,C   1,N   0,C   6)   -179.31 -0.000693    0.06   -179.25   
    49. D(O   5,C   1,N   0,C   6)     -0.19 -0.000032    1.14      0.95   
    50. D(C   2,C   1,N   0,C   4)      0.37 -0.000274   -0.05      0.32   
    51. D(C   3,C   2,C   1,O   5)   -179.24 -0.000633   -0.85   -180.08   
    52. D(H  10,C   2,C   1,N   0)    123.90  0.002992   -1.36    122.54   
    53. D(H  11,C   2,C   1,N   0)   -124.66 -0.002644    1.63   -123.03   
    54. D(H  10,C   2,C   1,O   5)    -55.18  0.002359   -2.43    -57.62   
    55. D(C   3,C   2,C   1,N   0)     -0.15 -0.000001    0.22      0.07   
    56. D(H  12,C   3,C   2,H  10)      1.16 -0.001755   -0.03      1.13   
    57. D(C   4,C   3,C   2,H  11)    123.71  0.003629   -2.25    121.45   
    58. D(C   4,C   3,C   2,H  10)   -122.67 -0.004619    1.80   -120.87   
    59. D(C   4,C   3,C   2,C   1)     -0.10  0.000221   -0.31     -0.41   
    60. D(H  12,C   3,C   2,H  11)   -112.46  0.006493   -4.08   -116.55   
    61. D(H  12,C   3,C   2,C   1)    123.73  0.003085   -2.14    121.59   
    62. D(H  14,C   4,C   3,H  13)   -112.52  0.006014   -3.54   -116.06   
    63. D(H  14,C   4,C   3,H  12)      0.66 -0.000423   -0.39      0.27   
    64. D(H  14,C   4,C   3,C   2)    124.32  0.002727   -2.13    122.19   
    65. D(N   0,C   4,C   3,H  12)   -123.37 -0.003506    2.02   -121.36   
    66. D(N   0,C   4,C   3,C   2)      0.30 -0.000356    0.27      0.57   
    67. D(H  15,C   4,N   0,C   1)    121.78  0.005226   -1.30    120.48   
    68. D(N   0,C   4,C   3,H  13)    123.45  0.002931   -1.14    122.31   
    69. D(H  14,C   4,N   0,C   6)     54.54 -0.001879    1.84     56.38   
    70. D(H  14,C   4,N   0,C   1)   -125.14 -0.002295    1.95   -123.19   
    71. D(C   3,C   4,N   0,C   6)    179.25  0.000825   -0.25    179.00   
    72. D(C   3,C   4,N   0,C   1)     -0.42  0.000408   -0.15     -0.57   
    73. D(H   8,C   6,N   0,C   4)   -119.86  0.000101   -0.10   -119.95   
    74. D(H   8,C   6,N   0,C   1)     59.79  0.000535   -0.21     59.58   
    75. D(H   7,C   6,N   0,C   4)      0.23 -0.000308    0.13      0.35   
    76. D(H   9,C   6,N   0,C   1)    -60.04 -0.000466    0.22    -59.82   
    77. D(H   7,C   6,N   0,C   1)    179.87  0.000125    0.01    179.88   
    ----------------------------------------------------------------------------

Geometry step timings:
Preparation and reading OPT file:      0.006 s (54.545 %)
Internal coordinates            :      0.000 s ( 0.000 %)
B/P matrices and projection     :      0.000 s ( 0.000 %)
Hessian update/contruction      :      0.002 s (18.182 %)
Making the step                 :      0.001 s ( 9.091 %)
Converting the step to Cartesian:      0.000 s ( 0.000 %)
Storing new data                :      0.000 s ( 0.000 %)
Checking convergence            :      0.001 s ( 9.091 %)
Final printing                  :      0.001 s ( 9.091 %)
Total time                      :      0.011 s

Time for energy+gradient        :      0.100 s
Time for complete geometry iter :      0.132 s

         *************************************************************
         *                GEOMETRY OPTIMIZATION CYCLE   4            *
         *************************************************************
---------------------------------
CARTESIAN COORDINATES (ANGSTROEM)
---------------------------------
  N    -0.006203    1.181290   -0.004148
  C    -1.133659    0.450204   -0.007984
  C    -0.749327   -1.010499   -0.001781
  C     0.776922   -1.043505    0.008496
  C     1.213556    0.423869   -0.002668
  O    -2.253726    0.914158   -0.018677
  C    -0.020533    2.620793    0.007320
  H     1.002132    2.991211    0.010452
  H    -0.541812    2.984519    0.895384
  H    -0.541424    2.997632   -0.875359
  H    -1.196074   -1.510437    0.865863
  H    -1.184528   -1.535507   -0.859965
  H     1.168676   -1.582191    0.876995
  H     1.189839   -1.575236   -0.855368
  H     1.848528    0.688806    0.857562
  H     1.810632    0.676893   -0.896123

----------------------------
CARTESIAN COORDINATES (A.U.)
----------------------------
  NO LB    ZA    FRAG    MASS        X           Y           Z
   0 N   7.0000    0    14.007   -0.011721    2.232314   -0.007839
   1 C   6.0000    0    12.011   -2.142306    0.850763   -0.015087
   2 C   6.0000    0    12.011   -1.416023   -1.909566   -0.003365
   3 C   6.0000    0    12.011    1.468170   -1.971939    0.016054
   4 C   6.0000    0    12.011    2.293289    0.800996   -0.005042
   5 O   8.0000    0    15.999   -4.258925    1.727508   -0.035294
   6 C   6.0000    0    12.011   -0.038801    4.952582    0.013833
   7 H   1.0000    0     1.008    1.893755    5.652569    0.019751
   8 H   1.0000    0     1.008   -1.023876    5.639924    1.692030
   9 H   1.0000    0     1.008   -1.023144    5.664703   -1.654189
  10 H   1.0000    0     1.008   -2.260253   -2.854312    1.636245
  11 H   1.0000    0     1.008   -2.238433   -2.901688   -1.625098
  12 H   1.0000    0     1.008    2.208478   -2.989907    1.657281
  13 H   1.0000    0     1.008    2.248470   -2.976764   -1.616411
  14 H   1.0000    0     1.008    3.493211    1.301655    1.620558
  15 H   1.0000    0     1.008    3.421599    1.279142   -1.693426

      -----------------------------------------------------------      
     |                   =====================                   |     
     |                           x T B                           |     
     |                   =====================                   |     
     |                         S. Grimme                         |     
     |          Mulliken Center for Theoretical Chemistry        |     
     |                    University of Bonn                     |     
      -----------------------------------------------------------      

   * xtb version 6.7.1pre (5071a88) compiled by 'Marcel@Raven' on 2024-07-23

   xtb is free software: you can redistribute it and/or modify it under
   the terms of the GNU Lesser General Public License as published by
   the Free Software Foundation, either version 3 of the License, or
   (at your option) any later version.
   
   xtb is distributed in the hope that it will be useful,
   but WITHOUT ANY WARRANTY; without even the implied warranty of
   MERCHANTABILITY or FITNESS FOR A PARTICULAR PURPOSE.  See the
   GNU Lesser General Public License for more details.
   
   Cite this work as:
   * C. Bannwarth, E. Caldeweyher, S. Ehlert, A. Hansen, P. Pracht,
     J. Seibert, S. Spicher, S. Grimme, WIREs Comput. Mol. Sci., 2020, 11,
     e01493. DOI: 10.1002/wcms.1493
   
   for GFN2-xTB:
   * C. Bannwarth, S. Ehlert and S. Grimme., J. Chem. Theory Comput., 2019,
     15, 1652-1671. DOI: 10.1021/acs.jctc.8b01176
   for GFN1-xTB:
   * S. Grimme, C. Bannwarth, P. Shushkov, J. Chem. Theory Comput., 2017,
     13, 1989-2009. DOI: 10.1021/acs.jctc.7b00118
   for GFN0-xTB:
   * P. Pracht, E. Caldeweyher, S. Ehlert, S. Grimme, ChemRxiv, 2019, preprint.
     DOI: 10.26434/chemrxiv.8326202.v1
   for GFN-FF:
   * S. Spicher and S. Grimme, Angew. Chem. Int. Ed., 2020, 59, 15665-15673.
     DOI: 10.1002/anie.202004239
   
   for ALPB and GBSA implicit solvation:
   * S. Ehlert, M. Stahn, S. Spicher, S. Grimme, J. Chem. Theory Comput.,
     2021, 17, 4250-4261. DOI: 10.1021/acs.jctc.1c00471
   
   for ddCOSMO and CPCM-X implicit solvation:
   * M. Stahn, S. Ehlert, S. Grimme, J. Phys. Chem. A,
     2023, XX, XXXX-XXXX. DOI: 10.1021/acs.jpca.3c04382
   
   for DFT-D4:
   * E. Caldeweyher, C. Bannwarth and S. Grimme, J. Chem. Phys., 2017,
     147, 034112. DOI: 10.1063/1.4993215
   * E. Caldeweyher, S. Ehlert, A. Hansen, H. Neugebauer, S. Spicher,
     C. Bannwarth and S. Grimme, J. Chem. Phys., 2019, 150, 154122.
     DOI: 10.1063/1.5090222
   * E. Caldeweyher, J.-M. Mewes, S. Ehlert and S. Grimme, Phys. Chem. Chem. Phys.
     2020, 22, 8499-8512. DOI: 10.1039/D0CP00502A
   
   for sTDA-xTB:
   * S. Grimme and C. Bannwarth, J. Chem. Phys., 2016, 145, 054103.
     DOI: 10.1063/1.4959605
   
   in the mass-spec context:
   * V. Asgeirsson, C. Bauer and S. Grimme, Chem. Sci., 2017, 8, 4879.
     DOI: 10.1039/c7sc00601b
   * J. Koopman and S. Grimme, ACS Omega 2019, 4, 12, 15120-15133.
     DOI: 10.1021/acsomega.9b02011
   
   for metadynamics refer to:
   * S. Grimme, J. Chem. Theory Comput., 2019, 155, 2847-2862
     DOI: 10.1021/acs.jctc.9b00143
   
   for SPH calculations refer to:
   * S. Spicher and S. Grimme, J. Chem. Theory Comput., 2021, 17, 1701-1714
     DOI: 10.1021/acs.jctc.0c01306
   
   for ONIOM refer to:
   * C. Plett, A. Katbashev, S. Ehlert, S. Grimme, M. Bursch,
     Phys. Chem. Chem. Phys., 2023, 25, 17860-17868. DOI: 10.1039/D3CP02178E
   
   for DIPRO refer to:
   * J. Kohn, N. Gildemeister, S. Grimme, D. Fazzi, A. Hansen,
     J. Chem. Phys., 2023, just accepted.
   
   for PTB refer to:
   * S. Grimme, M. Mueller, A. Hansen, J. Chem. Phys., 2023, 158, 124111.
     DOI: 10.1063/5.0137838
   
   with help from (in alphabetical order)
   P. Atkinson, C. Bannwarth, F. Bohle, G. Brandenburg, E. Caldeweyher
   M. Checinski, S. Dohm, S. Ehlert, S. Ehrlich, I. Gerasimov, C. Hﾃｶlzer
   A. Katbashev, J. Kohn, J. Koopman, C. Lavigne, S. Lehtola, F. Mﾃ､rz, M. Mﾃｼller,
   F. Musil, H. Neugebauer, J. Pisarek, C. Plett, P. Pracht, F. Pultar,
   J. Seibert, P. Shushkov, S. Spicher, M. Stahn, M. Steiner, T. Strunk,
   J. Stﾃｼckrath, T. Rose, and J. Unsleber
   
 * started run on 2026/09/12 at 18:03:40.032     
   ID    Z sym.   atoms
    1    7 N      1
    2    6 C      2-5, 7
    3    8 O      6
    4    1 H      8-16

           -------------------------------------------------
          |                Calculation Setup                |
           -------------------------------------------------

          program call               : C:\ORCA_6.1.1\xtb-6.7.1pre\xtb.exe  Monomer_XTB2_ALPB_XTB.xyz --grad -c 0 -u 0 -P 1 --namespace Monomer_XTB2_ALPB --input Monomer_XTB2_ALPB_XTB.input.tmp --acc 0.200000      
          calculation namespace      : Monomer_XTB2_ALPB
          coordinate file            : Monomer_XTB2_ALPB_XTB.xyz
          omp threads                :                     1


           -------------------------------------------------
          |                 G F N 2 - x T B                 |
           -------------------------------------------------

        Reference                      10.1021/acs.jctc.8b01176
      * Hamiltonian:
        H0-scaling (s, p, d)           1.850000    2.230000    2.230000
        zeta-weighting                 0.500000
      * Dispersion:
        s8                             2.700000
        a1                             0.520000
        a2                             5.000000
        s9                             5.000000
      * Repulsion:
        kExp                           1.500000    1.000000
        rExp                           1.000000
      * Coulomb:
        alpha                          2.000000
        third order                    shell-resolved
        anisotropic                    true
        a3                             3.000000
        a5                             4.000000
        cn-shift                       1.200000
        cn-exp                         4.000000
        max-rad                        5.000000

q/qsh data taken from xtbrestart
CAMM data taken from xtbrestart

          ...................................................
          :                      SETUP                      :
          :.................................................:
          :  # basis functions                  37          :
          :  # atomic orbitals                  37          :
          :  # shells                           23          :
          :  # electrons                        40          :
          :  max. iterations                   250          :
          :  Hamiltonian                  GFN2-xTB          :
          :  restarted?                       true          :
          :  GBSA solvation                  false          :
          :  PC potential                    false          :
          :  electronic temp.          300.0000000     K    :
          :  accuracy                    0.2000000          :
          :  -> integral cutoff          0.3198970E+02      :
          :  -> integral neglect         0.2000000E-08      :
          :  -> SCF convergence          0.2000000E-06 Eh   :
          :  -> wf. convergence          0.2000000E-04 e    :
          :  Broyden damping             0.4000000          :
          :  net charge                          0          :
          :  unpaired electrons                  0          :
          ...................................................

 iter      E             dE          RMSdq      gap      omega  full diag
   1    -22.5825914 -0.225826E+02  0.227E-01    5.13       0.0  T
   2    -22.5826382 -0.468063E-04  0.134E-01    5.16       1.0  T
   3    -22.5826376  0.623448E-06  0.370E-02    5.15       1.0  T
   4    -22.5826432 -0.555704E-05  0.521E-03    5.16       4.8  T
   5    -22.5826432 -0.368950E-07  0.280E-03    5.16       8.9  T
   6    -22.5826432 -0.156479E-07  0.556E-04    5.16      44.9  T
   7    -22.5826432 -0.555435E-09  0.245E-04    5.16     101.9  T
   8    -22.5826432 -0.181043E-09  0.902E-05    5.16     277.3  T
   9    -22.5826432 -0.671463E-11  0.244E-05    5.16    1026.3  T

   *** convergence criteria satisfied after 9 iterations ***

         #    Occupation            Energy/Eh            Energy/eV
      -------------------------------------------------------------
         1        2.0000           -0.6884443             -18.7335
       ...           ...                  ...                  ...
        14        2.0000           -0.4803757             -13.0717
        15        2.0000           -0.4795891             -13.0503
        16        2.0000           -0.4776691             -12.9980
        17        2.0000           -0.4704933             -12.8028
        18        2.0000           -0.4400710             -11.9749
        19        2.0000           -0.3848527             -10.4724
        20        2.0000           -0.3831176             -10.4252 (HOMO)
        21                         -0.1936145              -5.2685 (LUMO)
        22                         -0.0003933              -0.0107
        23                          0.0434535               1.1824
        24                          0.0767079               2.0873
        25                          0.0880850               2.3969
       ...                                ...                  ...
        37                          0.6713198              18.2675
      -------------------------------------------------------------
                  HL-Gap            0.1895031 Eh            5.1566 eV
             Fermi-level           -0.2883661 Eh           -7.8468 eV

 SCC (total)                   0 d,  0 h,  0 min,  0.010 sec
 SCC setup                      ...        0 min,  0.000 sec (  0.000%)
 Dispersion                     ...        0 min,  0.000 sec (  0.000%)
 classical contributions        ...        0 min,  0.000 sec (  0.000%)
 integral evaluation            ...        0 min,  0.002 sec ( 20.001%)
 iterations                     ...        0 min,  0.004 sec ( 40.000%)
 molecular gradient             ...        0 min,  0.003 sec ( 30.000%)
 printout                       ...        0 min,  0.001 sec (  9.999%)

         :::::::::::::::::::::::::::::::::::::::::::::::::::::
         ::                     SUMMARY                     ::
         :::::::::::::::::::::::::::::::::::::::::::::::::::::
         :: total energy             -22.309191572157 Eh    ::
         :: gradient norm              0.025143230099 Eh/a0 ::
         :: HOMO-LUMO gap              5.156641098390 eV    ::
         ::.................................................::
         :: SCC energy               -22.582618154428 Eh    ::
         :: -> isotropic ES            0.039379984294 Eh    ::
         :: -> anisotropic ES          0.003527815944 Eh    ::
         :: -> anisotropic XC          0.008141688360 Eh    ::
         :: -> dispersion             -0.010109684045 Eh    ::
         :: repulsion energy           0.273426582270 Eh    ::
         :: add. restraining           0.000000000000 Eh    ::
         :: total charge               0.000000000000 e     ::
         :::::::::::::::::::::::::::::::::::::::::::::::::::::


Property printout bound to 'properties.out'

           -------------------------------------------------
          | TOTAL ENERGY              -22.309191572157 Eh   |
          | GRADIENT NORM               0.025143230099 Eh/ﾎｱ |
          | HOMO-LUMO GAP               5.156641098390 eV   |
           -------------------------------------------------

------------------------------------------------------------------------
 * finished run on 2026/09/12 at 18:03:40.089     
------------------------------------------------------------------------
 total:
 * wall-time:     0 d,  0 h,  0 min,  0.054 sec
 *  cpu-time:     0 d,  0 h,  0 min,  0.016 sec
 * ratio c/w:     0.289 speedup
 SCF:
 * wall-time:     0 d,  0 h,  0 min,  0.010 sec
 *  cpu-time:     0 d,  0 h,  0 min,  0.016 sec
 * ratio c/w:     1.563 speedup


-------------------------   --------------------
FINAL SINGLE POINT ENERGY       -22.309191572160
-------------------------   --------------------


-------------
DIPOLE MOMENT
-------------
                                X             Y             Z
Total Dipole Moment    :      1.76800      -0.26300       0.02000
                        -----------------------------------------
Magnitude (a.u.)       :      1.78757
Magnitude (Debye)      :      4.54363


------------------
CARTESIAN GRADIENT
------------------

   1   N   :   -0.001566010   -0.000812554   -0.001828078
   2   C   :    0.004837613   -0.002542023    0.001191314
   3   C   :    0.005133423    0.013209021   -0.000586098
   4   C   :   -0.006323020    0.008177824    0.000908842
   5   C   :   -0.010328494   -0.005068136    0.002294869
   6   O   :    0.000180077    0.001500782   -0.000288892
   7   C   :   -0.000904268   -0.000819028    0.000088991
   8   H   :    0.000203454   -0.000124790    0.000034028
   9   H   :    0.000221045   -0.000223524    0.000359961
  10   H   :    0.000237212   -0.000217443   -0.000339677
  11   H   :   -0.002733676   -0.004171430   -0.000698551
  12   H   :   -0.002248322   -0.005186109    0.000950432
  13   H   :    0.002555429   -0.004553709   -0.000979079
  14   H   :    0.003938258   -0.002916421    0.000443539
  15   H   :    0.004132077    0.001411653   -0.001002988
  16   H   :    0.002665202    0.002335887   -0.000548615

Difference to translation invariance:
           :   -0.0000000000   -0.0000000000   -0.0000000000

Difference to rotation invariance:
           :   -0.0000000026   -0.0000000153    0.0000000250

Norm of the Cartesian gradient     ...    0.0251432301
RMS gradient                       ...    0.0036291127
MAX gradient                       ...    0.0132090205
------------------------------------------------------------------------------
                         ORCA GEOMETRY RELAXATION STEP
------------------------------------------------------------------------------

Reading the OPT-File                    .... done
Getting information on internals        .... done
Copying old internal coords+grads       .... done
Making the new internal coordinates     .... (2022 redundants) done
Validating the new internal coordinates .... (2022 redundants) done
Calculating the B-matrix                .... done
Calculating the G,G- and P matrices     .... done
Transforming gradient to internals      .... done
Projecting the internal gradient        .... done
Number of atoms                         ....  16
Number of internal coordinates          ....  77
Current Energy                          ....   -22.309191572 Eh
Current gradient norm                   ....     0.025143230 Eh/bohr
Maximum allowed component of the step   ....  0.300
Current trust radius                    ....  0.675
Updating the Hessian (BFGS)             .... done
Forming the augmented Hessian           .... done
Diagonalizing the augmented Hessian     .... done
Last element of RFO vector              ....  0.989206134
Lowest eigenvalues of augmented Hessian:
 -0.001484117  0.011982922  0.012407921  0.013026614  0.013558658
Length of the computed step             ....  0.148129518
The final length of the internal step   ....  0.148129518
Converting the step to Cartesian space:
 Initial RMS(Int)=    0.0168809252
Transforming coordinates:
 Iter   0:  RMS(Cart)=    0.0152193564 RMS(Int)=    1.2374651160
done
Storing new coordinates                 .... done
The predicted energy change is          ....    -0.000758341
Previously predicted energy change      ....    -0.002344026
Actually observed energy change         ....    -0.003016306
Ratio of predicted to observed change   ....     1.286805816
New trust radius                        ....     0.675000000

                                .--------------------.
          ----------------------|Geometry convergence|-------------------------
          Item                value                   Tolerance       Converged
          ---------------------------------------------------------------------
          Energy change      -0.0030163060            0.0000050000      NO
          RMS gradient        0.0014917488            0.0001000000      NO
          MAX gradient        0.0044735802            0.0003000000      NO
          RMS step            0.0168809252            0.0020000000      NO
          MAX step            0.0551901599            0.0040000000      NO
          -------------------------------------------------------------------------
          ........................................................
          Max(Bonds)      0.0072      Max(Angles)    2.78
          Max(Dihed)        3.16      Max(Improp)    0.00
          ---------------------------------------------------------------------

The optimization has not yet converged - more geometry cycles are needed


    ---------------------------------------------------------------------------
                         Redundant Internal Coordinates
                            (Angstroem and degrees)

        Definition                    Value    dE/dq     Step     New-Value
    ----------------------------------------------------------------------------
     1. B(C   1,N   0)                1.3437 -0.004474  0.0039    1.3477   
     2. B(C   2,C   1)                1.5104 -0.002725  0.0067    1.5172   
     3. B(C   3,C   2)                1.5266 -0.000841  0.0045    1.5311   
     4. B(C   4,N   0)                1.4358 -0.002436  0.0022    1.4380   
     5. B(C   4,C   3)                1.5310 -0.002148  0.0072    1.5382   
     6. B(O   5,C   1)                1.2124  0.000410  0.0006    1.2130   
     7. B(C   6,N   0)                1.4396 -0.001381  0.0025    1.4421   
     8. B(H   7,C   6)                1.0877  0.000149 -0.0004    1.0873   
     9. B(H   8,C   6)                1.0921  0.000113 -0.0001    1.0920   
    10. B(H   9,C   6)                1.0920  0.000086 -0.0001    1.0919   
    11. B(H  10,C   2)                1.0965  0.002463 -0.0021    1.0944   
    12. B(H  11,C   2)                1.0961  0.002633 -0.0024    1.0937   
    13. B(H  12,C   3)                1.0945  0.002379 -0.0021    1.0924   
    14. B(H  13,C   3)                1.0952  0.002551 -0.0024    1.0928   
    15. B(H  14,C   4)                1.1015  0.001938 -0.0009    1.1007   
    16. B(H  15,C   4)                1.1040  0.002421 -0.0015    1.1025   
    17. A(C   1,N   0,C   6)          122.39 -0.000202   -0.13    122.26   
    18. A(C   1,N   0,C   4)          115.20 -0.000018    0.42    115.62   
    19. A(C   4,N   0,C   6)          122.41  0.000221   -0.29    122.12   
    20. A(N   0,C   1,C   2)          108.22  0.000719   -0.09    108.13   
    21. A(N   0,C   1,O   5)          124.54 -0.002030    0.40    124.94   
    22. A(C   2,C   1,O   5)          127.24  0.001308   -0.30    126.94   
    23. A(C   1,C   2,C   3)          105.98 -0.000106   -0.24    105.74   
    24. A(H  10,C   2,H  11)          103.85 -0.003464    2.78    106.63   
    25. A(C   3,C   2,H  11)          113.07  0.000371   -0.22    112.85   
    26. A(C   1,C   2,H  11)          111.04  0.001450   -1.17    109.87   
    27. A(C   3,C   2,H  10)          113.09  0.000439   -0.33    112.76   
    28. A(C   1,C   2,H  10)          109.91  0.001442   -0.80    109.11   
    29. A(C   4,C   3,H  13)          110.61  0.000733   -0.16    110.46   
    30. A(C   2,C   3,H  13)          112.46  0.001536   -0.90    111.56   
    31. A(C   4,C   3,H  12)          112.05  0.001257   -1.05    111.00   
    32. A(C   2,C   3,H  12)          111.95  0.001163   -0.76    111.19   
    33. A(H  12,C   3,H  13)          104.60 -0.003305    2.52    107.12   
    34. A(C   2,C   3,C   4)          105.33 -0.001219    0.30    105.63   
    35. A(N   0,C   4,H  15)          109.74 -0.000256    0.27    110.01   
    36. A(C   3,C   4,H  14)          112.91  0.000700   -0.75    112.16   
    37. A(N   0,C   4,H  14)          111.32  0.000310   -0.90    110.43   
    38. A(C   3,C   4,H  15)          112.32  0.001261   -0.39    111.93   
    39. A(N   0,C   4,C   3)          105.27  0.000626   -0.39    104.88   
    40. A(H  14,C   4,H  15)          105.37 -0.002598    2.15    107.52   
    41. A(H   8,C   6,H   9)          108.34  0.000615   -0.34    108.00   
    42. A(H   7,C   6,H   9)          109.47  0.000042   -0.01    109.46   
    43. A(N   0,C   6,H   9)          110.08 -0.000221    0.09    110.17   
    44. A(H   7,C   6,H   8)          109.45  0.000098    0.00    109.46   
    45. A(N   0,C   6,H   8)          110.14 -0.000214    0.10    110.24   
    46. A(N   0,C   6,H   7)          109.34 -0.000311    0.15    109.49   
    47. D(O   5,C   1,N   0,C   4)   -179.49  0.000436   -1.14   -180.62   
    48. D(C   2,C   1,N   0,C   6)   -179.26 -0.000489    0.40   -178.86   
    49. D(O   5,C   1,N   0,C   6)      0.94  0.000292   -1.27     -0.33   
    50. D(C   2,C   1,N   0,C   4)      0.31 -0.000345    0.53      0.85   
    51. D(C   3,C   2,C   1,O   5)    179.88 -0.000551    1.18    181.05   
    52. D(H  10,C   2,C   1,N   0)    122.60  0.001553   -1.51    121.09   
    53. D(H  11,C   2,C   1,N   0)   -123.07 -0.000980    0.74   -122.32   
    54. D(H  10,C   2,C   1,O   5)    -57.61  0.000737    0.13    -57.47   
    55. D(C   3,C   2,C   1,N   0)      0.08  0.000265   -0.46     -0.38   
    56. D(H  12,C   3,C   2,H  10)      1.14 -0.000647    0.01      1.15   
    57. D(C   4,C   3,C   2,H  11)    121.45  0.001853   -1.57    119.88   
    58. D(C   4,C   3,C   2,H  10)   -120.88 -0.002064    1.60   -119.28   
    59. D(C   4,C   3,C   2,C   1)     -0.40 -0.000099    0.23     -0.18   
    60. D(H  12,C   3,C   2,H  11)   -116.53  0.003270   -3.16   -119.69   
    61. D(H  12,C   3,C   2,C   1)    121.61  0.001318   -1.36    120.25   
    62. D(H  14,C   4,C   3,H  13)   -116.03  0.002632   -2.77   -118.80   
    63. D(H  14,C   4,C   3,H  12)      0.25 -0.000235   -0.37     -0.12   
    64. D(H  14,C   4,C   3,C   2)    122.21  0.001121   -1.79    120.42   
    65. D(N   0,C   4,C   3,H  12)   -121.39 -0.001439    1.51   -119.87   
    66. D(N   0,C   4,C   3,C   2)      0.57 -0.000084    0.10      0.67   
    67. D(H  15,C   4,N   0,C   1)    120.51  0.001997   -0.90    119.61   
    68. D(N   0,C   4,C   3,H  13)    122.33  0.001427   -0.88    121.45   
    69. D(H  14,C   4,N   0,C   6)     56.34 -0.001021    1.50     57.85   
    70. D(H  14,C   4,N   0,C   1)   -123.23 -0.001162    1.37   -121.86   
    71. D(C   3,C   4,N   0,C   6)    179.00  0.000410   -0.26    178.74   
    72. D(C   3,C   4,N   0,C   1)     -0.57  0.000268   -0.40     -0.97   
    73. D(H   8,C   6,N   0,C   4)   -119.96  0.000075   -0.15   -120.11   
    74. D(H   8,C   6,N   0,C   1)     59.58  0.000227    0.02     59.60   
    75. D(H   7,C   6,N   0,C   4)      0.35 -0.000133    0.01      0.36   
    76. D(H   9,C   6,N   0,C   1)    -59.82 -0.000260    0.32    -59.50   
    77. D(H   7,C   6,N   0,C   1)    179.89  0.000020    0.18    180.07   
    ----------------------------------------------------------------------------

Geometry step timings:
Preparation and reading OPT file:      0.007 s (50.000 %)
Internal coordinates            :      0.000 s ( 0.000 %)
B/P matrices and projection     :      0.001 s ( 7.143 %)
Hessian update/contruction      :      0.002 s (14.286 %)
Making the step                 :      0.001 s ( 7.143 %)
Converting the step to Cartesian:      0.000 s ( 0.000 %)
Storing new data                :      0.001 s ( 7.143 %)
Checking convergence            :      0.000 s ( 0.000 %)
Final printing                  :      0.002 s (14.286 %)
Total time                      :      0.014 s

Time for energy+gradient        :      0.117 s
Time for complete geometry iter :      0.154 s

         *************************************************************
         *                GEOMETRY OPTIMIZATION CYCLE   5            *
         *************************************************************
---------------------------------
CARTESIAN COORDINATES (ANGSTROEM)
---------------------------------
  N    -0.003105    1.177220   -0.007631
  C    -1.135194    0.446255   -0.016449
  C    -0.749724   -1.021096   -0.003440
  C     0.781234   -1.048283    0.005157
  C     1.222462    0.425223   -0.008344
  O    -2.258131    0.904932   -0.007393
  C    -0.017902    2.619167    0.007676
  H     1.003361    2.992371    0.011354
  H    -0.540991    2.982150    0.894809
  H    -0.541119    2.999654   -0.871951
  H    -1.185768   -1.497794    0.879988
  H    -1.177892   -1.525122   -0.874587
  H     1.161057   -1.561908    0.891259
  H     1.178580   -1.574063   -0.866596
  H     1.831233    0.683472    0.871543
  H     1.814900    0.669822   -0.905395

----------------------------
CARTESIAN COORDINATES (A.U.)
----------------------------
  NO LB    ZA    FRAG    MASS        X           Y           Z
   0 N   7.0000    0    14.007   -0.005868    2.224624   -0.014420
   1 C   6.0000    0    12.011   -2.145206    0.843300   -0.031085
   2 C   6.0000    0    12.011   -1.416772   -1.929592   -0.006500
   3 C   6.0000    0    12.011    1.476318   -1.980967    0.009745
   4 C   6.0000    0    12.011    2.310118    0.803554   -0.015767
   5 O   8.0000    0    15.999   -4.267250    1.710074   -0.013971
   6 C   6.0000    0    12.011   -0.033830    4.949508    0.014505
   7 H   1.0000    0     1.008    1.896077    5.654762    0.021456
   8 H   1.0000    0     1.008   -1.022325    5.635447    1.690944
   9 H   1.0000    0     1.008   -1.022566    5.668525   -1.647748
  10 H   1.0000    0     1.008   -2.240778   -2.830421    1.662935
  11 H   1.0000    0     1.008   -2.225893   -2.882063   -1.652729
  12 H   1.0000    0     1.008    2.194079   -2.951579    1.684236
  13 H   1.0000    0     1.008    2.227193   -2.974549   -1.637629
  14 H   1.0000    0     1.008    3.460529    1.291576    1.646977
  15 H   1.0000    0     1.008    3.429664    1.265780   -1.710949

      -----------------------------------------------------------      
     |                   =====================                   |     
     |                           x T B                           |     
     |                   =====================                   |     
     |                         S. Grimme                         |     
     |          Mulliken Center for Theoretical Chemistry        |     
     |                    University of Bonn                     |     
      -----------------------------------------------------------      

   * xtb version 6.7.1pre (5071a88) compiled by 'Marcel@Raven' on 2024-07-23

   xtb is free software: you can redistribute it and/or modify it under
   the terms of the GNU Lesser General Public License as published by
   the Free Software Foundation, either version 3 of the License, or
   (at your option) any later version.
   
   xtb is distributed in the hope that it will be useful,
   but WITHOUT ANY WARRANTY; without even the implied warranty of
   MERCHANTABILITY or FITNESS FOR A PARTICULAR PURPOSE.  See the
   GNU Lesser General Public License for more details.
   
   Cite this work as:
   * C. Bannwarth, E. Caldeweyher, S. Ehlert, A. Hansen, P. Pracht,
     J. Seibert, S. Spicher, S. Grimme, WIREs Comput. Mol. Sci., 2020, 11,
     e01493. DOI: 10.1002/wcms.1493
   
   for GFN2-xTB:
   * C. Bannwarth, S. Ehlert and S. Grimme., J. Chem. Theory Comput., 2019,
     15, 1652-1671. DOI: 10.1021/acs.jctc.8b01176
   for GFN1-xTB:
   * S. Grimme, C. Bannwarth, P. Shushkov, J. Chem. Theory Comput., 2017,
     13, 1989-2009. DOI: 10.1021/acs.jctc.7b00118
   for GFN0-xTB:
   * P. Pracht, E. Caldeweyher, S. Ehlert, S. Grimme, ChemRxiv, 2019, preprint.
     DOI: 10.26434/chemrxiv.8326202.v1
   for GFN-FF:
   * S. Spicher and S. Grimme, Angew. Chem. Int. Ed., 2020, 59, 15665-15673.
     DOI: 10.1002/anie.202004239
   
   for ALPB and GBSA implicit solvation:
   * S. Ehlert, M. Stahn, S. Spicher, S. Grimme, J. Chem. Theory Comput.,
     2021, 17, 4250-4261. DOI: 10.1021/acs.jctc.1c00471
   
   for ddCOSMO and CPCM-X implicit solvation:
   * M. Stahn, S. Ehlert, S. Grimme, J. Phys. Chem. A,
     2023, XX, XXXX-XXXX. DOI: 10.1021/acs.jpca.3c04382
   
   for DFT-D4:
   * E. Caldeweyher, C. Bannwarth and S. Grimme, J. Chem. Phys., 2017,
     147, 034112. DOI: 10.1063/1.4993215
   * E. Caldeweyher, S. Ehlert, A. Hansen, H. Neugebauer, S. Spicher,
     C. Bannwarth and S. Grimme, J. Chem. Phys., 2019, 150, 154122.
     DOI: 10.1063/1.5090222
   * E. Caldeweyher, J.-M. Mewes, S. Ehlert and S. Grimme, Phys. Chem. Chem. Phys.
     2020, 22, 8499-8512. DOI: 10.1039/D0CP00502A
   
   for sTDA-xTB:
   * S. Grimme and C. Bannwarth, J. Chem. Phys., 2016, 145, 054103.
     DOI: 10.1063/1.4959605
   
   in the mass-spec context:
   * V. Asgeirsson, C. Bauer and S. Grimme, Chem. Sci., 2017, 8, 4879.
     DOI: 10.1039/c7sc00601b
   * J. Koopman and S. Grimme, ACS Omega 2019, 4, 12, 15120-15133.
     DOI: 10.1021/acsomega.9b02011
   
   for metadynamics refer to:
   * S. Grimme, J. Chem. Theory Comput., 2019, 155, 2847-2862
     DOI: 10.1021/acs.jctc.9b00143
   
   for SPH calculations refer to:
   * S. Spicher and S. Grimme, J. Chem. Theory Comput., 2021, 17, 1701-1714
     DOI: 10.1021/acs.jctc.0c01306
   
   for ONIOM refer to:
   * C. Plett, A. Katbashev, S. Ehlert, S. Grimme, M. Bursch,
     Phys. Chem. Chem. Phys., 2023, 25, 17860-17868. DOI: 10.1039/D3CP02178E
   
   for DIPRO refer to:
   * J. Kohn, N. Gildemeister, S. Grimme, D. Fazzi, A. Hansen,
     J. Chem. Phys., 2023, just accepted.
   
   for PTB refer to:
   * S. Grimme, M. Mueller, A. Hansen, J. Chem. Phys., 2023, 158, 124111.
     DOI: 10.1063/5.0137838
   
   with help from (in alphabetical order)
   P. Atkinson, C. Bannwarth, F. Bohle, G. Brandenburg, E. Caldeweyher
   M. Checinski, S. Dohm, S. Ehlert, S. Ehrlich, I. Gerasimov, C. Hﾃｶlzer
   A. Katbashev, J. Kohn, J. Koopman, C. Lavigne, S. Lehtola, F. Mﾃ､rz, M. Mﾃｼller,
   F. Musil, H. Neugebauer, J. Pisarek, C. Plett, P. Pracht, F. Pultar,
   J. Seibert, P. Shushkov, S. Spicher, M. Stahn, M. Steiner, T. Strunk,
   J. Stﾃｼckrath, T. Rose, and J. Unsleber
   
 * started run on 2026/09/12 at 18:03:40.191     
   ID    Z sym.   atoms
    1    7 N      1
    2    6 C      2-5, 7
    3    8 O      6
    4    1 H      8-16

           -------------------------------------------------
          |                Calculation Setup                |
           -------------------------------------------------

          program call               : C:\ORCA_6.1.1\xtb-6.7.1pre\xtb.exe  Monomer_XTB2_ALPB_XTB.xyz --grad -c 0 -u 0 -P 1 --namespace Monomer_XTB2_ALPB --input Monomer_XTB2_ALPB_XTB.input.tmp --acc 0.200000      
          calculation namespace      : Monomer_XTB2_ALPB
          coordinate file            : Monomer_XTB2_ALPB_XTB.xyz
          omp threads                :                     1


           -------------------------------------------------
          |                 G F N 2 - x T B                 |
           -------------------------------------------------

        Reference                      10.1021/acs.jctc.8b01176
      * Hamiltonian:
        H0-scaling (s, p, d)           1.850000    2.230000    2.230000
        zeta-weighting                 0.500000
      * Dispersion:
        s8                             2.700000
        a1                             0.520000
        a2                             5.000000
        s9                             5.000000
      * Repulsion:
        kExp                           1.500000    1.000000
        rExp                           1.000000
      * Coulomb:
        alpha                          2.000000
        third order                    shell-resolved
        anisotropic                    true
        a3                             3.000000
        a5                             4.000000
        cn-shift                       1.200000
        cn-exp                         4.000000
        max-rad                        5.000000

q/qsh data taken from xtbrestart
CAMM data taken from xtbrestart

          ...................................................
          :                      SETUP                      :
          :.................................................:
          :  # basis functions                  37          :
          :  # atomic orbitals                  37          :
          :  # shells                           23          :
          :  # electrons                        40          :
          :  max. iterations                   250          :
          :  Hamiltonian                  GFN2-xTB          :
          :  restarted?                       true          :
          :  GBSA solvation                  false          :
          :  PC potential                    false          :
          :  electronic temp.          300.0000000     K    :
          :  accuracy                    0.2000000          :
          :  -> integral cutoff          0.3198970E+02      :
          :  -> integral neglect         0.2000000E-08      :
          :  -> SCF convergence          0.2000000E-06 Eh   :
          :  -> wf. convergence          0.2000000E-04 e    :
          :  Broyden damping             0.4000000          :
          :  net charge                          0          :
          :  unpaired electrons                  0          :
          ...................................................

 iter      E             dE          RMSdq      gap      omega  full diag
   1    -22.5818701 -0.225819E+02  0.156E-01    5.15       0.0  T
   2    -22.5818788 -0.861416E-05  0.898E-02    5.14       1.0  T
   3    -22.5818779  0.876986E-06  0.178E-02    5.14       1.4  T
   4    -22.5818800 -0.209568E-05  0.277E-03    5.15       9.0  T
   5    -22.5818800 -0.225238E-07  0.154E-03    5.14      16.2  T
   6    -22.5818800 -0.301107E-08  0.348E-04    5.14      71.9  T
   7    -22.5818800 -0.189615E-09  0.143E-04    5.14     175.4  T
   8    -22.5818800 -0.543103E-10  0.538E-05    5.14     464.7  T

   *** convergence criteria satisfied after 8 iterations ***

         #    Occupation            Energy/Eh            Energy/eV
      -------------------------------------------------------------
         1        2.0000           -0.6881427             -18.7253
       ...           ...                  ...                  ...
        14        2.0000           -0.4804387             -13.0734
        15        2.0000           -0.4787799             -13.0283
        16        2.0000           -0.4775758             -12.9955
        17        2.0000           -0.4692021             -12.7676
        18        2.0000           -0.4420887             -12.0298
        19        2.0000           -0.3849548             -10.4752
        20        2.0000           -0.3835086             -10.4358 (HOMO)
        21                         -0.1944464              -5.2912 (LUMO)
        22                         -0.0028081              -0.0764
        23                          0.0357533               0.9729
        24                          0.0827167               2.2508
        25                          0.0886056               2.4111
       ...                                ...                  ...
        37                          0.6662807              18.1304
      -------------------------------------------------------------
                  HL-Gap            0.1890622 Eh            5.1446 eV
             Fermi-level           -0.2889775 Eh           -7.8635 eV

 SCC (total)                   0 d,  0 h,  0 min,  0.009 sec
 SCC setup                      ...        0 min,  0.000 sec (  0.000%)
 Dispersion                     ...        0 min,  0.000 sec (  0.000%)
 classical contributions        ...        0 min,  0.000 sec (  0.000%)
 integral evaluation            ...        0 min,  0.002 sec ( 22.223%)
 iterations                     ...        0 min,  0.003 sec ( 33.333%)
 molecular gradient             ...        0 min,  0.004 sec ( 44.444%)
 printout                       ...        0 min,  0.000 sec (  0.000%)

         :::::::::::::::::::::::::::::::::::::::::::::::::::::
         ::                     SUMMARY                     ::
         :::::::::::::::::::::::::::::::::::::::::::::::::::::
         :: total energy             -22.310049408726 Eh    ::
         :: gradient norm              0.011142667551 Eh/a0 ::
         :: HOMO-LUMO gap              5.144643003581 eV    ::
         ::.................................................::
         :: SCC energy               -22.581854758147 Eh    ::
         :: -> isotropic ES            0.039197681881 Eh    ::
         :: -> anisotropic ES          0.003512041569 Eh    ::
         :: -> anisotropic XC          0.008402166079 Eh    ::
         :: -> dispersion             -0.010103219748 Eh    ::
         :: repulsion energy           0.271805349420 Eh    ::
         :: add. restraining           0.000000000000 Eh    ::
         :: total charge              -0.000000000000 e     ::
         :::::::::::::::::::::::::::::::::::::::::::::::::::::


Property printout bound to 'properties.out'

           -------------------------------------------------
          | TOTAL ENERGY              -22.310049408726 Eh   |
          | GRADIENT NORM               0.011142667551 Eh/ﾎｱ |
          | HOMO-LUMO GAP               5.144643003581 eV   |
           -------------------------------------------------

------------------------------------------------------------------------
 * finished run on 2026/09/12 at 18:03:40.265     
------------------------------------------------------------------------
 total:
 * wall-time:     0 d,  0 h,  0 min,  0.072 sec
 *  cpu-time:     0 d,  0 h,  0 min,  0.062 sec
 * ratio c/w:     0.868 speedup
 SCF:
 * wall-time:     0 d,  0 h,  0 min,  0.009 sec
 *  cpu-time:     0 d,  0 h,  0 min,  0.000 sec
 * ratio c/w:     0.000 speedup


-------------------------   --------------------
FINAL SINGLE POINT ENERGY       -22.310049408730
-------------------------   --------------------


-------------
DIPOLE MOMENT
-------------
                                X             Y             Z
Total Dipole Moment    :      1.76500      -0.24500       0.00300
                        -----------------------------------------
Magnitude (a.u.)       :      1.78193
Magnitude (Debye)      :      4.52930


------------------
CARTESIAN GRADIENT
------------------

   1   N   :    0.001433563   -0.001707265   -0.000053990
   2   C   :    0.002383189   -0.001957102   -0.002192219
   3   C   :    0.001599280    0.004819747    0.000259960
   4   C   :   -0.002582603    0.003045782    0.000358442
   5   C   :   -0.003615012   -0.000972377    0.000884158
   6   O   :   -0.002594268    0.001365277    0.001017036
   7   C   :   -0.000108299   -0.000049339    0.000292216
   8   H   :    0.000014474    0.000149045    0.000031427
   9   H   :    0.000071240    0.000159820   -0.000044303
  10   H   :    0.000041856   -0.000000901    0.000022314
  11   H   :   -0.001200653   -0.001825345    0.001493813
  12   H   :   -0.000968268   -0.002141803   -0.001056610
  13   H   :    0.000772302   -0.001662599    0.001151576
  14   H   :    0.001612767   -0.001145168   -0.001368394
  15   H   :    0.001648874    0.000787659    0.001482824
  16   H   :    0.001491559    0.001134571   -0.002278248

Difference to translation invariance:
           :    0.0000000000   -0.0000000000    0.0000000000

Difference to rotation invariance:
           :    0.0000000726    0.0000001531    0.0000000298

Norm of the Cartesian gradient     ...    0.0111426676
RMS gradient                       ...    0.0016083055
MAX gradient                       ...    0.0048197468
------------------------------------------------------------------------------
                         ORCA GEOMETRY RELAXATION STEP
------------------------------------------------------------------------------

Reading the OPT-File                    .... done
Getting information on internals        .... done
Copying old internal coords+grads       .... done
Making the new internal coordinates     .... (2022 redundants) done
Validating the new internal coordinates .... (2022 redundants) done
Calculating the B-matrix                .... done
Calculating the G,G- and P matrices     .... done
Transforming gradient to internals      .... done
Projecting the internal gradient        .... done
Number of atoms                         ....  16
Number of internal coordinates          ....  77
Current Energy                          ....   -22.310049409 Eh
Current gradient norm                   ....     0.011142668 Eh/bohr
Maximum allowed component of the step   ....  0.300
Current trust radius                    ....  0.675
Updating the Hessian (BFGS)             .... done
Forming the augmented Hessian           .... done
Diagonalizing the augmented Hessian     .... done
Last element of RFO vector              ....  0.992649114
Lowest eigenvalues of augmented Hessian:
 -0.000322410  0.011865790  0.012895866  0.013027867  0.013587942
Length of the computed step             ....  0.121924081
The final length of the internal step   ....  0.121924081
Converting the step to Cartesian space:
 Initial RMS(Int)=    0.0138945386
Transforming coordinates:
 Iter   0:  RMS(Cart)=    0.0138939844 RMS(Int)=    1.2330835617
done
Storing new coordinates                 .... done
The predicted energy change is          ....    -0.000163602
Previously predicted energy change      ....    -0.000758341
Actually observed energy change         ....    -0.000857837
Ratio of predicted to observed change   ....     1.131201793
New trust radius                        ....     0.700000000

                                .--------------------.
          ----------------------|Geometry convergence|-------------------------
          Item                value                   Tolerance       Converged
          ---------------------------------------------------------------------
          Energy change      -0.0008578366            0.0000050000      NO
          RMS gradient        0.0008279510            0.0001000000      NO
          MAX gradient        0.0029254149            0.0003000000      NO
          RMS step            0.0138945386            0.0020000000      NO
          MAX step            0.0472523830            0.0040000000      NO
          -------------------------------------------------------------------------
          ........................................................
          Max(Bonds)      0.0038      Max(Angles)    1.00
          Max(Dihed)        2.71      Max(Improp)    0.00
          ---------------------------------------------------------------------

The optimization has not yet converged - more geometry cycles are needed


    ---------------------------------------------------------------------------
                         Redundant Internal Coordinates
                            (Angstroem and degrees)

        Definition                    Value    dE/dq     Step     New-Value
    ----------------------------------------------------------------------------
     1. B(C   1,N   0)                1.3476  0.000248  0.0002    1.3478   
     2. B(C   2,C   1)                1.5172 -0.000880  0.0028    1.5200   
     3. B(C   3,C   2)                1.5312  0.000322  0.0009    1.5321   
     4. B(C   4,N   0)                1.4379 -0.001470  0.0027    1.4405   
     5. B(C   4,C   3)                1.5382 -0.000079  0.0020    1.5402   
     6. B(O   5,C   1)                1.2130  0.002925 -0.0016    1.2114   
     7. B(C   6,N   0)                1.4421  0.000262  0.0000    1.4421   
     8. B(H   7,C   6)                1.0873  0.000065 -0.0002    1.0871   
     9. B(H   8,C   6)                1.0920 -0.000017 -0.0000    1.0919   
    10. B(H   9,C   6)                1.0919 -0.000038  0.0000    1.0919   
    11. B(H  10,C   2)                1.0944  0.002479 -0.0034    1.0911   
    12. B(H  11,C   2)                1.0937  0.002208 -0.0031    1.0907   
    13. B(H  12,C   3)                1.0924  0.001984 -0.0027    1.0897   
    14. B(H  13,C   3)                1.0928  0.002229 -0.0031    1.0898   
    15. B(H  14,C   4)                1.1007  0.002282 -0.0028    1.0979   
    16. B(H  15,C   4)                1.1025  0.002907 -0.0038    1.0987   
    17. A(C   1,N   0,C   6)          122.26 -0.000379    0.02    122.28   
    18. A(C   1,N   0,C   4)          115.62  0.000780   -0.03    115.59   
    19. A(C   4,N   0,C   6)          122.12 -0.000401    0.01    122.13   
    20. A(N   0,C   1,C   2)          108.13 -0.000237    0.05    108.18   
    21. A(N   0,C   1,O   5)          124.93 -0.000209    0.10    125.02   
    22. A(C   2,C   1,O   5)          126.93  0.000431   -0.15    126.78   
    23. A(C   1,C   2,C   3)          105.74 -0.000303   -0.03    105.71   
    24. A(H  10,C   2,H  11)          106.63 -0.000654    1.00    107.63   
    25. A(C   3,C   2,H  11)          112.81 -0.000105   -0.03    112.78   
    26. A(C   1,C   2,H  11)          109.84  0.000592   -0.52    109.32   
    27. A(C   3,C   2,H  10)          112.71 -0.000065   -0.07    112.64   
    28. A(C   1,C   2,H  10)          109.08  0.000611   -0.38    108.70   
    29. A(C   4,C   3,H  13)          110.46 -0.000340    0.05    110.51   
    30. A(C   2,C   3,H  13)          111.57  0.000455   -0.40    111.17   
    31. A(C   4,C   3,H  12)          110.97  0.000140   -0.35    110.62   
    32. A(C   2,C   3,H  12)          111.13 -0.000142   -0.19    110.94   
    33. A(H  12,C   3,H  13)          107.12 -0.000393    0.87    108.00   
    34. A(C   2,C   3,C   4)          105.65  0.000290    0.02    105.66   
    35. A(N   0,C   4,H  15)          110.02 -0.000470    0.17    110.19   
    36. A(C   3,C   4,H  14)          112.11  0.000304   -0.28    111.83   
    37. A(N   0,C   4,H  14)          110.38  0.000143   -0.31    110.07   
    38. A(C   3,C   4,H  15)          111.95  0.000643   -0.23    111.72   
    39. A(N   0,C   4,C   3)          104.86 -0.000532   -0.01    104.85   
    40. A(H  14,C   4,H  15)          107.53 -0.000104    0.63    108.15   
    41. A(H   8,C   6,H   9)          108.00 -0.000079   -0.05    107.95   
    42. A(H   7,C   6,H   9)          109.46 -0.000074    0.02    109.48   
    43. A(N   0,C   6,H   9)          110.17 -0.000051    0.03    110.20   
    44. A(H   7,C   6,H   8)          109.46 -0.000180    0.04    109.49   
    45. A(N   0,C   6,H   8)          110.24  0.000230   -0.03    110.21   
    46. A(N   0,C   6,H   7)          109.49  0.000148   -0.01    109.48   
    47. D(O   5,C   1,N   0,C   4)    179.43 -0.000440    2.37    181.80   
    48. D(C   2,C   1,N   0,C   6)   -178.88  0.000262   -1.47   -180.35   
    49. D(O   5,C   1,N   0,C   6)     -0.30 -0.000371    1.97      1.67   
    50. D(C   2,C   1,N   0,C   4)      0.85  0.000192   -1.07     -0.22   
    51. D(C   3,C   2,C   1,O   5)   -178.90  0.000479   -2.38   -181.28   
    52. D(H  10,C   2,C   1,N   0)    121.10 -0.000103    0.72    121.82   
    53. D(H  11,C   2,C   1,N   0)   -122.36 -0.000203    1.41   -120.95   
    54. D(H  10,C   2,C   1,O   5)    -57.44  0.000558   -2.71    -60.14   
    55. D(C   3,C   2,C   1,N   0)     -0.36 -0.000182    1.04      0.69   
    56. D(H  12,C   3,C   2,H  10)      1.16 -0.000123   -0.60      0.55   
    57. D(C   4,C   3,C   2,H  11)    119.88  0.000592   -1.28    118.59   
    58. D(C   4,C   3,C   2,H  10)   -119.28 -0.000392   -0.08   -119.36   
    59. D(C   4,C   3,C   2,C   1)     -0.19  0.000123   -0.61     -0.80   
    60. D(H  12,C   3,C   2,H  11)   -119.68  0.000861   -1.81   -121.49   
    61. D(H  12,C   3,C   2,C   1)    120.25  0.000393   -1.13    119.12   
    62. D(H  14,C   4,C   3,H  13)   -118.78  0.000515   -1.07   -119.85   
    63. D(H  14,C   4,C   3,H  12)     -0.13 -0.000103   -0.18     -0.31   
    64. D(H  14,C   4,C   3,C   2)    120.43 -0.000019   -0.61    119.82   
    65. D(N   0,C   4,C   3,H  12)   -119.91 -0.000109    0.35   -119.56   
    66. D(N   0,C   4,C   3,C   2)      0.64 -0.000025   -0.08      0.56   
    67. D(H  15,C   4,N   0,C   1)    119.60  0.000104    0.53    120.12   
    68. D(N   0,C   4,C   3,H  13)    121.43  0.000509   -0.54    120.89   
    69. D(H  14,C   4,N   0,C   6)     57.84 -0.000297    1.61     59.45   
    70. D(H  14,C   4,N   0,C   1)   -121.89 -0.000228    1.21   -120.68   
    71. D(C   3,C   4,N   0,C   6)    178.77 -0.000174    1.11    179.88   
    72. D(C   3,C   4,N   0,C   1)     -0.96 -0.000104    0.71     -0.25   
    73. D(H   8,C   6,N   0,C   4)   -120.11  0.000033   -0.26   -120.37   
    74. D(H   8,C   6,N   0,C   1)     59.60 -0.000038    0.20     59.81   
    75. D(H   7,C   6,N   0,C   4)      0.36  0.000049   -0.23      0.12   
    76. D(H   9,C   6,N   0,C   1)    -59.50 -0.000052    0.27    -59.23   
    77. D(H   7,C   6,N   0,C   1)   -179.93 -0.000022    0.23   -179.70   
    ----------------------------------------------------------------------------

Geometry step timings:
Preparation and reading OPT file:      0.005 s (45.455 %)
Internal coordinates            :      0.001 s ( 9.091 %)
B/P matrices and projection     :      0.000 s ( 0.000 %)
Hessian update/contruction      :      0.002 s (18.182 %)
Making the step                 :      0.001 s ( 9.091 %)
Converting the step to Cartesian:      0.000 s ( 0.000 %)
Storing new data                :      0.000 s ( 0.000 %)
Checking convergence            :      0.000 s ( 0.000 %)
Final printing                  :      0.002 s (18.182 %)
Total time                      :      0.011 s

Time for energy+gradient        :      0.135 s
Time for complete geometry iter :      0.165 s

         *************************************************************
         *                GEOMETRY OPTIMIZATION CYCLE   6            *
         *************************************************************
---------------------------------
CARTESIAN COORDINATES (ANGSTROEM)
---------------------------------
  N    -0.002839    1.177493    0.003776
  C    -1.134498    0.445525    0.008264
  C    -0.748301   -1.024500   -0.002011
  C     0.783615   -1.051094    0.003403
  C     1.225169    0.424461   -0.003197
  O    -2.256881    0.900698   -0.015490
  C    -0.018296    2.619514    0.003378
  H     1.002591    2.993054   -0.005511
  H    -0.534709    2.991417    0.890703
  H    -0.549628    2.990635   -0.875420
  H    -1.180203   -1.505961    0.876683
  H    -1.175351   -1.503262   -0.884038
  H     1.161671   -1.560436    0.889427
  H     1.170597   -1.569142   -0.873772
  H     1.825238    0.675074    0.881373
  H     1.814826    0.668525   -0.897567

----------------------------
CARTESIAN COORDINATES (A.U.)
----------------------------
  NO LB    ZA    FRAG    MASS        X           Y           Z
   0 N   7.0000    0    14.007   -0.005365    2.225138    0.007136
   1 C   6.0000    0    12.011   -2.143891    0.841919    0.015617
   2 C   6.0000    0    12.011   -1.414084   -1.936024   -0.003800
   3 C   6.0000    0    12.011    1.480817   -1.986280    0.006431
   4 C   6.0000    0    12.011    2.315233    0.802115   -0.006041
   5 O   8.0000    0    15.999   -4.264886    1.702072   -0.029272
   6 C   6.0000    0    12.011   -0.034575    4.950164    0.006383
   7 H   1.0000    0     1.008    1.894622    5.656053   -0.010414
   8 H   1.0000    0     1.008   -1.010454    5.652959    1.683185
   9 H   1.0000    0     1.008   -1.038647    5.651481   -1.654305
  10 H   1.0000    0     1.008   -2.230260   -2.845854    1.656690
  11 H   1.0000    0     1.008   -2.221091   -2.840753   -1.670591
  12 H   1.0000    0     1.008    2.195241   -2.948796    1.680773
  13 H   1.0000    0     1.008    2.212107   -2.965249   -1.651190
  14 H   1.0000    0     1.008    3.449201    1.275706    1.665554
  15 H   1.0000    0     1.008    3.429524    1.263330   -1.696156

      -----------------------------------------------------------      
     |                   =====================                   |     
     |                           x T B                           |     
     |                   =====================                   |     
     |                         S. Grimme                         |     
     |          Mulliken Center for Theoretical Chemistry        |     
     |                    University of Bonn                     |     
      -----------------------------------------------------------      

   * xtb version 6.7.1pre (5071a88) compiled by 'Marcel@Raven' on 2024-07-23

   xtb is free software: you can redistribute it and/or modify it under
   the terms of the GNU Lesser General Public License as published by
   the Free Software Foundation, either version 3 of the License, or
   (at your option) any later version.
   
   xtb is distributed in the hope that it will be useful,
   but WITHOUT ANY WARRANTY; without even the implied warranty of
   MERCHANTABILITY or FITNESS FOR A PARTICULAR PURPOSE.  See the
   GNU Lesser General Public License for more details.
   
   Cite this work as:
   * C. Bannwarth, E. Caldeweyher, S. Ehlert, A. Hansen, P. Pracht,
     J. Seibert, S. Spicher, S. Grimme, WIREs Comput. Mol. Sci., 2020, 11,
     e01493. DOI: 10.1002/wcms.1493
   
   for GFN2-xTB:
   * C. Bannwarth, S. Ehlert and S. Grimme., J. Chem. Theory Comput., 2019,
     15, 1652-1671. DOI: 10.1021/acs.jctc.8b01176
   for GFN1-xTB:
   * S. Grimme, C. Bannwarth, P. Shushkov, J. Chem. Theory Comput., 2017,
     13, 1989-2009. DOI: 10.1021/acs.jctc.7b00118
   for GFN0-xTB:
   * P. Pracht, E. Caldeweyher, S. Ehlert, S. Grimme, ChemRxiv, 2019, preprint.
     DOI: 10.26434/chemrxiv.8326202.v1
   for GFN-FF:
   * S. Spicher and S. Grimme, Angew. Chem. Int. Ed., 2020, 59, 15665-15673.
     DOI: 10.1002/anie.202004239
   
   for ALPB and GBSA implicit solvation:
   * S. Ehlert, M. Stahn, S. Spicher, S. Grimme, J. Chem. Theory Comput.,
     2021, 17, 4250-4261. DOI: 10.1021/acs.jctc.1c00471
   
   for ddCOSMO and CPCM-X implicit solvation:
   * M. Stahn, S. Ehlert, S. Grimme, J. Phys. Chem. A,
     2023, XX, XXXX-XXXX. DOI: 10.1021/acs.jpca.3c04382
   
   for DFT-D4:
   * E. Caldeweyher, C. Bannwarth and S. Grimme, J. Chem. Phys., 2017,
     147, 034112. DOI: 10.1063/1.4993215
   * E. Caldeweyher, S. Ehlert, A. Hansen, H. Neugebauer, S. Spicher,
     C. Bannwarth and S. Grimme, J. Chem. Phys., 2019, 150, 154122.
     DOI: 10.1063/1.5090222
   * E. Caldeweyher, J.-M. Mewes, S. Ehlert and S. Grimme, Phys. Chem. Chem. Phys.
     2020, 22, 8499-8512. DOI: 10.1039/D0CP00502A
   
   for sTDA-xTB:
   * S. Grimme and C. Bannwarth, J. Chem. Phys., 2016, 145, 054103.
     DOI: 10.1063/1.4959605
   
   in the mass-spec context:
   * V. Asgeirsson, C. Bauer and S. Grimme, Chem. Sci., 2017, 8, 4879.
     DOI: 10.1039/c7sc00601b
   * J. Koopman and S. Grimme, ACS Omega 2019, 4, 12, 15120-15133.
     DOI: 10.1021/acsomega.9b02011
   
   for metadynamics refer to:
   * S. Grimme, J. Chem. Theory Comput., 2019, 155, 2847-2862
     DOI: 10.1021/acs.jctc.9b00143
   
   for SPH calculations refer to:
   * S. Spicher and S. Grimme, J. Chem. Theory Comput., 2021, 17, 1701-1714
     DOI: 10.1021/acs.jctc.0c01306
   
   for ONIOM refer to:
   * C. Plett, A. Katbashev, S. Ehlert, S. Grimme, M. Bursch,
     Phys. Chem. Chem. Phys., 2023, 25, 17860-17868. DOI: 10.1039/D3CP02178E
   
   for DIPRO refer to:
   * J. Kohn, N. Gildemeister, S. Grimme, D. Fazzi, A. Hansen,
     J. Chem. Phys., 2023, just accepted.
   
   for PTB refer to:
   * S. Grimme, M. Mueller, A. Hansen, J. Chem. Phys., 2023, 158, 124111.
     DOI: 10.1063/5.0137838
   
   with help from (in alphabetical order)
   P. Atkinson, C. Bannwarth, F. Bohle, G. Brandenburg, E. Caldeweyher
   M. Checinski, S. Dohm, S. Ehlert, S. Ehrlich, I. Gerasimov, C. Hﾃｶlzer
   A. Katbashev, J. Kohn, J. Koopman, C. Lavigne, S. Lehtola, F. Mﾃ､rz, M. Mﾃｼller,
   F. Musil, H. Neugebauer, J. Pisarek, C. Plett, P. Pracht, F. Pultar,
   J. Seibert, P. Shushkov, S. Spicher, M. Stahn, M. Steiner, T. Strunk,
   J. Stﾃｼckrath, T. Rose, and J. Unsleber
   
 * started run on 2026/09/12 at 18:03:40.358     
   ID    Z sym.   atoms
    1    7 N      1
    2    6 C      2-5, 7
    3    8 O      6
    4    1 H      8-16

           -------------------------------------------------
          |                Calculation Setup                |
           -------------------------------------------------

          program call               : C:\ORCA_6.1.1\xtb-6.7.1pre\xtb.exe  Monomer_XTB2_ALPB_XTB.xyz --grad -c 0 -u 0 -P 1 --namespace Monomer_XTB2_ALPB --input Monomer_XTB2_ALPB_XTB.input.tmp --acc 0.200000      
          calculation namespace      : Monomer_XTB2_ALPB
          coordinate file            : Monomer_XTB2_ALPB_XTB.xyz
          omp threads                :                     1


           -------------------------------------------------
          |                 G F N 2 - x T B                 |
           -------------------------------------------------

        Reference                      10.1021/acs.jctc.8b01176
      * Hamiltonian:
        H0-scaling (s, p, d)           1.850000    2.230000    2.230000
        zeta-weighting                 0.500000
      * Dispersion:
        s8                             2.700000
        a1                             0.520000
        a2                             5.000000
        s9                             5.000000
      * Repulsion:
        kExp                           1.500000    1.000000
        rExp                           1.000000
      * Coulomb:
        alpha                          2.000000
        third order                    shell-resolved
        anisotropic                    true
        a3                             3.000000
        a5                             4.000000
        cn-shift                       1.200000
        cn-exp                         4.000000
        max-rad                        5.000000

q/qsh data taken from xtbrestart
CAMM data taken from xtbrestart

          ...................................................
          :                      SETUP                      :
          :.................................................:
          :  # basis functions                  37          :
          :  # atomic orbitals                  37          :
          :  # shells                           23          :
          :  # electrons                        40          :
          :  max. iterations                   250          :
          :  Hamiltonian                  GFN2-xTB          :
          :  restarted?                       true          :
          :  GBSA solvation                  false          :
          :  PC potential                    false          :
          :  electronic temp.          300.0000000     K    :
          :  accuracy                    0.2000000          :
          :  -> integral cutoff          0.3198970E+02      :
          :  -> integral neglect         0.2000000E-08      :
          :  -> SCF convergence          0.2000000E-06 Eh   :
          :  -> wf. convergence          0.2000000E-04 e    :
          :  Broyden damping             0.4000000          :
          :  net charge                          0          :
          :  unpaired electrons                  0          :
          ...................................................

 iter      E             dE          RMSdq      gap      omega  full diag
   1    -22.5839657 -0.225840E+02  0.707E-02    5.17       0.0  T
   2    -22.5839691 -0.330688E-05  0.411E-02    5.16       1.0  T
   3    -22.5839689  0.117496E-06  0.106E-02    5.16       2.4  T
   4    -22.5839693 -0.399421E-06  0.119E-03    5.16      21.1  T
   5    -22.5839693 -0.124041E-08  0.571E-04    5.16      43.7  T
   6    -22.5839693 -0.244246E-09  0.111E-04    5.16     226.0  T
   7    -22.5839693 -0.220624E-10  0.458E-05    5.16     545.4  T

   *** convergence criteria satisfied after 7 iterations ***

         #    Occupation            Energy/Eh            Energy/eV
      -------------------------------------------------------------
         1        2.0000           -0.6883742             -18.7316
       ...           ...                  ...                  ...
        14        2.0000           -0.4807567             -13.0821
        15        2.0000           -0.4783847             -13.0175
        16        2.0000           -0.4773546             -12.9895
        17        2.0000           -0.4686238             -12.7519
        18        2.0000           -0.4427836             -12.0488
        19        2.0000           -0.3848522             -10.4724
        20        2.0000           -0.3835602             -10.4372 (HOMO)
        21                         -0.1938585              -5.2752 (LUMO)
        22                         -0.0042015              -0.1143
        23                          0.0338953               0.9223
        24                          0.0822592               2.2384
        25                          0.0955375               2.5997
       ...                                ...                  ...
        37                          0.6700815              18.2338
      -------------------------------------------------------------
                  HL-Gap            0.1897018 Eh            5.1620 eV
             Fermi-level           -0.2887094 Eh           -7.8562 eV

 SCC (total)                   0 d,  0 h,  0 min,  0.009 sec
 SCC setup                      ...        0 min,  0.001 sec ( 11.110%)
 Dispersion                     ...        0 min,  0.000 sec (  0.000%)
 classical contributions        ...        0 min,  0.000 sec (  0.000%)
 integral evaluation            ...        0 min,  0.001 sec ( 11.110%)
 iterations                     ...        0 min,  0.003 sec ( 33.333%)
 molecular gradient             ...        0 min,  0.004 sec ( 44.446%)
 printout                       ...        0 min,  0.000 sec (  0.000%)

         :::::::::::::::::::::::::::::::::::::::::::::::::::::
         ::                     SUMMARY                     ::
         :::::::::::::::::::::::::::::::::::::::::::::::::::::
         :: total energy             -22.310125670357 Eh    ::
         :: gradient norm              0.005819490619 Eh/a0 ::
         :: HOMO-LUMO gap              5.162047953972 eV    ::
         ::.................................................::
         :: SCC energy               -22.583944107332 Eh    ::
         :: -> isotropic ES            0.039119176090 Eh    ::
         :: -> anisotropic ES          0.003469191350 Eh    ::
         :: -> anisotropic XC          0.008399563233 Eh    ::
         :: -> dispersion             -0.010102217261 Eh    ::
         :: repulsion energy           0.273818436975 Eh    ::
         :: add. restraining           0.000000000000 Eh    ::
         :: total charge               0.000000000000 e     ::
         :::::::::::::::::::::::::::::::::::::::::::::::::::::


Property printout bound to 'properties.out'

           -------------------------------------------------
          | TOTAL ENERGY              -22.310125670357 Eh   |
          | GRADIENT NORM               0.005819490619 Eh/ﾎｱ |
          | HOMO-LUMO GAP               5.162047953972 eV   |
           -------------------------------------------------

------------------------------------------------------------------------
 * finished run on 2026/09/12 at 18:03:40.394     
------------------------------------------------------------------------
 total:
 * wall-time:     0 d,  0 h,  0 min,  0.034 sec
 *  cpu-time:     0 d,  0 h,  0 min,  0.031 sec
 * ratio c/w:     0.919 speedup
 SCF:
 * wall-time:     0 d,  0 h,  0 min,  0.009 sec
 *  cpu-time:     0 d,  0 h,  0 min,  0.016 sec
 * ratio c/w:     1.736 speedup


-------------------------   --------------------
FINAL SINGLE POINT ENERGY       -22.310125670360
-------------------------   --------------------


-------------
DIPOLE MOMENT
-------------
                                X             Y             Z
Total Dipole Moment    :      1.76300      -0.23800       0.02100
                        -----------------------------------------
Magnitude (a.u.)       :      1.77912
Magnitude (Debye)      :      4.52215


------------------
CARTESIAN GRADIENT
------------------

   1   N   :    0.000607940   -0.000751569   -0.000626290
   2   C   :    0.000009037   -0.000558226    0.004435839
   3   C   :   -0.000039969    0.000771274   -0.001617719
   4   C   :   -0.000279943    0.000190873    0.000059978
   5   C   :   -0.000035850    0.000151809   -0.000223979
   6   O   :   -0.000554350    0.000297821   -0.001749581
   7   C   :    0.000033051    0.000034253   -0.000026483
   8   H   :   -0.000069799    0.000084094   -0.000007964
   9   H   :   -0.000047642    0.000028936   -0.000107537
  10   H   :    0.000024451    0.000150329    0.000108907
  11   H   :   -0.000207101    0.000131358    0.000778551
  12   H   :    0.000020049   -0.000750437   -0.000595865
  13   H   :   -0.000117031   -0.000143095    0.000728769
  14   H   :    0.000141424   -0.000010162   -0.000822034
  15   H   :   -0.000055041    0.000295259    0.000904928
  16   H   :    0.000570771    0.000077484   -0.001239520

Difference to translation invariance:
           :   -0.0000000000    0.0000000000    0.0000000000

Difference to rotation invariance:
           :   -0.0000000189   -0.0000002274    0.0000000346

Norm of the Cartesian gradient     ...    0.0058194906
RMS gradient                       ...    0.0008399711
MAX gradient                       ...    0.0044358385
------------------------------------------------------------------------------
                         ORCA GEOMETRY RELAXATION STEP
------------------------------------------------------------------------------

Reading the OPT-File                    .... done
Getting information on internals        .... done
Copying old internal coords+grads       .... done
Making the new internal coordinates     .... (2022 redundants) done
Validating the new internal coordinates .... (2022 redundants) done
Calculating the B-matrix                .... done
Calculating the G,G- and P matrices     .... done
Transforming gradient to internals      .... done
Projecting the internal gradient        .... done
Number of atoms                         ....  16
Number of internal coordinates          ....  77
Current Energy                          ....   -22.310125670 Eh
Current gradient norm                   ....     0.005819491 Eh/bohr
Maximum allowed component of the step   ....  0.300
Current trust radius                    ....  0.700
Updating the Hessian (BFGS)             .... done
Forming the augmented Hessian           .... done
Diagonalizing the augmented Hessian     .... done
Last element of RFO vector              ....  0.997935417
Lowest eigenvalues of augmented Hessian:
 -0.000140886  0.011644725  0.013025413  0.013516763  0.014826786
Length of the computed step             ....  0.064358289
The final length of the internal step   ....  0.064358289
Converting the step to Cartesian space:
 Initial RMS(Int)=    0.0073343077
Transforming coordinates:
 Iter   0:  RMS(Cart)=    0.0056375367 RMS(Int)=    1.0096463381
done
Storing new coordinates                 .... done
The predicted energy change is          ....    -0.000070735
Previously predicted energy change      ....    -0.000163602
Actually observed energy change         ....    -0.000076262
Ratio of predicted to observed change   ....     0.466142247
New trust radius                        ....     0.466666667

                                .--------------------.
          ----------------------|Geometry convergence|-------------------------
          Item                value                   Tolerance       Converged
          ---------------------------------------------------------------------
          Energy change      -0.0000762616            0.0000050000      NO
          RMS gradient        0.0003918701            0.0001000000      NO
          MAX gradient        0.0013325319            0.0003000000      NO
          RMS step            0.0073343077            0.0020000000      NO
          MAX step            0.0306640662            0.0040000000      NO
          -------------------------------------------------------------------------
          ........................................................
          Max(Bonds)      0.0017      Max(Angles)    0.17
          Max(Dihed)        1.76      Max(Improp)    0.00
          ---------------------------------------------------------------------

The optimization has not yet converged - more geometry cycles are needed


    ---------------------------------------------------------------------------
                         Redundant Internal Coordinates
                            (Angstroem and degrees)

        Definition                    Value    dE/dq     Step     New-Value
    ----------------------------------------------------------------------------
     1. B(C   1,N   0)                1.3478  0.000493 -0.0005    1.3472   
     2. B(C   2,C   1)                1.5199 -0.000297  0.0004    1.5203   
     3. B(C   3,C   2)                1.5322  0.000161 -0.0002    1.5319   
     4. B(C   4,N   0)                1.4405 -0.000162  0.0006    1.4411   
     5. B(C   4,C   3)                1.5402  0.000227 -0.0003    1.5399   
     6. B(O   5,C   1)                1.2114  0.000660 -0.0006    1.2108   
     7. B(C   6,N   0)                1.4421  0.000298 -0.0004    1.4417   
     8. B(H   7,C   6)                1.0871 -0.000037  0.0000    1.0871   
     9. B(H   8,C   6)                1.0919 -0.000055  0.0001    1.0920   
    10. B(H   9,C   6)                1.0919 -0.000048  0.0001    1.0920   
    11. B(H  10,C   2)                1.0911  0.000651 -0.0011    1.0900   
    12. B(H  11,C   2)                1.0907  0.000803 -0.0011    1.0896   
    13. B(H  12,C   3)                1.0897  0.000619 -0.0009    1.0888   
    14. B(H  13,C   3)                1.0898  0.000717 -0.0010    1.0887   
    15. B(H  14,C   4)                1.0979  0.000766 -0.0011    1.0968   
    16. B(H  15,C   4)                1.0987  0.001333 -0.0017    1.0970   
    17. A(C   1,N   0,C   6)          122.28 -0.000303    0.05    122.33   
    18. A(C   1,N   0,C   4)          115.59  0.000403   -0.09    115.50   
    19. A(C   4,N   0,C   6)          122.13 -0.000100    0.04    122.17   
    20. A(N   0,C   1,C   2)          108.17 -0.000200    0.04    108.22   
    21. A(N   0,C   1,O   5)          125.02  0.000007   -0.01    125.01   
    22. A(C   2,C   1,O   5)          126.78  0.000151   -0.03    126.75   
    23. A(C   1,C   2,C   3)          105.71 -0.000041    0.01    105.73   
    24. A(H  10,C   2,H  11)          107.61 -0.000022    0.02    107.64   
    25. A(C   3,C   2,H  11)          112.75 -0.000134    0.00    112.76   
    26. A(C   1,C   2,H  11)          109.30  0.000581   -0.17    109.13   
    27. A(C   3,C   2,H  10)          112.66  0.000126    0.03    112.69   
    28. A(C   1,C   2,H  10)          108.71 -0.000507    0.10    108.81   
    29. A(C   4,C   3,H  13)          110.50 -0.000433    0.09    110.59   
    30. A(C   2,C   3,H  13)          111.13 -0.000043    0.01    111.13   
    31. A(C   4,C   3,H  12)          110.60  0.000006   -0.03    110.57   
    32. A(C   2,C   3,H  12)          110.97 -0.000249    0.05    111.02   
    33. A(H  12,C   3,H  13)          108.00  0.000415   -0.04    107.96   
    34. A(C   2,C   3,C   4)          105.66  0.000284   -0.05    105.61   
    35. A(N   0,C   4,H  15)          110.20  0.000103    0.00    110.20   
    36. A(C   3,C   4,H  14)          111.83  0.000321   -0.05    111.79   
    37. A(N   0,C   4,H  14)          110.04 -0.000222    0.05    110.09   
    38. A(C   3,C   4,H  15)          111.73 -0.000124    0.00    111.73   
    39. A(N   0,C   4,C   3)          104.86 -0.000454    0.08    104.94   
    40. A(H  14,C   4,H  15)          108.17  0.000348   -0.10    108.07   
    41. A(H   8,C   6,H   9)          107.95 -0.000170    0.04    107.99   
    42. A(H   7,C   6,H   9)          109.49 -0.000126    0.02    109.50   
    43. A(N   0,C   6,H   9)          110.20  0.000217   -0.02    110.18   
    44. A(H   7,C   6,H   8)          109.50 -0.000047    0.01    109.51   
    45. A(N   0,C   6,H   8)          110.21 -0.000003   -0.01    110.19   
    46. A(N   0,C   6,H   7)          109.48  0.000123   -0.03    109.45   
    47. D(O   5,C   1,N   0,C   4)   -178.28  0.000798   -1.65   -179.93   
    48. D(C   2,C   1,N   0,C   6)    179.63 -0.000431    0.47    180.10   
    49. D(O   5,C   1,N   0,C   6)      1.61  0.000807   -1.72     -0.11   
    50. D(C   2,C   1,N   0,C   4)     -0.25 -0.000440    0.53      0.27   
    51. D(C   3,C   2,C   1,O   5)    178.63 -0.000737    1.64    180.26   
    52. D(H  10,C   2,C   1,N   0)    121.83  0.000387   -0.44    121.40   
    53. D(H  11,C   2,C   1,N   0)   -120.97  0.000399   -0.44   -121.41   
    54. D(H  10,C   2,C   1,O   5)    -60.19 -0.000882    1.76    -58.43   
    55. D(C   3,C   2,C   1,N   0)      0.65  0.000532   -0.56      0.09   
    56. D(H  12,C   3,C   2,H  10)      0.56  0.000179    0.16      0.72   
    57. D(C   4,C   3,C   2,H  11)    118.59  0.000171    0.17    118.76   
    58. D(C   4,C   3,C   2,H  10)   -119.36  0.000136    0.21   -119.15   
    59. D(C   4,C   3,C   2,C   1)     -0.77 -0.000437    0.38     -0.39   
    60. D(H  12,C   3,C   2,H  11)   -121.49  0.000214    0.11   -121.38   
    61. D(H  12,C   3,C   2,C   1)    119.15 -0.000394    0.33    119.47   
    62. D(H  14,C   4,C   3,H  13)   -119.85 -0.000290    0.04   -119.80   
    63. D(H  14,C   4,C   3,H  12)     -0.31 -0.000048    0.03     -0.28   
    64. D(H  14,C   4,C   3,C   2)    119.86 -0.000173    0.02    119.88   
    65. D(N   0,C   4,C   3,H  12)   -119.53  0.000325   -0.06   -119.59   
    66. D(N   0,C   4,C   3,C   2)      0.63  0.000199   -0.06      0.57   
    67. D(H  15,C   4,N   0,C   1)    120.13 -0.000206   -0.23    119.90   
    68. D(N   0,C   4,C   3,H  13)    120.93  0.000082   -0.04    120.89   
    69. D(H  14,C   4,N   0,C   6)     59.44  0.000140   -0.26     59.18   
    70. D(H  14,C   4,N   0,C   1)   -120.67  0.000149   -0.32   -120.99   
    71. D(C   3,C   4,N   0,C   6)    179.87  0.000142   -0.23    179.64   
    72. D(C   3,C   4,N   0,C   1)     -0.25  0.000151   -0.29     -0.54   
    73. D(H   8,C   6,N   0,C   4)   -120.34 -0.000037    0.02   -120.32   
    74. D(H   8,C   6,N   0,C   1)     59.78 -0.000047    0.09     59.88   
    75. D(H   7,C   6,N   0,C   4)      0.15 -0.000019    0.01      0.16   
    76. D(H   9,C   6,N   0,C   1)    -59.25  0.000030    0.07    -59.18   
    77. D(H   7,C   6,N   0,C   1)   -179.72 -0.000029    0.08   -179.64   
    ----------------------------------------------------------------------------

Geometry step timings:
Preparation and reading OPT file:      0.008 s (57.143 %)
Internal coordinates            :      0.000 s ( 0.000 %)
B/P matrices and projection     :      0.001 s ( 7.143 %)
Hessian update/contruction      :      0.002 s (14.286 %)
Making the step                 :      0.001 s ( 7.143 %)
Converting the step to Cartesian:      0.000 s ( 0.000 %)
Storing new data                :      0.001 s ( 7.143 %)
Checking convergence            :      0.000 s ( 0.000 %)
Final printing                  :      0.001 s ( 7.143 %)
Total time                      :      0.014 s

Time for energy+gradient        :      0.116 s
Time for complete geometry iter :      0.157 s

         *************************************************************
         *                GEOMETRY OPTIMIZATION CYCLE   7            *
         *************************************************************
---------------------------------
CARTESIAN COORDINATES (ANGSTROEM)
---------------------------------
  N    -0.003402    1.178390    0.000070
  C    -1.134046    0.445875   -0.003073
  C    -0.747799   -1.024580   -0.003162
  C     0.783908   -1.051545    0.003061
  C     1.224444    0.424016   -0.003967
  O    -2.256378    0.900295   -0.002141
  C    -0.018700    2.619998    0.003085
  H     1.002484    2.992896   -0.001058
  H    -0.538279    2.989589    0.889604
  H    -0.546554    2.992894   -0.877133
  H    -1.180328   -1.501672    0.876268
  H    -1.174032   -1.505681   -0.882976
  H     1.161698   -1.559269    0.889047
  H     1.171010   -1.570782   -0.872085
  H     1.823469    0.674387    0.879977
  H     1.815506    0.667190   -0.895517

----------------------------
CARTESIAN COORDINATES (A.U.)
----------------------------
  NO LB    ZA    FRAG    MASS        X           Y           Z
   0 N   7.0000    0    14.007   -0.006428    2.226834    0.000133
   1 C   6.0000    0    12.011   -2.143036    0.842581   -0.005808
   2 C   6.0000    0    12.011   -1.413135   -1.936176   -0.005975
   3 C   6.0000    0    12.011    1.481372   -1.987133    0.005784
   4 C   6.0000    0    12.011    2.313864    0.801274   -0.007496
   5 O   8.0000    0    15.999   -4.263937    1.701310   -0.004047
   6 C   6.0000    0    12.011   -0.035338    4.951078    0.005830
   7 H   1.0000    0     1.008    1.894420    5.655753   -0.001998
   8 H   1.0000    0     1.008   -1.017199    5.649504    1.681107
   9 H   1.0000    0     1.008   -1.032838    5.655751   -1.657542
  10 H   1.0000    0     1.008   -2.230497   -2.837748    1.655907
  11 H   1.0000    0     1.008   -2.218599   -2.845324   -1.668582
  12 H   1.0000    0     1.008    2.195290   -2.946591    1.680056
  13 H   1.0000    0     1.008    2.212887   -2.968348   -1.648002
  14 H   1.0000    0     1.008    3.445857    1.274407    1.662916
  15 H   1.0000    0     1.008    3.430808    1.260807   -1.692282

      -----------------------------------------------------------      
     |                   =====================                   |     
     |                           x T B                           |     
     |                   =====================                   |     
     |                         S. Grimme                         |     
     |          Mulliken Center for Theoretical Chemistry        |     
     |                    University of Bonn                     |     
      -----------------------------------------------------------      

   * xtb version 6.7.1pre (5071a88) compiled by 'Marcel@Raven' on 2024-07-23

   xtb is free software: you can redistribute it and/or modify it under
   the terms of the GNU Lesser General Public License as published by
   the Free Software Foundation, either version 3 of the License, or
   (at your option) any later version.
   
   xtb is distributed in the hope that it will be useful,
   but WITHOUT ANY WARRANTY; without even the implied warranty of
   MERCHANTABILITY or FITNESS FOR A PARTICULAR PURPOSE.  See the
   GNU Lesser General Public License for more details.
   
   Cite this work as:
   * C. Bannwarth, E. Caldeweyher, S. Ehlert, A. Hansen, P. Pracht,
     J. Seibert, S. Spicher, S. Grimme, WIREs Comput. Mol. Sci., 2020, 11,
     e01493. DOI: 10.1002/wcms.1493
   
   for GFN2-xTB:
   * C. Bannwarth, S. Ehlert and S. Grimme., J. Chem. Theory Comput., 2019,
     15, 1652-1671. DOI: 10.1021/acs.jctc.8b01176
   for GFN1-xTB:
   * S. Grimme, C. Bannwarth, P. Shushkov, J. Chem. Theory Comput., 2017,
     13, 1989-2009. DOI: 10.1021/acs.jctc.7b00118
   for GFN0-xTB:
   * P. Pracht, E. Caldeweyher, S. Ehlert, S. Grimme, ChemRxiv, 2019, preprint.
     DOI: 10.26434/chemrxiv.8326202.v1
   for GFN-FF:
   * S. Spicher and S. Grimme, Angew. Chem. Int. Ed., 2020, 59, 15665-15673.
     DOI: 10.1002/anie.202004239
   
   for ALPB and GBSA implicit solvation:
   * S. Ehlert, M. Stahn, S. Spicher, S. Grimme, J. Chem. Theory Comput.,
     2021, 17, 4250-4261. DOI: 10.1021/acs.jctc.1c00471
   
   for ddCOSMO and CPCM-X implicit solvation:
   * M. Stahn, S. Ehlert, S. Grimme, J. Phys. Chem. A,
     2023, XX, XXXX-XXXX. DOI: 10.1021/acs.jpca.3c04382
   
   for DFT-D4:
   * E. Caldeweyher, C. Bannwarth and S. Grimme, J. Chem. Phys., 2017,
     147, 034112. DOI: 10.1063/1.4993215
   * E. Caldeweyher, S. Ehlert, A. Hansen, H. Neugebauer, S. Spicher,
     C. Bannwarth and S. Grimme, J. Chem. Phys., 2019, 150, 154122.
     DOI: 10.1063/1.5090222
   * E. Caldeweyher, J.-M. Mewes, S. Ehlert and S. Grimme, Phys. Chem. Chem. Phys.
     2020, 22, 8499-8512. DOI: 10.1039/D0CP00502A
   
   for sTDA-xTB:
   * S. Grimme and C. Bannwarth, J. Chem. Phys., 2016, 145, 054103.
     DOI: 10.1063/1.4959605
   
   in the mass-spec context:
   * V. Asgeirsson, C. Bauer and S. Grimme, Chem. Sci., 2017, 8, 4879.
     DOI: 10.1039/c7sc00601b
   * J. Koopman and S. Grimme, ACS Omega 2019, 4, 12, 15120-15133.
     DOI: 10.1021/acsomega.9b02011
   
   for metadynamics refer to:
   * S. Grimme, J. Chem. Theory Comput., 2019, 155, 2847-2862
     DOI: 10.1021/acs.jctc.9b00143
   
   for SPH calculations refer to:
   * S. Spicher and S. Grimme, J. Chem. Theory Comput., 2021, 17, 1701-1714
     DOI: 10.1021/acs.jctc.0c01306
   
   for ONIOM refer to:
   * C. Plett, A. Katbashev, S. Ehlert, S. Grimme, M. Bursch,
     Phys. Chem. Chem. Phys., 2023, 25, 17860-17868. DOI: 10.1039/D3CP02178E
   
   for DIPRO refer to:
   * J. Kohn, N. Gildemeister, S. Grimme, D. Fazzi, A. Hansen,
     J. Chem. Phys., 2023, just accepted.
   
   for PTB refer to:
   * S. Grimme, M. Mueller, A. Hansen, J. Chem. Phys., 2023, 158, 124111.
     DOI: 10.1063/5.0137838
   
   with help from (in alphabetical order)
   P. Atkinson, C. Bannwarth, F. Bohle, G. Brandenburg, E. Caldeweyher
   M. Checinski, S. Dohm, S. Ehlert, S. Ehrlich, I. Gerasimov, C. Hﾃｶlzer
   A. Katbashev, J. Kohn, J. Koopman, C. Lavigne, S. Lehtola, F. Mﾃ､rz, M. Mﾃｼller,
   F. Musil, H. Neugebauer, J. Pisarek, C. Plett, P. Pracht, F. Pultar,
   J. Seibert, P. Shushkov, S. Spicher, M. Stahn, M. Steiner, T. Strunk,
   J. Stﾃｼckrath, T. Rose, and J. Unsleber
   
 * started run on 2026/09/12 at 18:03:40.514     
   ID    Z sym.   atoms
    1    7 N      1
    2    6 C      2-5, 7
    3    8 O      6
    4    1 H      8-16

           -------------------------------------------------
          |                Calculation Setup                |
           -------------------------------------------------

          program call               : C:\ORCA_6.1.1\xtb-6.7.1pre\xtb.exe  Monomer_XTB2_ALPB_XTB.xyz --grad -c 0 -u 0 -P 1 --namespace Monomer_XTB2_ALPB --input Monomer_XTB2_ALPB_XTB.input.tmp --acc 0.200000      
          calculation namespace      : Monomer_XTB2_ALPB
          coordinate file            : Monomer_XTB2_ALPB_XTB.xyz
          omp threads                :                     1


           -------------------------------------------------
          |                 G F N 2 - x T B                 |
           -------------------------------------------------

        Reference                      10.1021/acs.jctc.8b01176
      * Hamiltonian:
        H0-scaling (s, p, d)           1.850000    2.230000    2.230000
        zeta-weighting                 0.500000
      * Dispersion:
        s8                             2.700000
        a1                             0.520000
        a2                             5.000000
        s9                             5.000000
      * Repulsion:
        kExp                           1.500000    1.000000
        rExp                           1.000000
      * Coulomb:
        alpha                          2.000000
        third order                    shell-resolved
        anisotropic                    true
        a3                             3.000000
        a5                             4.000000
        cn-shift                       1.200000
        cn-exp                         4.000000
        max-rad                        5.000000

q/qsh data taken from xtbrestart
CAMM data taken from xtbrestart

          ...................................................
          :                      SETUP                      :
          :.................................................:
          :  # basis functions                  37          :
          :  # atomic orbitals                  37          :
          :  # shells                           23          :
          :  # electrons                        40          :
          :  max. iterations                   250          :
          :  Hamiltonian                  GFN2-xTB          :
          :  restarted?                       true          :
          :  GBSA solvation                  false          :
          :  PC potential                    false          :
          :  electronic temp.          300.0000000     K    :
          :  accuracy                    0.2000000          :
          :  -> integral cutoff          0.3198970E+02      :
          :  -> integral neglect         0.2000000E-08      :
          :  -> SCF convergence          0.2000000E-06 Eh   :
          :  -> wf. convergence          0.2000000E-04 e    :
          :  Broyden damping             0.4000000          :
          :  net charge                          0          :
          :  unpaired electrons                  0          :
          ...................................................

 iter      E             dE          RMSdq      gap      omega  full diag
   1    -22.5851425 -0.225851E+02  0.364E-02    5.17       0.0  T
   2    -22.5851428 -0.240436E-06  0.217E-02    5.17       1.2  T
   3    -22.5851428  0.427551E-09  0.220E-03    5.17      11.4  T
   4    -22.5851428 -0.351143E-07  0.712E-04    5.17      35.1  T
   5    -22.5851428 -0.620421E-09  0.343E-04    5.17      72.9  T
   6    -22.5851428 -0.215994E-09  0.674E-05    5.17     371.0  T
   7    -22.5851428 -0.122391E-10  0.318E-05    5.17     785.1  T

   *** convergence criteria satisfied after 7 iterations ***

         #    Occupation            Energy/Eh            Energy/eV
      -------------------------------------------------------------
         1        2.0000           -0.6884657             -18.7341
       ...           ...                  ...                  ...
        14        2.0000           -0.4807967             -13.0831
        15        2.0000           -0.4784169             -13.0184
        16        2.0000           -0.4773495             -12.9893
        17        2.0000           -0.4685797             -12.7507
        18        2.0000           -0.4428003             -12.0492
        19        2.0000           -0.3847881             -10.4706
        20        2.0000           -0.3835645             -10.4373 (HOMO)
        21                         -0.1934633              -5.2644 (LUMO)
        22                         -0.0043391              -0.1181
        23                          0.0343136               0.9337
        24                          0.0826390               2.2487
        25                          0.0968685               2.6359
       ...                                ...                  ...
        37                          0.6718645              18.2824
      -------------------------------------------------------------
                  HL-Gap            0.1901012 Eh            5.1729 eV
             Fermi-level           -0.2885139 Eh           -7.8509 eV

 SCC (total)                   0 d,  0 h,  0 min,  0.010 sec
 SCC setup                      ...        0 min,  0.000 sec (  0.000%)
 Dispersion                     ...        0 min,  0.000 sec (  0.000%)
 classical contributions        ...        0 min,  0.000 sec (  0.000%)
 integral evaluation            ...        0 min,  0.002 sec ( 20.001%)
 iterations                     ...        0 min,  0.003 sec ( 30.000%)
 molecular gradient             ...        0 min,  0.004 sec ( 40.000%)
 printout                       ...        0 min,  0.001 sec (  9.999%)

         :::::::::::::::::::::::::::::::::::::::::::::::::::::
         ::                     SUMMARY                     ::
         :::::::::::::::::::::::::::::::::::::::::::::::::::::
         :: total energy             -22.310194849965 Eh    ::
         :: gradient norm              0.001087739429 Eh/a0 ::
         :: HOMO-LUMO gap              5.172917408797 eV    ::
         ::.................................................::
         :: SCC energy               -22.585117610061 Eh    ::
         :: -> isotropic ES            0.039123739015 Eh    ::
         :: -> anisotropic ES          0.003452573868 Eh    ::
         :: -> anisotropic XC          0.008356345498 Eh    ::
         :: -> dispersion             -0.010102511347 Eh    ::
         :: repulsion energy           0.274922760096 Eh    ::
         :: add. restraining           0.000000000000 Eh    ::
         :: total charge               0.000000000000 e     ::
         :::::::::::::::::::::::::::::::::::::::::::::::::::::


Property printout bound to 'properties.out'

           -------------------------------------------------
          | TOTAL ENERGY              -22.310194849965 Eh   |
          | GRADIENT NORM               0.001087739429 Eh/ﾎｱ |
          | HOMO-LUMO GAP               5.172917408797 eV   |
           -------------------------------------------------

------------------------------------------------------------------------
 * finished run on 2026/09/12 at 18:03:40.576     
------------------------------------------------------------------------
 total:
 * wall-time:     0 d,  0 h,  0 min,  0.059 sec
 *  cpu-time:     0 d,  0 h,  0 min,  0.016 sec
 * ratio c/w:     0.265 speedup
 SCF:
 * wall-time:     0 d,  0 h,  0 min,  0.010 sec
 *  cpu-time:     0 d,  0 h,  0 min,  0.000 sec
 * ratio c/w:     0.000 speedup


-------------------------   --------------------
FINAL SINGLE POINT ENERGY       -22.310194849970
-------------------------   --------------------


-------------
DIPOLE MOMENT
-------------
                                X             Y             Z
Total Dipole Moment    :      1.76300      -0.23700       0.00000
                        -----------------------------------------
Magnitude (a.u.)       :      1.77886
Magnitude (Debye)      :      4.52150


------------------
CARTESIAN GRADIENT
------------------

   1   N   :   -0.000041885   -0.000139870    0.000137951
   2   C   :   -0.000242326   -0.000077288   -0.000070612
   3   C   :   -0.000320326    0.000139956   -0.000294844
   4   C   :    0.000183111   -0.000291373   -0.000086597
   5   C   :    0.000342746    0.000097263   -0.000064135
   6   O   :    0.000306397    0.000014174    0.000094078
   7   C   :   -0.000024494   -0.000062880    0.000058872
   8   H   :   -0.000037199    0.000018770    0.000000235
   9   H   :   -0.000025205    0.000046368   -0.000050091
  10   H   :   -0.000013058    0.000036997    0.000030294
  11   H   :    0.000093769    0.000104211    0.000268489
  12   H   :    0.000205461   -0.000107038   -0.000031169
  13   H   :   -0.000203780    0.000122868    0.000224152
  14   H   :   -0.000098935    0.000142375   -0.000208665
  15   H   :   -0.000130690    0.000044060    0.000253716
  16   H   :    0.000006412   -0.000088591   -0.000261675

Difference to translation invariance:
           :    0.0000000000   -0.0000000000    0.0000000000

Difference to rotation invariance:
           :    0.0000000838    0.0000002967   -0.0000000122

Norm of the Cartesian gradient     ...    0.0010877394
RMS gradient                       ...    0.0001570017
MAX gradient                       ...    0.0003427462
------------------------------------------------------------------------------
                         ORCA GEOMETRY RELAXATION STEP
------------------------------------------------------------------------------

Reading the OPT-File                    .... done
Getting information on internals        .... done
Copying old internal coords+grads       .... done
Making the new internal coordinates     .... (2022 redundants) done
Validating the new internal coordinates .... (2022 redundants) done
Calculating the B-matrix                .... done
Calculating the G,G- and P matrices     .... done
Transforming gradient to internals      .... done
Projecting the internal gradient        .... done
Number of atoms                         ....  16
Number of internal coordinates          ....  77
Current Energy                          ....   -22.310194850 Eh
Current gradient norm                   ....     0.001087739 Eh/bohr
Maximum allowed component of the step   ....  0.300
Current trust radius                    ....  0.467
Updating the Hessian (BFGS)             .... done
Forming the augmented Hessian           .... done
Diagonalizing the augmented Hessian     .... done
Last element of RFO vector              ....  0.999961716
Lowest eigenvalues of augmented Hessian:
 -0.000005656  0.011618993  0.013026151  0.013497695  0.014823648
Length of the computed step             ....  0.008750574
The final length of the internal step   ....  0.008750574
Converting the step to Cartesian space:
 Initial RMS(Int)=    0.0009972205
Transforming coordinates:
 Iter   0:  RMS(Cart)=    0.0014446719 RMS(Int)=    0.0009967660
done
Storing new coordinates                 .... done
The predicted energy change is          ....    -0.000002828
Previously predicted energy change      ....    -0.000070735
Actually observed energy change         ....    -0.000069180
Ratio of predicted to observed change   ....     0.978014058
New trust radius                        ....     0.700000000

                                .--------------------.
          ----------------------|Geometry convergence|-------------------------
          Item                value                   Tolerance       Converged
          ---------------------------------------------------------------------
          Energy change      -0.0000691796            0.0000050000      NO
          RMS gradient        0.0001041275            0.0001000000      NO
          MAX gradient        0.0002786098            0.0003000000      YES
          RMS step            0.0009972205            0.0020000000      YES
          MAX step            0.0029191841            0.0040000000      YES
          -------------------------------------------------------------------------
          ........................................................
          Max(Bonds)      0.0003      Max(Angles)    0.15
          Max(Dihed)        0.17      Max(Improp)    0.00
          ---------------------------------------------------------------------

The optimization has not yet converged - more geometry cycles are needed


    ---------------------------------------------------------------------------
                         Redundant Internal Coordinates
                            (Angstroem and degrees)

        Definition                    Value    dE/dq     Step     New-Value
    ----------------------------------------------------------------------------
     1. B(C   1,N   0)                1.3472 -0.000063  0.0002    1.3474   
     2. B(C   2,C   1)                1.5203 -0.000144 -0.0000    1.5203   
     3. B(C   3,C   2)                1.5320 -0.000017 -0.0001    1.5318   
     4. B(C   4,N   0)                1.4411  0.000086 -0.0002    1.4409   
     5. B(C   4,C   3)                1.5399  0.000056 -0.0003    1.5396   
     6. B(O   5,C   1)                1.2108 -0.000279  0.0001    1.2110   
     7. B(C   6,N   0)                1.4417  0.000040 -0.0001    1.4416   
     8. B(H   7,C   6)                1.0871 -0.000029  0.0001    1.0872   
     9. B(H   8,C   6)                1.0920 -0.000013  0.0000    1.0920   
    10. B(H   9,C   6)                1.0920 -0.000005  0.0000    1.0920   
    11. B(H  10,C   2)                1.0900  0.000134 -0.0001    1.0899   
    12. B(H  11,C   2)                1.0896 -0.000008  0.0001    1.0897   
    13. B(H  12,C   3)                1.0888  0.000054  0.0000    1.0888   
    14. B(H  13,C   3)                1.0887  0.000065  0.0000    1.0887   
    15. B(H  14,C   4)                1.0968  0.000143 -0.0001    1.0966   
    16. B(H  15,C   4)                1.0970  0.000196 -0.0002    1.0968   
    17. A(C   1,N   0,C   6)          122.33 -0.000184    0.03    122.36   
    18. A(C   1,N   0,C   4)          115.50  0.000091   -0.03    115.46   
    19. A(C   4,N   0,C   6)          122.17  0.000094   -0.00    122.17   
    20. A(N   0,C   1,C   2)          108.22  0.000002    0.00    108.22   
    21. A(N   0,C   1,O   5)          125.02 -0.000148    0.01    125.03   
    22. A(C   2,C   1,O   5)          126.76  0.000146   -0.01    126.75   
    23. A(C   1,C   2,C   3)          105.73 -0.000001    0.01    105.73   
    24. A(H  10,C   2,H  11)          107.64  0.000155   -0.13    107.51   
    25. A(C   3,C   2,H  11)          112.75 -0.000175    0.03    112.78   
    26. A(C   1,C   2,H  11)          109.13  0.000196   -0.03    109.10   
    27. A(C   3,C   2,H  10)          112.69 -0.000089    0.05    112.75   
    28. A(C   1,C   2,H  10)          108.81 -0.000079    0.07    108.88   
    29. A(C   4,C   3,H  13)          110.59 -0.000153    0.02    110.61   
    30. A(C   2,C   3,H  13)          111.14 -0.000011    0.04    111.17   
    31. A(C   4,C   3,H  12)          110.57 -0.000044    0.05    110.61   
    32. A(C   2,C   3,H  12)          111.00 -0.000148    0.07    111.07   
    33. A(H  12,C   3,H  13)          107.96  0.000275   -0.15    107.80   
    34. A(C   2,C   3,C   4)          105.61  0.000069   -0.01    105.60   
    35. A(N   0,C   4,H  15)          110.20  0.000036   -0.02    110.18   
    36. A(C   3,C   4,H  14)          111.80  0.000038    0.03    111.82   
    37. A(N   0,C   4,H  14)          110.10 -0.000056    0.06    110.16   
    38. A(C   3,C   4,H  15)          111.73 -0.000059    0.03    111.76   
    39. A(N   0,C   4,C   3)          104.94 -0.000160    0.04    104.98   
    40. A(H  14,C   4,H  15)          108.07  0.000191   -0.13    107.94   
    41. A(H   8,C   6,H   9)          107.99 -0.000081    0.03    108.02   
    42. A(H   7,C   6,H   9)          109.50 -0.000022    0.00    109.51   
    43. A(N   0,C   6,H   9)          110.18  0.000034   -0.01    110.17   
    44. A(H   7,C   6,H   8)          109.51 -0.000027    0.00    109.51   
    45. A(N   0,C   6,H   8)          110.19  0.000057   -0.01    110.18   
    46. A(N   0,C   6,H   7)          109.45  0.000037   -0.01    109.44   
    47. D(O   5,C   1,N   0,C   4)   -179.91 -0.000077    0.06   -179.85   
    48. D(C   2,C   1,N   0,C   6)   -179.90  0.000044   -0.09   -179.99   
    49. D(O   5,C   1,N   0,C   6)     -0.09 -0.000047    0.03     -0.06   
    50. D(C   2,C   1,N   0,C   4)      0.28  0.000015   -0.06      0.22   
    51. D(C   3,C   2,C   1,O   5)   -179.70  0.000100   -0.06   -179.77   
    52. D(H  10,C   2,C   1,N   0)    121.39 -0.000143    0.17    121.56   
    53. D(H  11,C   2,C   1,N   0)   -121.42  0.000109    0.04   -121.38   
    54. D(H  10,C   2,C   1,O   5)    -58.42 -0.000049    0.05    -58.37   
    55. D(C   3,C   2,C   1,N   0)      0.10  0.000006    0.05      0.16   
    56. D(H  12,C   3,C   2,H  10)      0.72  0.000032   -0.06      0.66   
    57. D(C   4,C   3,C   2,H  11)    118.75  0.000119   -0.04    118.71   
    58. D(C   4,C   3,C   2,H  10)   -119.15  0.000123   -0.15   -119.30   
    59. D(C   4,C   3,C   2,C   1)     -0.41 -0.000022   -0.03     -0.43   
    60. D(H  12,C   3,C   2,H  11)   -121.38  0.000028    0.05   -121.33   
    61. D(H  12,C   3,C   2,C   1)    119.46 -0.000114    0.06    119.53   
    62. D(H  14,C   4,C   3,H  13)   -119.80 -0.000172    0.15   -119.65   
    63. D(H  14,C   4,C   3,H  12)     -0.28  0.000043    0.00     -0.28   
    64. D(H  14,C   4,C   3,C   2)    119.87 -0.000117    0.10    119.98   
    65. D(N   0,C   4,C   3,H  12)   -119.60  0.000189   -0.11   -119.72   
    66. D(N   0,C   4,C   3,C   2)      0.55  0.000029   -0.01      0.54   
    67. D(H  15,C   4,N   0,C   1)    119.89 -0.000173    0.09    119.98   
    68. D(N   0,C   4,C   3,H  13)    120.88 -0.000027    0.04    120.91   
    69. D(H  14,C   4,N   0,C   6)     59.19  0.000021   -0.02     59.17   
    70. D(H  14,C   4,N   0,C   1)   -120.99  0.000050   -0.05   -121.04   
    71. D(C   3,C   4,N   0,C   6)    179.65 -0.000057    0.07    179.72   
    72. D(C   3,C   4,N   0,C   1)     -0.54 -0.000028    0.04     -0.49   
    73. D(H   8,C   6,N   0,C   4)   -120.32 -0.000008    0.02   -120.30   
    74. D(H   8,C   6,N   0,C   1)     59.88 -0.000039    0.05     59.93   
    75. D(H   7,C   6,N   0,C   4)      0.16  0.000018    0.00      0.16   
    76. D(H   9,C   6,N   0,C   1)    -59.18  0.000004    0.03    -59.15   
    77. D(H   7,C   6,N   0,C   1)   -179.64 -0.000014    0.04   -179.60   
    ----------------------------------------------------------------------------

Geometry step timings:
Preparation and reading OPT file:      0.009 s (60.000 %)
Internal coordinates            :      0.000 s ( 0.000 %)
B/P matrices and projection     :      0.001 s ( 6.667 %)
Hessian update/contruction      :      0.002 s (13.333 %)
Making the step                 :      0.000 s ( 0.000 %)
Converting the step to Cartesian:      0.001 s ( 6.667 %)
Storing new data                :      0.000 s ( 0.000 %)
Checking convergence            :      0.000 s ( 0.000 %)
Final printing                  :      0.002 s (13.333 %)
Total time                      :      0.015 s

Time for energy+gradient        :      0.129 s
Time for complete geometry iter :      0.169 s

         *************************************************************
         *                GEOMETRY OPTIMIZATION CYCLE   8            *
         *************************************************************
---------------------------------
CARTESIAN COORDINATES (ANGSTROEM)
---------------------------------
  N    -0.003725    1.178802    0.000811
  C    -1.134368    0.445875   -0.001809
  C    -0.747778   -1.024459   -0.002912
  C     0.783797   -1.051292    0.003436
  C     1.223743    0.424109   -0.003154
  O    -2.257026    0.899871   -0.001785
  C    -0.018517    2.620321    0.002580
  H     1.002922    2.992659   -0.002476
  H    -0.537277    2.990655    0.889287
  H    -0.546664    2.992474   -0.877781
  H    -1.181381   -1.503893    0.874639
  H    -1.174347   -1.504634   -0.883180
  H     1.162826   -1.560389    0.888128
  H     1.171612   -1.570712   -0.871308
  H     1.824183    0.674505    0.879682
  H     1.815000    0.668106   -0.894158

----------------------------
CARTESIAN COORDINATES (A.U.)
----------------------------
  NO LB    ZA    FRAG    MASS        X           Y           Z
   0 N   7.0000    0    14.007   -0.007040    2.227614    0.001533
   1 C   6.0000    0    12.011   -2.143644    0.842582   -0.003418
   2 C   6.0000    0    12.011   -1.413095   -1.935946   -0.005504
   3 C   6.0000    0    12.011    1.481162   -1.986654    0.006493
   4 C   6.0000    0    12.011    2.312539    0.801450   -0.005960
   5 O   8.0000    0    15.999   -4.265161    1.700510   -0.003374
   6 C   6.0000    0    12.011   -0.034992    4.951688    0.004875
   7 H   1.0000    0     1.008    1.895248    5.655305   -0.004679
   8 H   1.0000    0     1.008   -1.015306    5.651518    1.680509
   9 H   1.0000    0     1.008   -1.033045    5.654957   -1.658765
  10 H   1.0000    0     1.008   -2.232486   -2.841945    1.652828
  11 H   1.0000    0     1.008   -2.219194   -2.843345   -1.668968
  12 H   1.0000    0     1.008    2.197423   -2.948708    1.678318
  13 H   1.0000    0     1.008    2.214025   -2.968215   -1.646534
  14 H   1.0000    0     1.008    3.447206    1.274630    1.662359
  15 H   1.0000    0     1.008    3.429852    1.262537   -1.689714

      -----------------------------------------------------------      
     |                   =====================                   |     
     |                           x T B                           |     
     |                   =====================                   |     
     |                         S. Grimme                         |     
     |          Mulliken Center for Theoretical Chemistry        |     
     |                    University of Bonn                     |     
      -----------------------------------------------------------      

   * xtb version 6.7.1pre (5071a88) compiled by 'Marcel@Raven' on 2024-07-23

   xtb is free software: you can redistribute it and/or modify it under
   the terms of the GNU Lesser General Public License as published by
   the Free Software Foundation, either version 3 of the License, or
   (at your option) any later version.
   
   xtb is distributed in the hope that it will be useful,
   but WITHOUT ANY WARRANTY; without even the implied warranty of
   MERCHANTABILITY or FITNESS FOR A PARTICULAR PURPOSE.  See the
   GNU Lesser General Public License for more details.
   
   Cite this work as:
   * C. Bannwarth, E. Caldeweyher, S. Ehlert, A. Hansen, P. Pracht,
     J. Seibert, S. Spicher, S. Grimme, WIREs Comput. Mol. Sci., 2020, 11,
     e01493. DOI: 10.1002/wcms.1493
   
   for GFN2-xTB:
   * C. Bannwarth, S. Ehlert and S. Grimme., J. Chem. Theory Comput., 2019,
     15, 1652-1671. DOI: 10.1021/acs.jctc.8b01176
   for GFN1-xTB:
   * S. Grimme, C. Bannwarth, P. Shushkov, J. Chem. Theory Comput., 2017,
     13, 1989-2009. DOI: 10.1021/acs.jctc.7b00118
   for GFN0-xTB:
   * P. Pracht, E. Caldeweyher, S. Ehlert, S. Grimme, ChemRxiv, 2019, preprint.
     DOI: 10.26434/chemrxiv.8326202.v1
   for GFN-FF:
   * S. Spicher and S. Grimme, Angew. Chem. Int. Ed., 2020, 59, 15665-15673.
     DOI: 10.1002/anie.202004239
   
   for ALPB and GBSA implicit solvation:
   * S. Ehlert, M. Stahn, S. Spicher, S. Grimme, J. Chem. Theory Comput.,
     2021, 17, 4250-4261. DOI: 10.1021/acs.jctc.1c00471
   
   for ddCOSMO and CPCM-X implicit solvation:
   * M. Stahn, S. Ehlert, S. Grimme, J. Phys. Chem. A,
     2023, XX, XXXX-XXXX. DOI: 10.1021/acs.jpca.3c04382
   
   for DFT-D4:
   * E. Caldeweyher, C. Bannwarth and S. Grimme, J. Chem. Phys., 2017,
     147, 034112. DOI: 10.1063/1.4993215
   * E. Caldeweyher, S. Ehlert, A. Hansen, H. Neugebauer, S. Spicher,
     C. Bannwarth and S. Grimme, J. Chem. Phys., 2019, 150, 154122.
     DOI: 10.1063/1.5090222
   * E. Caldeweyher, J.-M. Mewes, S. Ehlert and S. Grimme, Phys. Chem. Chem. Phys.
     2020, 22, 8499-8512. DOI: 10.1039/D0CP00502A
   
   for sTDA-xTB:
   * S. Grimme and C. Bannwarth, J. Chem. Phys., 2016, 145, 054103.
     DOI: 10.1063/1.4959605
   
   in the mass-spec context:
   * V. Asgeirsson, C. Bauer and S. Grimme, Chem. Sci., 2017, 8, 4879.
     DOI: 10.1039/c7sc00601b
   * J. Koopman and S. Grimme, ACS Omega 2019, 4, 12, 15120-15133.
     DOI: 10.1021/acsomega.9b02011
   
   for metadynamics refer to:
   * S. Grimme, J. Chem. Theory Comput., 2019, 155, 2847-2862
     DOI: 10.1021/acs.jctc.9b00143
   
   for SPH calculations refer to:
   * S. Spicher and S. Grimme, J. Chem. Theory Comput., 2021, 17, 1701-1714
     DOI: 10.1021/acs.jctc.0c01306
   
   for ONIOM refer to:
   * C. Plett, A. Katbashev, S. Ehlert, S. Grimme, M. Bursch,
     Phys. Chem. Chem. Phys., 2023, 25, 17860-17868. DOI: 10.1039/D3CP02178E
   
   for DIPRO refer to:
   * J. Kohn, N. Gildemeister, S. Grimme, D. Fazzi, A. Hansen,
     J. Chem. Phys., 2023, just accepted.
   
   for PTB refer to:
   * S. Grimme, M. Mueller, A. Hansen, J. Chem. Phys., 2023, 158, 124111.
     DOI: 10.1063/5.0137838
   
   with help from (in alphabetical order)
   P. Atkinson, C. Bannwarth, F. Bohle, G. Brandenburg, E. Caldeweyher
   M. Checinski, S. Dohm, S. Ehlert, S. Ehrlich, I. Gerasimov, C. Hﾃｶlzer
   A. Katbashev, J. Kohn, J. Koopman, C. Lavigne, S. Lehtola, F. Mﾃ､rz, M. Mﾃｼller,
   F. Musil, H. Neugebauer, J. Pisarek, C. Plett, P. Pracht, F. Pultar,
   J. Seibert, P. Shushkov, S. Spicher, M. Stahn, M. Steiner, T. Strunk,
   J. Stﾃｼckrath, T. Rose, and J. Unsleber
   
 * started run on 2026/09/12 at 18:03:40.684     
   ID    Z sym.   atoms
    1    7 N      1
    2    6 C      2-5, 7
    3    8 O      6
    4    1 H      8-16

           -------------------------------------------------
          |                Calculation Setup                |
           -------------------------------------------------

          program call               : C:\ORCA_6.1.1\xtb-6.7.1pre\xtb.exe  Monomer_XTB2_ALPB_XTB.xyz --grad -c 0 -u 0 -P 1 --namespace Monomer_XTB2_ALPB --input Monomer_XTB2_ALPB_XTB.input.tmp --acc 0.200000      
          calculation namespace      : Monomer_XTB2_ALPB
          coordinate file            : Monomer_XTB2_ALPB_XTB.xyz
          omp threads                :                     1


           -------------------------------------------------
          |                 G F N 2 - x T B                 |
           -------------------------------------------------

        Reference                      10.1021/acs.jctc.8b01176
      * Hamiltonian:
        H0-scaling (s, p, d)           1.850000    2.230000    2.230000
        zeta-weighting                 0.500000
      * Dispersion:
        s8                             2.700000
        a1                             0.520000
        a2                             5.000000
        s9                             5.000000
      * Repulsion:
        kExp                           1.500000    1.000000
        rExp                           1.000000
      * Coulomb:
        alpha                          2.000000
        third order                    shell-resolved
        anisotropic                    true
        a3                             3.000000
        a5                             4.000000
        cn-shift                       1.200000
        cn-exp                         4.000000
        max-rad                        5.000000

q/qsh data taken from xtbrestart
CAMM data taken from xtbrestart

          ...................................................
          :                      SETUP                      :
          :.................................................:
          :  # basis functions                  37          :
          :  # atomic orbitals                  37          :
          :  # shells                           23          :
          :  # electrons                        40          :
          :  max. iterations                   250          :
          :  Hamiltonian                  GFN2-xTB          :
          :  restarted?                       true          :
          :  GBSA solvation                  false          :
          :  PC potential                    false          :
          :  electronic temp.          300.0000000     K    :
          :  accuracy                    0.2000000          :
          :  -> integral cutoff          0.3198970E+02      :
          :  -> integral neglect         0.2000000E-08      :
          :  -> SCF convergence          0.2000000E-06 Eh   :
          :  -> wf. convergence          0.2000000E-04 e    :
          :  Broyden damping             0.4000000          :
          :  net charge                          0          :
          :  unpaired electrons                  0          :
          ...................................................

 iter      E             dE          RMSdq      gap      omega  full diag
   1    -22.5851507 -0.225852E+02  0.924E-03    5.17       0.0  T
   2    -22.5851507 -0.847010E-08  0.539E-03    5.17       4.6  T
   3    -22.5851507  0.542432E-09  0.509E-04    5.17      49.2  T
   4    -22.5851507 -0.299987E-08  0.144E-04    5.17     173.6  T
   5    -22.5851507 -0.227978E-10  0.557E-05    5.17     448.9  T

   *** convergence criteria satisfied after 5 iterations ***

         #    Occupation            Energy/Eh            Energy/eV
      -------------------------------------------------------------
         1        2.0000           -0.6884305             -18.7331
       ...           ...                  ...                  ...
        14        2.0000           -0.4807678             -13.0824
        15        2.0000           -0.4784948             -13.0205
        16        2.0000           -0.4773895             -12.9904
        17        2.0000           -0.4686512             -12.7526
        18        2.0000           -0.4427115             -12.0468
        19        2.0000           -0.3848044             -10.4711
        20        2.0000           -0.3835349             -10.4365 (HOMO)
        21                         -0.1935497              -5.2668 (LUMO)
        22                         -0.0042438              -0.1155
        23                          0.0346129               0.9419
        24                          0.0827968               2.2530
        25                          0.0964071               2.6234
       ...                                ...                  ...
        37                          0.6714308              18.2706
      -------------------------------------------------------------
                  HL-Gap            0.1899852 Eh            5.1698 eV
             Fermi-level           -0.2885423 Eh           -7.8516 eV

 SCC (total)                   0 d,  0 h,  0 min,  0.016 sec
 SCC setup                      ...        0 min,  0.001 sec (  6.250%)
 Dispersion                     ...        0 min,  0.000 sec (  0.000%)
 classical contributions        ...        0 min,  0.000 sec (  0.000%)
 integral evaluation            ...        0 min,  0.003 sec ( 18.750%)
 iterations                     ...        0 min,  0.004 sec ( 25.001%)
 molecular gradient             ...        0 min,  0.007 sec ( 43.750%)
 printout                       ...        0 min,  0.001 sec (  6.250%)

         :::::::::::::::::::::::::::::::::::::::::::::::::::::
         ::                     SUMMARY                     ::
         :::::::::::::::::::::::::::::::::::::::::::::::::::::
         :: total energy             -22.310198400326 Eh    ::
         :: gradient norm              0.000627995903 Eh/a0 ::
         :: HOMO-LUMO gap              5.169759609023 eV    ::
         ::.................................................::
         :: SCC energy               -22.585125514686 Eh    ::
         :: -> isotropic ES            0.039123295420 Eh    ::
         :: -> anisotropic ES          0.003452415090 Eh    ::
         :: -> anisotropic XC          0.008344446212 Eh    ::
         :: -> dispersion             -0.010102122856 Eh    ::
         :: repulsion energy           0.274927114360 Eh    ::
         :: add. restraining           0.000000000000 Eh    ::
         :: total charge              -0.000000000000 e     ::
         :::::::::::::::::::::::::::::::::::::::::::::::::::::


Property printout bound to 'properties.out'

           -------------------------------------------------
          | TOTAL ENERGY              -22.310198400326 Eh   |
          | GRADIENT NORM               0.000627995903 Eh/ﾎｱ |
          | HOMO-LUMO GAP               5.169759609023 eV   |
           -------------------------------------------------

------------------------------------------------------------------------
 * finished run on 2026/09/12 at 18:03:40.752     
------------------------------------------------------------------------
 total:
 * wall-time:     0 d,  0 h,  0 min,  0.065 sec
 *  cpu-time:     0 d,  0 h,  0 min,  0.047 sec
 * ratio c/w:     0.721 speedup
 SCF:
 * wall-time:     0 d,  0 h,  0 min,  0.016 sec
 *  cpu-time:     0 d,  0 h,  0 min,  0.016 sec
 * ratio c/w:     0.977 speedup


-------------------------   --------------------
FINAL SINGLE POINT ENERGY       -22.310198400330
-------------------------   --------------------


-------------
DIPOLE MOMENT
-------------
                                X             Y             Z
Total Dipole Moment    :      1.76400      -0.23700      -0.00000
                        -----------------------------------------
Magnitude (a.u.)       :      1.77985
Magnitude (Debye)      :      4.52402


------------------
CARTESIAN GRADIENT
------------------

   1   N   :    0.000166355    0.000110099    0.000040154
   2   C   :   -0.000156128   -0.000231299    0.000055129
   3   C   :   -0.000181447    0.000276376   -0.000235048
   4   C   :    0.000089795   -0.000067821   -0.000047817
   5   C   :    0.000061913   -0.000026663    0.000003879
   6   O   :    0.000069480    0.000071439    0.000022335
   7   C   :   -0.000034091   -0.000052281    0.000023281
   8   H   :   -0.000002468    0.000008509    0.000002534
   9   H   :   -0.000019313    0.000006856   -0.000015160
  10   H   :   -0.000003138    0.000013541    0.000001189
  11   H   :    0.000009808    0.000005197    0.000099027
  12   H   :    0.000103744   -0.000169059    0.000062592
  13   H   :   -0.000068961   -0.000009892    0.000046606
  14   H   :   -0.000007872    0.000050639   -0.000047930
  15   H   :   -0.000025832    0.000046476    0.000034215
  16   H   :   -0.000001843   -0.000032117   -0.000044984

Difference to translation invariance:
           :    0.0000000000    0.0000000000    0.0000000000

Difference to rotation invariance:
           :   -0.0000000373    0.0000001279    0.0000000865

Norm of the Cartesian gradient     ...    0.0006279959
RMS gradient                       ...    0.0000906434
MAX gradient                       ...    0.0002763762
------------------------------------------------------------------------------
                         ORCA GEOMETRY RELAXATION STEP
------------------------------------------------------------------------------

Reading the OPT-File                    .... done
Getting information on internals        .... done
Copying old internal coords+grads       .... done
Making the new internal coordinates     .... (2022 redundants) done
Validating the new internal coordinates .... (2022 redundants) done
Calculating the B-matrix                .... done
Calculating the G,G- and P matrices     .... done
Transforming gradient to internals      .... done
Projecting the internal gradient        .... done
Number of atoms                         ....  16
Number of internal coordinates          ....  77
Current Energy                          ....   -22.310198400 Eh
Current gradient norm                   ....     0.000627996 Eh/bohr
Maximum allowed component of the step   ....  0.300
Current trust radius                    ....  0.700
Updating the Hessian (BFGS)             .... done
Forming the augmented Hessian           .... done
Diagonalizing the augmented Hessian     .... done
Last element of RFO vector              ....  0.999974700
Lowest eigenvalues of augmented Hessian:
 -0.000001682  0.011295749  0.012930391  0.013200843  0.014700679
Length of the computed step             ....  0.007113505
The final length of the internal step   ....  0.007113505
Converting the step to Cartesian space:
 Initial RMS(Int)=    0.0008106592
Transforming coordinates:
 Iter   0:  RMS(Cart)=    0.0013804776 RMS(Int)=    0.7158635382
done
Storing new coordinates                 .... done
The predicted energy change is          ....    -0.000000841
Previously predicted energy change      ....    -0.000002828
Actually observed energy change         ....    -0.000003550
Ratio of predicted to observed change   ....     1.255373282
New trust radius                        ....     0.700000000

                                .--------------------.
          ----------------------|Geometry convergence|-------------------------
          Item                value                   Tolerance       Converged
          ---------------------------------------------------------------------
          Energy change      -0.0000035504            0.0000050000      YES
          RMS gradient        0.0000483685            0.0001000000      YES
          MAX gradient        0.0001617274            0.0003000000      YES
          RMS step            0.0008106592            0.0020000000      YES
          MAX step            0.0025861664            0.0040000000      YES
          -------------------------------------------------------------------------
          ........................................................
          Max(Bonds)      0.0002      Max(Angles)    0.09
          Max(Dihed)        0.15      Max(Improp)    0.00
          ---------------------------------------------------------------------

                    ***********************HURRAY********************
                    ***        THE OPTIMIZATION HAS CONVERGED     ***
                    *************************************************


    ---------------------------------------------------------------------------
                         Redundant Internal Coordinates

                          --- Optimized Parameters ---  
                            (Angstroem and degrees)

        Definition                    OldVal   dE/dq     Step     FinalVal
    ----------------------------------------------------------------------------
     1. B(C   1,N   0)                1.3474  0.000126 -0.0002    1.3472   
     2. B(C   2,C   1)                1.5203 -0.000093  0.0002    1.5205   
     3. B(C   3,C   2)                1.5318  0.000049 -0.0001    1.5317   
     4. B(C   4,N   0)                1.4409  0.000008 -0.0000    1.4409   
     5. B(C   4,C   3)                1.5396  0.000015 -0.0001    1.5395   
     6. B(O   5,C   1)                1.2110 -0.000038  0.0000    1.2110   
     7. B(C   6,N   0)                1.4416 -0.000023  0.0000    1.4416   
     8. B(H   7,C   6)                1.0872  0.000001  0.0000    1.0872   
     9. B(H   8,C   6)                1.0920 -0.000001  0.0000    1.0920   
    10. B(H   9,C   6)                1.0920  0.000005 -0.0000    1.0920   
    11. B(H  10,C   2)                1.0899  0.000074 -0.0002    1.0898   
    12. B(H  11,C   2)                1.0897 -0.000017 -0.0000    1.0897   
    13. B(H  12,C   3)                1.0888  0.000018 -0.0001    1.0888   
    14. B(H  13,C   3)                1.0887  0.000012 -0.0001    1.0887   
    15. B(H  14,C   4)                1.0966  0.000024 -0.0001    1.0965   
    16. B(H  15,C   4)                1.0968  0.000028 -0.0002    1.0967   
    17. A(C   1,N   0,C   6)          122.37 -0.000091    0.03    122.39   
    18. A(C   1,N   0,C   4)          115.46  0.000007   -0.01    115.45   
    19. A(C   4,N   0,C   6)          122.17  0.000084   -0.02    122.16   
    20. A(N   0,C   1,C   2)          108.22 -0.000004    0.00    108.23   
    21. A(N   0,C   1,O   5)          125.03 -0.000104    0.02    125.05   
    22. A(C   2,C   1,O   5)          126.75  0.000107   -0.03    126.72   
    23. A(C   1,C   2,C   3)          105.73  0.000003   -0.00    105.73   
    24. A(H  10,C   2,H  11)          107.51  0.000008   -0.01    107.50   
    25. A(C   3,C   2,H  11)          112.77 -0.000102    0.02    112.79   
    26. A(C   1,C   2,H  11)          109.10  0.000162   -0.09    109.01   
    27. A(C   3,C   2,H  10)          112.75 -0.000035    0.04    112.79   
    28. A(C   1,C   2,H  10)          108.88 -0.000027    0.04    108.92   
    29. A(C   4,C   3,H  13)          110.61 -0.000065    0.02    110.63   
    30. A(C   2,C   3,H  13)          111.17  0.000010   -0.00    111.17   
    31. A(C   4,C   3,H  12)          110.61 -0.000008    0.00    110.62   
    32. A(C   2,C   3,H  12)          111.08 -0.000052    0.04    111.11   
    33. A(H  12,C   3,H  13)          107.80  0.000080   -0.05    107.76   
    34. A(C   2,C   3,C   4)          105.60  0.000030   -0.01    105.59   
    35. A(N   0,C   4,H  15)          110.18  0.000020   -0.01    110.17   
    36. A(C   3,C   4,H  14)          111.83  0.000039   -0.01    111.82   
    37. A(N   0,C   4,H  14)          110.16 -0.000036    0.02    110.18   
    38. A(C   3,C   4,H  15)          111.76 -0.000023    0.01    111.77   
    39. A(N   0,C   4,C   3)          104.98 -0.000037    0.02    105.00   
    40. A(H  14,C   4,H  15)          107.94  0.000035   -0.03    107.91   
    41. A(H   8,C   6,H   9)          108.02 -0.000021    0.01    108.03   
    42. A(H   7,C   6,H   9)          109.51 -0.000008    0.00    109.51   
    43. A(N   0,C   6,H   9)          110.17  0.000011   -0.00    110.16   
    44. A(H   7,C   6,H   8)          109.51 -0.000001   -0.00    109.51   
    45. A(N   0,C   6,H   8)          110.18  0.000005   -0.00    110.18   
    46. A(N   0,C   6,H   7)          109.44  0.000013   -0.01    109.43   
    47. D(O   5,C   1,N   0,C   4)   -179.85 -0.000021    0.02   -179.83   
    48. D(C   2,C   1,N   0,C   6)   -179.99  0.000001   -0.09   -180.08   
    49. D(O   5,C   1,N   0,C   6)     -0.07 -0.000013   -0.01     -0.08   
    50. D(C   2,C   1,N   0,C   4)      0.22 -0.000007   -0.06      0.16   
    51. D(C   3,C   2,C   1,O   5)   -179.77  0.000031   -0.02   -179.79   
    52. D(H  10,C   2,C   1,N   0)    121.55 -0.000039    0.14    121.69   
    53. D(H  11,C   2,C   1,N   0)   -121.38  0.000047    0.10   -121.29   
    54. D(H  10,C   2,C   1,O   5)    -58.37 -0.000024    0.06    -58.32   
    55. D(C   3,C   2,C   1,N   0)      0.15  0.000016    0.06      0.21   
    56. D(H  12,C   3,C   2,H  10)      0.66  0.000012   -0.10      0.56   
    57. D(C   4,C   3,C   2,H  11)    118.71  0.000124   -0.15    118.56   
    58. D(C   4,C   3,C   2,H  10)   -119.30  0.000032   -0.12   -119.41   
    59. D(C   4,C   3,C   2,C   1)     -0.43 -0.000018   -0.04     -0.47   
    60. D(H  12,C   3,C   2,H  11)   -121.33  0.000105   -0.13   -121.46   
    61. D(H  12,C   3,C   2,C   1)    119.53 -0.000038   -0.02    119.50   
    62. D(H  14,C   4,C   3,H  13)   -119.65 -0.000037    0.04   -119.61   
    63. D(H  14,C   4,C   3,H  12)     -0.28  0.000017   -0.00     -0.28   
    64. D(H  14,C   4,C   3,C   2)    119.98 -0.000031    0.04    120.02   
    65. D(N   0,C   4,C   3,H  12)   -119.72  0.000062   -0.03   -119.75   
    66. D(N   0,C   4,C   3,C   2)      0.54  0.000014    0.01      0.55   
    67. D(H  15,C   4,N   0,C   1)    119.98 -0.000044    0.06    120.04   
    68. D(N   0,C   4,C   3,H  13)    120.91  0.000009    0.01    120.93   
    69. D(H  14,C   4,N   0,C   6)     59.17 -0.000018    0.05     59.22   
    70. D(H  14,C   4,N   0,C   1)   -121.04 -0.000010    0.02   -121.02   
    71. D(C   3,C   4,N   0,C   6)    179.72 -0.000013    0.06    179.78   
    72. D(C   3,C   4,N   0,C   1)     -0.49 -0.000005    0.03     -0.46   
    73. D(H   8,C   6,N   0,C   4)   -120.30 -0.000011    0.04   -120.26   
    74. D(H   8,C   6,N   0,C   1)     59.93 -0.000020    0.07     60.00   
    75. D(H   7,C   6,N   0,C   4)      0.17 -0.000001    0.04      0.20   
    76. D(H   9,C   6,N   0,C   1)    -59.15 -0.000004    0.06    -59.09   
    77. D(H   7,C   6,N   0,C   1)   -179.61 -0.000009    0.06   -179.54   
    ----------------------------------------------------------------------------

Geometry step timings:
Preparation and reading OPT file:      0.007 s (46.667 %)
Internal coordinates            :      0.000 s ( 0.000 %)
B/P matrices and projection     :      0.001 s ( 6.667 %)
Hessian update/contruction      :      0.002 s (13.333 %)
Making the step                 :      0.001 s ( 6.667 %)
Converting the step to Cartesian:      0.000 s ( 0.000 %)
Storing new data                :      0.001 s ( 6.667 %)
Checking convergence            :      0.000 s ( 0.000 %)
Final printing                  :      0.003 s (20.000 %)
Total time                      :      0.015 s
                 *******************************************************
                 *** FINAL ENERGY EVALUATION AT THE STATIONARY POINT ***
                 ***               (AFTER    8 CYCLES)               ***
                 *******************************************************
---------------------------------
CARTESIAN COORDINATES (ANGSTROEM)
---------------------------------
  N    -0.004063    1.178895    0.001394
  C    -1.134432    0.445859   -0.000661
  C    -0.747621   -1.024632   -0.002821
  C     0.783860   -1.051267    0.003817
  C     1.223378    0.424181   -0.002612
  O    -2.257365    0.899251   -0.000847
  C    -0.018407    2.620429    0.002056
  H     1.003196    2.992319   -0.004449
  H    -0.535928    2.991540    0.889169
  H    -0.547414    2.991979   -0.878032
  H    -1.182072   -1.505688    0.873202
  H    -1.174185   -1.502470   -0.884353
  H     1.163419   -1.560496    0.888124
  H     1.171859   -1.570828   -0.870683
  H     1.824098    0.674317    0.879976
  H     1.814678    0.668612   -0.893281

----------------------------
CARTESIAN COORDINATES (A.U.)
----------------------------
  NO LB    ZA    FRAG    MASS        X           Y           Z
   0 N   7.0000    0    14.007   -0.007678    2.227788    0.002634
   1 C   6.0000    0    12.011   -2.143766    0.842551   -0.001248
   2 C   6.0000    0    12.011   -1.412800   -1.936275   -0.005330
   3 C   6.0000    0    12.011    1.481280   -1.986606    0.007213
   4 C   6.0000    0    12.011    2.311850    0.801586   -0.004937
   5 O   8.0000    0    15.999   -4.265801    1.699339   -0.001601
   6 C   6.0000    0    12.011   -0.034784    4.951893    0.003886
   7 H   1.0000    0     1.008    1.895766    5.654663   -0.008407
   8 H   1.0000    0     1.008   -1.012757    5.653192    1.680287
   9 H   1.0000    0     1.008   -1.034462    5.654020   -1.659240
  10 H   1.0000    0     1.008   -2.233793   -2.845337    1.650113
  11 H   1.0000    0     1.008   -2.218889   -2.839256   -1.671185
  12 H   1.0000    0     1.008    2.198544   -2.948911    1.678311
  13 H   1.0000    0     1.008    2.214492   -2.968435   -1.645353
  14 H   1.0000    0     1.008    3.447045    1.274274    1.662914
  15 H   1.0000    0     1.008    3.429245    1.263493   -1.688056

      -----------------------------------------------------------      
     |                   =====================                   |     
     |                           x T B                           |     
     |                   =====================                   |     
     |                         S. Grimme                         |     
     |          Mulliken Center for Theoretical Chemistry        |     
     |                    University of Bonn                     |     
      -----------------------------------------------------------      

   * xtb version 6.7.1pre (5071a88) compiled by 'Marcel@Raven' on 2024-07-23

   xtb is free software: you can redistribute it and/or modify it under
   the terms of the GNU Lesser General Public License as published by
   the Free Software Foundation, either version 3 of the License, or
   (at your option) any later version.
   
   xtb is distributed in the hope that it will be useful,
   but WITHOUT ANY WARRANTY; without even the implied warranty of
   MERCHANTABILITY or FITNESS FOR A PARTICULAR PURPOSE.  See the
   GNU Lesser General Public License for more details.
   
   Cite this work as:
   * C. Bannwarth, E. Caldeweyher, S. Ehlert, A. Hansen, P. Pracht,
     J. Seibert, S. Spicher, S. Grimme, WIREs Comput. Mol. Sci., 2020, 11,
     e01493. DOI: 10.1002/wcms.1493
   
   for GFN2-xTB:
   * C. Bannwarth, S. Ehlert and S. Grimme., J. Chem. Theory Comput., 2019,
     15, 1652-1671. DOI: 10.1021/acs.jctc.8b01176
   for GFN1-xTB:
   * S. Grimme, C. Bannwarth, P. Shushkov, J. Chem. Theory Comput., 2017,
     13, 1989-2009. DOI: 10.1021/acs.jctc.7b00118
   for GFN0-xTB:
   * P. Pracht, E. Caldeweyher, S. Ehlert, S. Grimme, ChemRxiv, 2019, preprint.
     DOI: 10.26434/chemrxiv.8326202.v1
   for GFN-FF:
   * S. Spicher and S. Grimme, Angew. Chem. Int. Ed., 2020, 59, 15665-15673.
     DOI: 10.1002/anie.202004239
   
   for ALPB and GBSA implicit solvation:
   * S. Ehlert, M. Stahn, S. Spicher, S. Grimme, J. Chem. Theory Comput.,
     2021, 17, 4250-4261. DOI: 10.1021/acs.jctc.1c00471
   
   for ddCOSMO and CPCM-X implicit solvation:
   * M. Stahn, S. Ehlert, S. Grimme, J. Phys. Chem. A,
     2023, XX, XXXX-XXXX. DOI: 10.1021/acs.jpca.3c04382
   
   for DFT-D4:
   * E. Caldeweyher, C. Bannwarth and S. Grimme, J. Chem. Phys., 2017,
     147, 034112. DOI: 10.1063/1.4993215
   * E. Caldeweyher, S. Ehlert, A. Hansen, H. Neugebauer, S. Spicher,
     C. Bannwarth and S. Grimme, J. Chem. Phys., 2019, 150, 154122.
     DOI: 10.1063/1.5090222
   * E. Caldeweyher, J.-M. Mewes, S. Ehlert and S. Grimme, Phys. Chem. Chem. Phys.
     2020, 22, 8499-8512. DOI: 10.1039/D0CP00502A
   
   for sTDA-xTB:
   * S. Grimme and C. Bannwarth, J. Chem. Phys., 2016, 145, 054103.
     DOI: 10.1063/1.4959605
   
   in the mass-spec context:
   * V. Asgeirsson, C. Bauer and S. Grimme, Chem. Sci., 2017, 8, 4879.
     DOI: 10.1039/c7sc00601b
   * J. Koopman and S. Grimme, ACS Omega 2019, 4, 12, 15120-15133.
     DOI: 10.1021/acsomega.9b02011
   
   for metadynamics refer to:
   * S. Grimme, J. Chem. Theory Comput., 2019, 155, 2847-2862
     DOI: 10.1021/acs.jctc.9b00143
   
   for SPH calculations refer to:
   * S. Spicher and S. Grimme, J. Chem. Theory Comput., 2021, 17, 1701-1714
     DOI: 10.1021/acs.jctc.0c01306
   
   for ONIOM refer to:
   * C. Plett, A. Katbashev, S. Ehlert, S. Grimme, M. Bursch,
     Phys. Chem. Chem. Phys., 2023, 25, 17860-17868. DOI: 10.1039/D3CP02178E
   
   for DIPRO refer to:
   * J. Kohn, N. Gildemeister, S. Grimme, D. Fazzi, A. Hansen,
     J. Chem. Phys., 2023, just accepted.
   
   for PTB refer to:
   * S. Grimme, M. Mueller, A. Hansen, J. Chem. Phys., 2023, 158, 124111.
     DOI: 10.1063/5.0137838
   
   with help from (in alphabetical order)
   P. Atkinson, C. Bannwarth, F. Bohle, G. Brandenburg, E. Caldeweyher
   M. Checinski, S. Dohm, S. Ehlert, S. Ehrlich, I. Gerasimov, C. Hﾃｶlzer
   A. Katbashev, J. Kohn, J. Koopman, C. Lavigne, S. Lehtola, F. Mﾃ､rz, M. Mﾃｼller,
   F. Musil, H. Neugebauer, J. Pisarek, C. Plett, P. Pracht, F. Pultar,
   J. Seibert, P. Shushkov, S. Spicher, M. Stahn, M. Steiner, T. Strunk,
   J. Stﾃｼckrath, T. Rose, and J. Unsleber
   
 * started run on 2026/09/12 at 18:03:40.880     
   ID    Z sym.   atoms
    1    7 N      1
    2    6 C      2-5, 7
    3    8 O      6
    4    1 H      8-16

           -------------------------------------------------
          |                Calculation Setup                |
           -------------------------------------------------

          program call               : C:\ORCA_6.1.1\xtb-6.7.1pre\xtb.exe  Monomer_XTB2_ALPB_XTB.xyz --grad -c 0 -u 0 -P 1 --namespace Monomer_XTB2_ALPB --input Monomer_XTB2_ALPB_XTB.input.tmp --acc 0.200000      
          calculation namespace      : Monomer_XTB2_ALPB
          coordinate file            : Monomer_XTB2_ALPB_XTB.xyz
          omp threads                :                     1


           -------------------------------------------------
          |                 G F N 2 - x T B                 |
           -------------------------------------------------

        Reference                      10.1021/acs.jctc.8b01176
      * Hamiltonian:
        H0-scaling (s, p, d)           1.850000    2.230000    2.230000
        zeta-weighting                 0.500000
      * Dispersion:
        s8                             2.700000
        a1                             0.520000
        a2                             5.000000
        s9                             5.000000
      * Repulsion:
        kExp                           1.500000    1.000000
        rExp                           1.000000
      * Coulomb:
        alpha                          2.000000
        third order                    shell-resolved
        anisotropic                    true
        a3                             3.000000
        a5                             4.000000
        cn-shift                       1.200000
        cn-exp                         4.000000
        max-rad                        5.000000

q/qsh data taken from xtbrestart
CAMM data taken from xtbrestart

          ...................................................
          :                      SETUP                      :
          :.................................................:
          :  # basis functions                  37          :
          :  # atomic orbitals                  37          :
          :  # shells                           23          :
          :  # electrons                        40          :
          :  max. iterations                   250          :
          :  Hamiltonian                  GFN2-xTB          :
          :  restarted?                       true          :
          :  GBSA solvation                  false          :
          :  PC potential                    false          :
          :  electronic temp.          300.0000000     K    :
          :  accuracy                    0.2000000          :
          :  -> integral cutoff          0.3198970E+02      :
          :  -> integral neglect         0.2000000E-08      :
          :  -> SCF convergence          0.2000000E-06 Eh   :
          :  -> wf. convergence          0.2000000E-04 e    :
          :  Broyden damping             0.4000000          :
          :  net charge                          0          :
          :  unpaired electrons                  0          :
          ...................................................

 iter      E             dE          RMSdq      gap      omega  full diag
   1    -22.5852417 -0.225852E+02  0.426E-03    5.17       0.0  T
   2    -22.5852417 -0.114936E-07  0.248E-03    5.17      10.1  T
   3    -22.5852417 -0.508109E-10  0.562E-04    5.17      44.5  T
   4    -22.5852417 -0.988738E-09  0.902E-05    5.17     277.1  T
   5    -22.5852417 -0.985168E-11  0.378E-05    5.17     662.0  T

   *** convergence criteria satisfied after 5 iterations ***

         #    Occupation            Energy/Eh            Energy/eV
      -------------------------------------------------------------
         1        2.0000           -0.6884200             -18.7329
       ...           ...                  ...                  ...
        14        2.0000           -0.4807748             -13.0825
        15        2.0000           -0.4785267             -13.0214
        16        2.0000           -0.4774015             -12.9908
        17        2.0000           -0.4686526             -12.7527
        18        2.0000           -0.4426868             -12.0461
        19        2.0000           -0.3847767             -10.4703
        20        2.0000           -0.3835544             -10.4370 (HOMO)
        21                         -0.1935151              -5.2658 (LUMO)
        22                         -0.0042316              -0.1151
        23                          0.0345978               0.9415
        24                          0.0829442               2.2570
        25                          0.0963975               2.6231
       ...                                ...                  ...
        37                          0.6714116              18.2700
      -------------------------------------------------------------
                  HL-Gap            0.1900393 Eh            5.1712 eV
             Fermi-level           -0.2885347 Eh           -7.8514 eV

 SCC (total)                   0 d,  0 h,  0 min,  0.009 sec
 SCC setup                      ...        0 min,  0.000 sec (  0.000%)
 Dispersion                     ...        0 min,  0.000 sec (  0.000%)
 classical contributions        ...        0 min,  0.000 sec (  0.000%)
 integral evaluation            ...        0 min,  0.002 sec ( 22.223%)
 iterations                     ...        0 min,  0.003 sec ( 33.333%)
 molecular gradient             ...        0 min,  0.004 sec ( 44.444%)
 printout                       ...        0 min,  0.000 sec (  0.000%)

         :::::::::::::::::::::::::::::::::::::::::::::::::::::
         ::                     SUMMARY                     ::
         :::::::::::::::::::::::::::::::::::::::::::::::::::::
         :: total energy             -22.310199545840 Eh    ::
         :: gradient norm              0.000359194455 Eh/a0 ::
         :: HOMO-LUMO gap              5.171232120702 eV    ::
         ::.................................................::
         :: SCC energy               -22.585216502003 Eh    ::
         :: -> isotropic ES            0.039132025261 Eh    ::
         :: -> anisotropic ES          0.003449627160 Eh    ::
         :: -> anisotropic XC          0.008338793743 Eh    ::
         :: -> dispersion             -0.010101976102 Eh    ::
         :: repulsion energy           0.275016956163 Eh    ::
         :: add. restraining           0.000000000000 Eh    ::
         :: total charge               0.000000000000 e     ::
         :::::::::::::::::::::::::::::::::::::::::::::::::::::


Property printout bound to 'properties.out'

           -------------------------------------------------
          | TOTAL ENERGY              -22.310199545840 Eh   |
          | GRADIENT NORM               0.000359194455 Eh/ﾎｱ |
          | HOMO-LUMO GAP               5.171232120702 eV   |
           -------------------------------------------------

------------------------------------------------------------------------
 * finished run on 2026/09/12 at 18:03:40.921     
------------------------------------------------------------------------
 total:
 * wall-time:     0 d,  0 h,  0 min,  0.038 sec
 *  cpu-time:     0 d,  0 h,  0 min,  0.031 sec
 * ratio c/w:     0.822 speedup
 SCF:
 * wall-time:     0 d,  0 h,  0 min,  0.010 sec
 *  cpu-time:     0 d,  0 h,  0 min,  0.000 sec
 * ratio c/w:     0.000 speedup


-------------------------   --------------------
FINAL SINGLE POINT ENERGY       -22.310199545840
-------------------------   --------------------


-------------
DIPOLE MOMENT
-------------
                                X             Y             Z
Total Dipole Moment    :      1.76500      -0.23600      -0.00100
                        -----------------------------------------
Magnitude (a.u.)       :      1.78071
Magnitude (Debye)      :      4.52620

                                *** OPTIMIZATION RUN DONE ***


--------------------------------
SUGGESTED CITATIONS FOR THIS RUN
--------------------------------

Below you find a list of papers that are relevant to this ORCA run
We neither can nor want to force you to cite these papers, but we appreciate if you do
You receive ORCA, which is the product of decades of hard work by many enthusiastic individuals, for free
The only thing we kindly ask in return is that you cite our papers,
We deeply appreciate it, if you show your appreciation for ORCA by not just citing the generic ORCA reference.

Please note that relegating all ORCA citations to the supporting information does *not* help us.
SI sections are not indexed - citations you put there will not count into any citation statistics
But we need these citations in order to attract the funding resources that allow us to do what we are doing

Therefore, if you are a happy ORCA user, please consider citing a few of the papers listed below in the main body of your paper

In addition to the list printed below, the program has created the file Monomer_XTB2_ALPB.bibtex that contains the list in bibtex format
You can import this file easily into all common literature databanks and citation aid programs

It goes without saying that in many instances, there are alternative algorithms to achieve similar
results as the ones you have gotten from ORCA. It is, of course, also the case that in some instances
ORCA just re-implements algorithms worked out by others. We are fully aware of that and we are also
fully appreciative of our colleagues work. Hence this citation list should not be read as indicating
that the listed papers, which are focused on our own work, are the only ones worth citing. It simply
meant to make it easier for users to cite ORCA specific papers. It is not a substitute for doing your
own literature research and citing the relevant literature in a scientifically appropriate manner.

List of essential papers. We consider these as the minimum necessary citations

  1. Bannwarth, C.; Ehlert, S.; Grimme, S.
     GFN2-xTB窶尿n Accurate and Broadly Parametrized Self-Consistent Tight-Binding Quantum Chemical Method with Multipole Electrostatics and Density-Dependent Dispersion Contributions
     J. Chem. Theory Comput. 2019 15(3), 1652-1671
     doi.org/10.1021/acs.jctc.8b01176
  2. Neese, F.
     Software update: the ORCA program system, version 6.0
     WIRES Comput. Molec. Sci. 2025 15(1), e70019
     doi.org/10.1002/wcms.70019

List of papers to cite with high priority. The work reported in these papers was absolutely
necessary for this run to complete.
Our perspective: the developers of density functionals and basis sets usually get cited in chemistry papers
Good! But without the algorithms to do something with them, the functionals or basis sets would not do anything.
Hence, in our opinion, the algorithm design and method developments papers are equally worthy of getting cited

  1. Bannwarth, C.; Caldeweyher, E.; Ehlert, S.; Hansen, A.; Pracht, P.; Seibert, J.; Spicher, S.; Grimme, S.
     Extended tight-binding quantum chemistry methods
     WIRES Comput. Molec. Sci. 2020 11(2), e1493
     doi.org/10.1002/wcms.1493

List of suggested additional citations. These are papers that are important in the 'surrounding' of 
of this run, or papers that preceded the highly important papers. If you like your results we are grateful for a citation.

  1. Neese, F.
     The ORCA program system
     WIRES Comput. Molec. Sci. 2012 2(1), 73-78
     doi.org/10.1002/wcms.81
  2. Neese, F.
     Software update: the ORCA program system, version 4.0
     WIRES Comput. Molec. Sci. 2018 8(1), 1-6
     doi.org/10.1002/wcms.1327
  3. Neese, F.; Wennmohs, F.; Becker, U.; Riplinger, C.
     The ORCA quantum chemistry program package
     J. Chem. Phys. 2020 152(22), 224108
     doi.org/10.1063/5.0004608
  4. Neese, F.
     Software update: The ORCA program system窶之ersion 5.0
     WIRES Comput. Molec. Sci. 2022 12(1), e1606
     doi.org/10.1002/wcms.1606

List of optional additional citations

  1. Neese, F.
     Approximate second-order SCF convergence for spin unrestricted wavefunctions
     Chem. Phys. Lett. 2000 325(1-3), 93-98
     doi.org/10.1016/s0009-2614(00)00662-x

Timings for individual modules:

Sum of individual times          ...        0.984 sec (=   0.016 min)
Geometry relaxation              ...        0.130 sec (=   0.002 min)  13.2 %
XTB module                       ...        0.854 sec (=   0.014 min)  86.8 %
                             ****ORCA TERMINATED NORMALLY****
TOTAL RUN TIME: 0 days 0 hours 0 minutes 1 seconds 742 msec
