16
Coordinates from ORCA-job Monomer_XTB2_ALPB E -22.251429587570
  N       0.000000      1.276000      0.000000
  C      -1.213000      0.394000      0.000000
  C      -0.750000     -1.032000      0.000000
  C       0.750000     -1.032000      0.000000
  C       1.213000      0.394000      0.000000
  O      -2.373000      0.771000      0.000000
  C       0.000000      2.746000      0.000000
  H       1.028000      3.109000      0.000000
  H      -0.514000      3.109000      0.890000
  H      -0.514000      3.109000     -0.890000
  H      -1.162000     -1.598000      0.750000
  H      -1.162000     -1.598000     -0.750000
  H       1.162000     -1.598000      0.750000
  H       1.162000     -1.598000     -0.750000
  H       1.878000      0.610000      0.750000
  H       1.878000      0.610000     -0.750000
16
Coordinates from ORCA-job Monomer_XTB2_ALPB E -22.290992903000
  N      -0.000621      1.243346     -0.000797
  C      -1.175362      0.424001     -0.004814
  C      -0.752426     -1.010520     -0.000533
  C       0.757721     -1.032128      0.004947
  C       1.212167      0.407796      0.003018
  O      -2.307822      0.842839     -0.003512
  C      -0.016925      2.692086      0.001868
  H       1.008010      3.058579      0.005922
  H      -0.536454      3.050331      0.890722
  H      -0.530593      3.053664     -0.889041
  H      -1.193852     -1.566568      0.798197
  H      -1.185802     -1.577854     -0.795726
  H       1.171280     -1.610581      0.803708
  H       1.182869     -1.597051     -0.797406
  H       1.889056      0.647237      0.797745
  H       1.861754      0.646822     -0.814298
16
Coordinates from ORCA-job Monomer_XTB2_ALPB E -22.306175266130
  N      -0.009714      1.196105     -0.003538
  C      -1.134839      0.451635     -0.011407
  C      -0.746904     -0.998325     -0.001684
  C       0.770320     -1.037921      0.009394
  C       1.204352      0.418130      0.003034
  O      -2.249278      0.912270     -0.008880
  C      -0.025541      2.632189      0.004916
  H       0.998364      2.998628      0.012530
  H      -0.548798      2.993070      0.892473
  H      -0.539513      3.003058     -0.883862
  H      -1.201811     -1.521467      0.840746
  H      -1.187296     -1.548182     -0.834570
  H       1.174219     -1.602408      0.850128
  H       1.196385     -1.580870     -0.835111
  H       1.865775      0.681612      0.834846
  H       1.817279      0.674477     -0.869015
16
Coordinates from ORCA-job Monomer_XTB2_ALPB E -22.309191572160
  N      -0.006203      1.181290     -0.004148
  C      -1.133659      0.450204     -0.007984
  C      -0.749327     -1.010499     -0.001781
  C       0.776922     -1.043505      0.008496
  C       1.213556      0.423869     -0.002668
  O      -2.253726      0.914158     -0.018677
  C      -0.020533      2.620793      0.007320
  H       1.002132      2.991211      0.010452
  H      -0.541812      2.984519      0.895384
  H      -0.541424      2.997632     -0.875359
  H      -1.196074     -1.510437      0.865863
  H      -1.184528     -1.535507     -0.859965
  H       1.168676     -1.582191      0.876995
  H       1.189839     -1.575236     -0.855368
  H       1.848528      0.688806      0.857562
  H       1.810632      0.676893     -0.896123
16
Coordinates from ORCA-job Monomer_XTB2_ALPB E -22.310049408730
  N      -0.003105      1.177220     -0.007631
  C      -1.135194      0.446255     -0.016449
  C      -0.749724     -1.021096     -0.003440
  C       0.781234     -1.048283      0.005157
  C       1.222462      0.425223     -0.008344
  O      -2.258131      0.904932     -0.007393
  C      -0.017902      2.619167      0.007676
  H       1.003361      2.992371      0.011354
  H      -0.540991      2.982150      0.894809
  H      -0.541119      2.999654     -0.871951
  H      -1.185768     -1.497794      0.879988
  H      -1.177892     -1.525122     -0.874587
  H       1.161057     -1.561908      0.891259
  H       1.178580     -1.574063     -0.866596
  H       1.831233      0.683472      0.871543
  H       1.814900      0.669822     -0.905395
16
Coordinates from ORCA-job Monomer_XTB2_ALPB E -22.310125670360
  N      -0.002839      1.177493      0.003776
  C      -1.134498      0.445525      0.008264
  C      -0.748301     -1.024500     -0.002011
  C       0.783615     -1.051094      0.003403
  C       1.225169      0.424461     -0.003197
  O      -2.256881      0.900698     -0.015490
  C      -0.018296      2.619514      0.003378
  H       1.002591      2.993054     -0.005511
  H      -0.534709      2.991417      0.890703
  H      -0.549628      2.990635     -0.875420
  H      -1.180203     -1.505961      0.876683
  H      -1.175351     -1.503262     -0.884038
  H       1.161671     -1.560436      0.889427
  H       1.170597     -1.569142     -0.873772
  H       1.825238      0.675074      0.881373
  H       1.814826      0.668525     -0.897567
16
Coordinates from ORCA-job Monomer_XTB2_ALPB E -22.310194849970
  N      -0.003402      1.178390      0.000070
  C      -1.134046      0.445875     -0.003073
  C      -0.747799     -1.024580     -0.003162
  C       0.783908     -1.051545      0.003061
  C       1.224444      0.424016     -0.003967
  O      -2.256378      0.900295     -0.002141
  C      -0.018700      2.619998      0.003085
  H       1.002484      2.992896     -0.001058
  H      -0.538279      2.989589      0.889604
  H      -0.546554      2.992894     -0.877133
  H      -1.180328     -1.501672      0.876268
  H      -1.174032     -1.505681     -0.882976
  H       1.161698     -1.559269      0.889047
  H       1.171010     -1.570782     -0.872085
  H       1.823469      0.674387      0.879977
  H       1.815506      0.667190     -0.895517
16
Coordinates from ORCA-job Monomer_XTB2_ALPB E -22.310198400330
  N      -0.003725      1.178802      0.000811
  C      -1.134368      0.445875     -0.001809
  C      -0.747778     -1.024459     -0.002912
  C       0.783797     -1.051292      0.003436
  C       1.223743      0.424109     -0.003154
  O      -2.257026      0.899871     -0.001785
  C      -0.018517      2.620321      0.002580
  H       1.002922      2.992659     -0.002476
  H      -0.537277      2.990655      0.889287
  H      -0.546664      2.992474     -0.877781
  H      -1.181381     -1.503893      0.874639
  H      -1.174347     -1.504634     -0.883180
  H       1.162826     -1.560389      0.888128
  H       1.171612     -1.570712     -0.871308
  H       1.824183      0.674505      0.879682
  H       1.815000      0.668106     -0.894158
16
Coordinates from ORCA-job Monomer_XTB2_ALPB E -22.310199545840
  N      -0.004063      1.178895      0.001394
  C      -1.134432      0.445859     -0.000661
  C      -0.747621     -1.024632     -0.002821
  C       0.783860     -1.051267      0.003817
  C       1.223378      0.424181     -0.002612
  O      -2.257365      0.899251     -0.000847
  C      -0.018407      2.620429      0.002056
  H       1.003196      2.992319     -0.004449
  H      -0.535928      2.991540      0.889169
  H      -0.547414      2.991979     -0.878032
  H      -1.182072     -1.505688      0.873202
  H      -1.174185     -1.502470     -0.884353
  H       1.163419     -1.560496      0.888124
  H       1.171859     -1.570828     -0.870683
  H       1.824098      0.674317      0.879976
  H       1.814678      0.668612     -0.893281
