      -----------------------------------------------------------      
     |                   =====================                   |     
     |                           x T B                           |     
     |                   =====================                   |     
     |                         S. Grimme                         |     
     |          Mulliken Center for Theoretical Chemistry        |     
     |                    University of Bonn                     |     
      -----------------------------------------------------------      

   * xtb version 6.7.1pre (5071a88) compiled by 'Marcel@Raven' on 2024-07-23

   xtb is free software: you can redistribute it and/or modify it under
   the terms of the GNU Lesser General Public License as published by
   the Free Software Foundation, either version 3 of the License, or
   (at your option) any later version.
   
   xtb is distributed in the hope that it will be useful,
   but WITHOUT ANY WARRANTY; without even the implied warranty of
   MERCHANTABILITY or FITNESS FOR A PARTICULAR PURPOSE.  See the
   GNU Lesser General Public License for more details.
   
   Cite this work as:
   * C. Bannwarth, E. Caldeweyher, S. Ehlert, A. Hansen, P. Pracht,
     J. Seibert, S. Spicher, S. Grimme, WIREs Comput. Mol. Sci., 2020, 11,
     e01493. DOI: 10.1002/wcms.1493
   
   for GFN2-xTB:
   * C. Bannwarth, S. Ehlert and S. Grimme., J. Chem. Theory Comput., 2019,
     15, 1652-1671. DOI: 10.1021/acs.jctc.8b01176
   for GFN1-xTB:
   * S. Grimme, C. Bannwarth, P. Shushkov, J. Chem. Theory Comput., 2017,
     13, 1989-2009. DOI: 10.1021/acs.jctc.7b00118
   for GFN0-xTB:
   * P. Pracht, E. Caldeweyher, S. Ehlert, S. Grimme, ChemRxiv, 2019, preprint.
     DOI: 10.26434/chemrxiv.8326202.v1
   for GFN-FF:
   * S. Spicher and S. Grimme, Angew. Chem. Int. Ed., 2020, 59, 15665-15673.
     DOI: 10.1002/anie.202004239
   
   for ALPB and GBSA implicit solvation:
   * S. Ehlert, M. Stahn, S. Spicher, S. Grimme, J. Chem. Theory Comput.,
     2021, 17, 4250-4261. DOI: 10.1021/acs.jctc.1c00471
   
   for ddCOSMO and CPCM-X implicit solvation:
   * M. Stahn, S. Ehlert, S. Grimme, J. Phys. Chem. A,
     2023, XX, XXXX-XXXX. DOI: 10.1021/acs.jpca.3c04382
   
   for DFT-D4:
   * E. Caldeweyher, C. Bannwarth and S. Grimme, J. Chem. Phys., 2017,
     147, 034112. DOI: 10.1063/1.4993215
   * E. Caldeweyher, S. Ehlert, A. Hansen, H. Neugebauer, S. Spicher,
     C. Bannwarth and S. Grimme, J. Chem. Phys., 2019, 150, 154122.
     DOI: 10.1063/1.5090222
   * E. Caldeweyher, J.-M. Mewes, S. Ehlert and S. Grimme, Phys. Chem. Chem. Phys.
     2020, 22, 8499-8512. DOI: 10.1039/D0CP00502A
   
   for sTDA-xTB:
   * S. Grimme and C. Bannwarth, J. Chem. Phys., 2016, 145, 054103.
     DOI: 10.1063/1.4959605
   
   in the mass-spec context:
   * V. Asgeirsson, C. Bauer and S. Grimme, Chem. Sci., 2017, 8, 4879.
     DOI: 10.1039/c7sc00601b
   * J. Koopman and S. Grimme, ACS Omega 2019, 4, 12, 15120-15133.
     DOI: 10.1021/acsomega.9b02011
   
   for metadynamics refer to:
   * S. Grimme, J. Chem. Theory Comput., 2019, 155, 2847-2862
     DOI: 10.1021/acs.jctc.9b00143
   
   for SPH calculations refer to:
   * S. Spicher and S. Grimme, J. Chem. Theory Comput., 2021, 17, 1701-1714
     DOI: 10.1021/acs.jctc.0c01306
   
   for ONIOM refer to:
   * C. Plett, A. Katbashev, S. Ehlert, S. Grimme, M. Bursch,
     Phys. Chem. Chem. Phys., 2023, 25, 17860-17868. DOI: 10.1039/D3CP02178E
   
   for DIPRO refer to:
   * J. Kohn, N. Gildemeister, S. Grimme, D. Fazzi, A. Hansen,
     J. Chem. Phys., 2023, just accepted.
   
   for PTB refer to:
   * S. Grimme, M. Mueller, A. Hansen, J. Chem. Phys., 2023, 158, 124111.
     DOI: 10.1063/5.0137838
   
   with help from (in alphabetical order)
   P. Atkinson, C. Bannwarth, F. Bohle, G. Brandenburg, E. Caldeweyher
   M. Checinski, S. Dohm, S. Ehlert, S. Ehrlich, I. Gerasimov, C. Hölzer
   A. Katbashev, J. Kohn, J. Koopman, C. Lavigne, S. Lehtola, F. März, M. Müller,
   F. Musil, H. Neugebauer, J. Pisarek, C. Plett, P. Pracht, F. Pultar,
   J. Seibert, P. Shushkov, S. Spicher, M. Stahn, M. Steiner, T. Strunk,
   J. Stückrath, T. Rose, and J. Unsleber
   
 * started run on 2026/10/03 at 18:56:09.688     
   ID    Z sym.   atoms
    1    1 H      1, 3, 6, 11, 12, 17, 19, 22, 24, 26-30, 39, 40, 42, 43, 45,
                  46, 48, 49, 52, 56, 57, 61, 62, 64, 65, 67, 68, 70, 71, 74,
                  78, 79, 82, 84, 87, 92, 93, 98, 100, 103, 105, 107-111,
                  120, 121, 125, 127-129, 132, 134, 135, 140, 141, 146,
                  149-151, 159, 160, 162, 163, 165, 166, 169, 172, 174, 176
    2    6 C      2, 4, 5, 7-10, 13-16, 18, 20, 21, 23, 25, 38, 41, 44, 47,
                  50, 51, 53-55, 60, 63, 66, 69, 72, 73, 75-77, 83, 85, 86,
                  88-91, 94-97, 99, 101, 102, 104, 106, 119, 123, 124, 126,
                  131, 133, 136-139, 142-145, 147, 148, 158, 161, 164, 167,
                  168, 170, 171, 173, 175
    3    7 N      31-34, 58, 80, 112-115, 152-155, 177
    4    8 O      35-37, 59, 81, 116-118, 122, 130, 156, 157

           -------------------------------------------------
          |                Calculation Setup                |
           -------------------------------------------------

          program call               : C:\ORCA_6.1.1\xTB_bigstack\xtb.exe t_A_D9_D7b.xyz -c 0 -u 0 -P 1 --acc 1.0 --namespace t_A_D9_D7b
          calculation namespace      : t_A_D9_D7b
          coordinate file            : t_A_D9_D7b.xyz
          omp threads                :                     1


molecular fragmentation (1/2 indicates fragments):
111111111111111111111111111111111111111111111111111111111112222222222222
222222222222222222222222222222222222222222222222222222222222222222222222
222222222222222222222222222222222
# atoms in fragment 1/2:    59   118
 fragment masses (1/2) :      459.50      919.00
CMA distance (Bohr)    :  12.229
constraining FC (au)   :  0.0500

           -------------------------------------------------
          |                 G F N 2 - x T B                 |
           -------------------------------------------------

        Reference                      10.1021/acs.jctc.8b01176
      * Hamiltonian:
        H0-scaling (s, p, d)           1.850000    2.230000    2.230000
        zeta-weighting                 0.500000
      * Dispersion:
        s8                             2.700000
        a1                             0.520000
        a2                             5.000000
        s9                             5.000000
      * Repulsion:
        kExp                           1.500000    1.000000
        rExp                           1.000000
      * Coulomb:
        alpha                          2.000000
        third order                    shell-resolved
        anisotropic                    true
        a3                             3.000000
        a5                             4.000000
        cn-shift                       1.200000
        cn-exp                         4.000000
        max-rad                        5.000000


          ...................................................
          :                      SETUP                      :
          :.................................................:
          :  # basis functions                 483          :
          :  # atomic orbitals                 483          :
          :  # shells                          279          :
          :  # electrons                       522          :
          :  max. iterations                   250          :
          :  Hamiltonian                  GFN2-xTB          :
          :  restarted?                      false          :
          :  GBSA solvation                  false          :
          :  PC potential                    false          :
          :  electronic temp.          300.0000000     K    :
          :  accuracy                    1.0000000          :
          :  -> integral cutoff          0.2500000E+02      :
          :  -> integral neglect         0.1000000E-07      :
          :  -> SCF convergence          0.1000000E-05 Eh   :
          :  -> wf. convergence          0.1000000E-03 e    :
          :  Broyden damping             0.4000000          :
          :  net charge                          0          :
          :  unpaired electrons                  0          :
          ...................................................

 iter      E             dE          RMSdq      gap      omega  full diag
   1   -296.1735210 -0.296174E+03  0.413E+00    2.88       0.0  T
   2   -296.9644695 -0.790949E+00  0.242E+00    2.59       1.0  T
   3   -297.0411735 -0.767040E-01  0.129E+00    3.00       1.0  T
   4   -297.0517100 -0.105365E-01  0.435E-01    2.65       1.0  T
   5   -297.0741716 -0.224617E-01  0.925E-02    2.69       1.0  T
   6   -297.0744855 -0.313845E-03  0.534E-02    2.72       1.0  T
   7   -297.0747390 -0.253485E-03  0.221E-02    2.74       1.0  T
   8   -297.0747494 -0.104477E-04  0.816E-03    2.74       1.0  T
   9   -297.0747531 -0.371371E-05  0.361E-03    2.74       2.1  T
  10   -297.0747534 -0.266165E-06  0.143E-03    2.74       5.3  T
  11   -297.0747536 -0.173055E-06  0.556E-04    2.74      13.5  T
  12   -297.0747536 -0.179537E-07  0.258E-04    2.74      29.1  T

   *** convergence criteria satisfied after 12 iterations ***

         #    Occupation            Energy/Eh            Energy/eV
      -------------------------------------------------------------
         1        2.0000           -0.7280810             -19.8121
       ...           ...                  ...                  ...
       255        2.0000           -0.3850998             -10.4791
       256        2.0000           -0.3850013             -10.4764
       257        2.0000           -0.3842404             -10.4557
       258        2.0000           -0.3833052             -10.4303
       259        2.0000           -0.3809399             -10.3659
       260        2.0000           -0.3805811             -10.3561
       261        2.0000           -0.3755526             -10.2193 (HOMO)
       262                         -0.2749189              -7.4809 (LUMO)
       263                         -0.2712282              -7.3805
       264                         -0.2700904              -7.3495
       265                         -0.2470181              -6.7217
       266                         -0.2426406              -6.6026
       ...                                ...                  ...
       483                          0.8660244              23.5657
      -------------------------------------------------------------
                  HL-Gap            0.1006338 Eh            2.7384 eV
             Fermi-level           -0.3252357 Eh           -8.8501 eV

 SCC (total)                   0 d,  0 h,  0 min,  0.916 sec
 SCC setup                      ...        0 min,  0.003 sec (  0.328%)
 Dispersion                     ...        0 min,  0.006 sec (  0.655%)
 classical contributions        ...        0 min,  0.001 sec (  0.109%)
 integral evaluation            ...        0 min,  0.065 sec (  7.096%)
 iterations                     ...        0 min,  0.552 sec ( 60.262%)
 molecular gradient             ...        0 min,  0.285 sec ( 31.114%)
 printout                       ...        0 min,  0.004 sec (  0.437%)

         :::::::::::::::::::::::::::::::::::::::::::::::::::::
         ::                     SUMMARY                     ::
         :::::::::::::::::::::::::::::::::::::::::::::::::::::
         :: total energy            -290.499831709504 Eh    ::
         :: gradient norm              1.614831656436 Eh/a0 ::
         :: HOMO-LUMO gap              2.738384002479 eV    ::
         ::.................................................::
         :: SCC energy              -297.074032710805 Eh    ::
         :: -> isotropic ES            0.443842928427 Eh    ::
         :: -> anisotropic ES          0.008486083980 Eh    ::
         :: -> anisotropic XC          0.055461454972 Eh    ::
         :: -> dispersion             -0.218422606573 Eh    ::
         :: repulsion energy           6.574201001301 Eh    ::
         :: add. restraining           0.000000000000 Eh    ::
         :: total charge               0.000000000000 e     ::
         :::::::::::::::::::::::::::::::::::::::::::::::::::::

           -------------------------------------------------
          |                Property Printout                |
           -------------------------------------------------

    * Orbital Energies and Occupations

         #    Occupation            Energy/Eh            Energy/eV
      -------------------------------------------------------------
         1        2.0000           -0.7280810             -19.8121
       ...           ...                  ...                  ...
       249        2.0000           -0.3918116             -10.6617
       250        2.0000           -0.3909806             -10.6391
       251        2.0000           -0.3896459             -10.6028
       252        2.0000           -0.3891941             -10.5905
       253        2.0000           -0.3891317             -10.5888
       254        2.0000           -0.3874686             -10.5436
       255        2.0000           -0.3850998             -10.4791
       256        2.0000           -0.3850013             -10.4764
       257        2.0000           -0.3842404             -10.4557
       258        2.0000           -0.3833052             -10.4303
       259        2.0000           -0.3809399             -10.3659
       260        2.0000           -0.3805811             -10.3561
       261        2.0000           -0.3755526             -10.2193 (HOMO)
       262                         -0.2749189              -7.4809 (LUMO)
       263                         -0.2712282              -7.3805
       264                         -0.2700904              -7.3495
       265                         -0.2470181              -6.7217
       266                         -0.2426406              -6.6026
       267                         -0.2418492              -6.5811
       268                         -0.2416396              -6.5753
       269                         -0.2390825              -6.5058
       270                         -0.2364351              -6.4337
       271                         -0.2361256              -6.4253
       272                         -0.2353008              -6.4029
       ...                                ...                  ...
       483                          0.8660244              23.5657
      -------------------------------------------------------------
                  HL-Gap            0.1006338 Eh            2.7384 eV
             Fermi-level           -0.3252357 Eh           -8.8501 eV

     #   Z          covCN         q      C6AA      α(0)
     1   1 H        0.930     0.076     2.021     2.223
     2   6 C        2.936    -0.044    29.101     8.847
     3   1 H        0.930     0.071     2.069     2.249
     4   6 C        2.928     0.069    26.461     8.436
     5   6 C        3.764    -0.013    20.843     6.507
     6   1 H        0.930     0.058     2.218     2.329
     7   6 C        2.767     0.268    22.471     7.763
     8   6 C        3.096    -0.009    28.125     8.692
     9   6 C        3.070    -0.015    28.323     8.726
    10   6 C        3.821    -0.083    22.063     6.684
    11   1 H        0.930     0.078     2.001     2.212
    12   1 H        0.930     0.084     1.934     2.174
    13   6 C        3.172     0.026    27.038     8.494
    14   6 C        2.748     0.278    22.301     7.733
    15   6 C        2.920     0.046    26.962     8.515
    16   6 C        2.934    -0.044    29.089     8.845
    17   1 H        0.930     0.069     2.096     2.264
    18   6 C        2.932    -0.081    30.018     8.985
    19   1 H        0.930     0.066     2.131     2.283
    20   6 C        2.878     0.145    24.853     8.173
    21   6 C        2.936    -0.066    29.647     8.930
    22   1 H        0.930     0.080     1.978     2.199
    23   6 C        2.932    -0.046    29.138     8.853
    24   1 H        0.930     0.081     1.971     2.195
    25   6 C        3.664     0.013    20.622     6.513
    26   1 H        0.930     0.073     2.049     2.238
    27   1 H        0.930     0.059     2.206     2.323
    28   1 H        0.930     0.056     2.245     2.343
    29   1 H        0.862     0.206     1.076     1.625
    30   1 H        0.863     0.211     1.049     1.604
    31   7 N        2.745    -0.120    23.600     7.215
    32   7 N        3.019     0.088    19.715     6.595
    33   7 N        1.991    -0.242    27.118     7.723
    34   7 N        2.645    -0.284    27.323     7.763
    35   8 O        0.858    -0.445    22.599     6.374
    36   8 O        0.860    -0.448    22.670     6.384
    37   8 O        1.705    -0.279    18.638     5.829
    38   6 C        3.762    -0.010    20.796     6.501
    39   1 H        0.930     0.055     2.263     2.352
    40   1 H        0.930     0.052     2.300     2.372
    41   6 C        3.827    -0.082    22.048     6.681
    42   1 H        0.930     0.059     2.211     2.325
    43   1 H        0.930     0.065     2.140     2.287
    44   6 C        3.825    -0.082    22.043     6.681
    45   1 H        0.930     0.073     2.048     2.238
    46   1 H        0.930     0.044     2.390     2.417
    47   6 C        3.826    -0.108    22.543     6.756
    48   1 H        0.930     0.077     2.014     2.219
    49   1 H        0.930     0.073     2.047     2.237
    50   6 C        2.766     0.268    22.468     7.763
    51   6 C        2.935    -0.057    29.405     8.893
    52   1 H        0.930     0.065     2.141     2.288
    53   6 C        2.930     0.070    26.439     8.433
    54   6 C        2.938    -0.043    29.063     8.842
    55   6 C        2.935    -0.057    29.427     8.897
    56   1 H        0.930     0.068     2.103     2.267
    57   1 H        0.930     0.070     2.082     2.256
    58   7 N        2.739    -0.115    23.502     7.200
    59   8 O        0.859    -0.471    23.151     6.451
    60   6 C        3.762    -0.011    20.812     6.503
    61   1 H        0.930     0.057     2.231     2.335
    62   1 H        0.930     0.060     2.196     2.317
    63   6 C        3.827    -0.083    22.057     6.683
    64   1 H        0.930     0.055     2.256     2.348
    65   1 H        0.930     0.057     2.230     2.335
    66   6 C        3.825    -0.080    21.998     6.674
    67   1 H        0.930     0.053     2.286     2.364
    68   1 H        0.930     0.051     2.311     2.377
    69   6 C        3.826    -0.107    22.518     6.752
    70   1 H        0.930     0.074     2.039     2.233
    71   1 H        0.930     0.076     2.016     2.220
    72   6 C        2.766     0.268    22.474     7.764
    73   6 C        2.935    -0.056    29.381     8.890
    74   1 H        0.930     0.066     2.134     2.284
    75   6 C        2.930     0.070    26.441     8.433
    76   6 C        2.938    -0.042    29.045     8.839
    77   6 C        2.935    -0.056    29.403     8.893
    78   1 H        0.930     0.069     2.092     2.262
    79   1 H        0.930     0.070     2.081     2.255
    80   7 N        2.739    -0.113    23.465     7.194
    81   8 O        0.859    -0.467    23.066     6.439
    82   1 H        0.930     0.075     2.027     2.226
    83   6 C        2.936    -0.044    29.087     8.845
    84   1 H        0.930     0.072     2.065     2.247
    85   6 C        2.928     0.070    26.441     8.433
    86   6 C        3.764    -0.013    20.843     6.507
    87   1 H        0.930     0.058     2.219     2.329
    88   6 C        2.767     0.268    22.470     7.763
    89   6 C        3.096    -0.009    28.125     8.692
    90   6 C        3.070    -0.015    28.322     8.726
    91   6 C        3.821    -0.083    22.062     6.684
    92   1 H        0.930     0.078     1.999     2.211
    93   1 H        0.930     0.085     1.932     2.174
    94   6 C        3.172     0.026    27.037     8.494
    95   6 C        2.748     0.278    22.301     7.733
    96   6 C        2.920     0.046    26.959     8.515
    97   6 C        2.934    -0.044    29.089     8.845
    98   1 H        0.930     0.069     2.099     2.265
    99   6 C        2.932    -0.081    30.018     8.985
   100   1 H        0.930     0.065     2.136     2.285
   101   6 C        2.878     0.145    24.852     8.172
   102   6 C        2.936    -0.066    29.642     8.929
   103   1 H        0.930     0.080     1.976     2.198
   104   6 C        2.932    -0.046    29.133     8.852
   105   1 H        0.930     0.081     1.969     2.194
   106   6 C        3.664     0.013    20.619     6.513
   107   1 H        0.930     0.073     2.052     2.240
   108   1 H        0.930     0.059     2.207     2.323
   109   1 H        0.930     0.056     2.249     2.345
   110   1 H        0.862     0.206     1.075     1.624
   111   1 H        0.863     0.212     1.048     1.604
   112   7 N        2.745    -0.119    23.598     7.215
   113   7 N        3.019     0.088    19.714     6.594
   114   7 N        1.991    -0.242    27.111     7.722
   115   7 N        2.645    -0.284    27.322     7.763
   116   8 O        0.858    -0.444    22.578     6.371
   117   8 O        0.860    -0.448    22.669     6.384
   118   8 O        1.705    -0.279    18.638     5.829
   119   6 C        3.826    -0.107    22.520     6.753
   120   1 H        0.930     0.075     2.036     2.231
   121   1 H        0.930     0.077     2.010     2.217
   122   8 O        0.859    -0.467    23.066     6.439
   123   6 C        2.878     0.144    24.861     8.174
   124   6 C        2.936    -0.066    29.652     8.931
   125   1 H        0.930     0.080     1.982     2.202
   126   6 C        3.664     0.013    20.625     6.514
   127   1 H        0.930     0.076     2.025     2.225
   128   1 H        0.930     0.056     2.242     2.341
   129   1 H        0.930     0.057     2.230     2.335
   130   8 O        1.705    -0.280    18.642     5.829
   131   6 C        2.928     0.069    26.456     8.435
   132   1 H        0.930     0.070     2.080     2.255
   133   6 C        3.764    -0.013    20.846     6.508
   134   1 H        0.930     0.059     2.208     2.324
   135   1 H        0.930     0.071     2.074     2.252
   136   6 C        2.767     0.268    22.472     7.763
   137   6 C        3.096    -0.010    28.142     8.694
   138   6 C        3.070    -0.015    28.309     8.724
   139   6 C        3.821    -0.083    22.065     6.685
   140   1 H        0.930     0.078     1.994     2.208
   141   1 H        0.930     0.085     1.924     2.169
   142   6 C        3.172     0.027    27.024     8.492
   143   6 C        2.748     0.278    22.300     7.732
   144   6 C        2.920     0.046    26.968     8.516
   145   6 C        2.934    -0.044    29.082     8.844
   146   1 H        0.930     0.070     2.089     2.260
   147   6 C        2.932    -0.081    30.026     8.986
   148   6 C        2.932    -0.046    29.142     8.853
   149   1 H        0.930     0.081     1.971     2.195
   150   1 H        0.862     0.206     1.073     1.623
   151   1 H        0.863     0.212     1.048     1.603
   152   7 N        2.745    -0.119    23.580     7.212
   153   7 N        3.019     0.088    19.708     6.593
   154   7 N        1.991    -0.240    27.072     7.717
   155   7 N        2.645    -0.283    27.311     7.762
   156   8 O        0.858    -0.451    22.731     6.392
   157   8 O        0.860    -0.448    22.653     6.381
   158   6 C        3.762    -0.011    20.814     6.503
   159   1 H        0.930     0.058     2.224     2.332
   160   1 H        0.930     0.060     2.197     2.318
   161   6 C        3.827    -0.083    22.062     6.684
   162   1 H        0.930     0.055     2.252     2.346
   163   1 H        0.930     0.059     2.215     2.327
   164   6 C        3.825    -0.080    22.003     6.675
   165   1 H        0.930     0.053     2.276     2.359
   166   1 H        0.930     0.051     2.305     2.374
   167   6 C        2.766     0.268    22.472     7.763
   168   6 C        2.935    -0.055    29.362     8.887
   169   1 H        0.930     0.067     2.117     2.275
   170   6 C        2.930     0.070    26.431     8.431
   171   6 C        2.938    -0.044    29.083     8.845
   172   1 H        0.930     0.074     2.040     2.233
   173   6 C        2.936    -0.046    29.138     8.853
   174   1 H        0.930     0.070     2.087     2.259
   175   6 C        2.935    -0.056    29.396     8.892
   176   1 H        0.930     0.068     2.112     2.272
   177   7 N        2.739    -0.113    23.473     7.196

 Mol. C6AA /au·bohr⁶  :     376954.020719
 Mol. C8AA /au·bohr⁸  :    9002740.924601
 Mol. α(0) /au        :        951.617735


Wiberg/Mayer (AO) data.
largest (>0.10) Wiberg bond orders for each atom

 ---------------------------------------------------------------------------
     #   Z sym  total        # sym  WBO       # sym  WBO       # sym  WBO
 ---------------------------------------------------------------------------
     1   1 H    0.994 --    54 C    0.973
     2   6 C    3.992 --    54 C    1.441     4 C    1.403     3 H    0.973
                            51 C    0.109
     3   1 H    0.995 --     2 C    0.973
     4   6 C    3.964 --     2 C    1.403    55 C    1.401    31 N    0.996
     5   6 C    3.968 --    10 C    0.998     6 H    0.974    57 H    0.974
                            31 N    0.961
     6   1 H    0.997 --     5 C    0.974
     7   6 C    3.957 --    35 O    1.654    31 N    1.203     8 C    1.011
     8   6 C    3.952 --     9 C    1.430    32 N    1.219     7 C    1.011
                            33 N    0.135
     9   6 C    3.981 --     8 C    1.430    13 C    1.322    10 C    1.012
    10   6 C    3.989 --     9 C    1.012     5 C    0.998    12 H    0.962
                            11 H    0.960
    11   1 H    0.994 --    10 C    0.960
    12   1 H    0.992 --    10 C    0.962
    13   6 C    3.968 --    33 N    1.427     9 C    1.322    14 C    1.000
    14   6 C    3.952 --    36 O    1.660    34 N    1.252    13 C    1.000
    15   6 C    3.956 --    16 C    1.402    23 C    1.371    32 N    1.006
    16   6 C    3.992 --    18 C    1.434    15 C    1.402    17 H    0.974
                            21 C    0.108
    17   1 H    0.995 --    16 C    0.974
    18   6 C    3.990 --    16 C    1.434    20 C    1.379    19 H    0.971
    19   1 H    0.995 --    18 C    0.971
    20   6 C    3.933 --    18 C    1.379    21 C    1.344    37 O    1.072
    21   6 C    3.991 --    23 C    1.477    20 C    1.344    22 H    0.972
                            16 C    0.108
    22   1 H    0.993 --    21 C    0.972
    23   6 C    3.990 --    21 C    1.477    15 C    1.371    24 H    0.972
    24   1 H    0.993 --    23 C    0.972
    25   6 C    3.936 --    27 H    0.981    28 H    0.980    26 H    0.979
                            37 O    0.967
    26   1 H    0.994 --    25 C    0.979
    27   1 H    0.996 --    25 C    0.981
    28   1 H    0.997 --    25 C    0.980
    29   1 H    0.957 --    34 N    0.941
    30   1 H    0.955 --    34 N    0.942
    31   7 N    3.473 --     7 C    1.203     4 C    0.996     5 C    0.961
                            35 O    0.189
    32   7 N    3.690 --     8 C    1.219    33 N    1.219    15 C    1.006
    33   7 N    2.965 --    13 C    1.427    32 N    1.219     8 C    0.135
    34   7 N    3.370 --    14 C    1.252    30 H    0.942    29 H    0.941
                            36 O    0.193
    35   8 O    1.999 --     7 C    1.654    31 N    0.189
    36   8 O    1.973 --    14 C    1.660    34 N    0.193
    37   8 O    2.208 --    20 C    1.072    25 C    0.967
    38   6 C    3.970 --    41 C    1.006    40 H    0.975    39 H    0.973
                            58 N    0.958
    39   1 H    0.997 --    38 C    0.973
    40   1 H    0.997 --    38 C    0.975
    41   6 C    3.990 --    44 C    1.007    38 C    1.006    42 H    0.979
                            43 H    0.969
    42   1 H    0.997 --    41 C    0.979
    43   1 H    0.995 --    41 C    0.969
    44   6 C    3.992 --    41 C    1.007    47 C    1.001    46 H    0.982
                            45 H    0.972
    45   1 H    0.995 --    44 C    0.972
    46   1 H    0.998 --    44 C    0.982
    47   6 C    3.990 --    44 C    1.001    50 C    0.978    49 H    0.964
                            48 H    0.953
    48   1 H    0.994 --    47 C    0.953
    49   1 H    0.995 --    47 C    0.964
    50   6 C    3.949 --    59 O    1.656    58 N    1.235    47 C    0.978
    51   6 C    3.994 --    55 C    1.442    53 C    1.405    52 H    0.974
                             2 C    0.109
    52   1 H    0.995 --    51 C    0.974
    53   6 C    3.970 --    51 C    1.405    54 C    1.404    58 N    0.993
    54   6 C    3.993 --     2 C    1.441    53 C    1.404     1 H    0.973
                            55 C    0.110
    55   6 C    3.993 --    51 C    1.442     4 C    1.401    56 H    0.974
                            54 C    0.110
    56   1 H    0.995 --    55 C    0.974
    57   1 H    0.995 --     5 C    0.974
    58   7 N    3.478 --    50 C    1.235    53 C    0.993    38 C    0.958
                            59 O    0.187
    59   8 O    1.964 --    50 C    1.656    58 N    0.187
    60   6 C    3.971 --    63 C    1.007    62 H    0.974    61 H    0.972
                            80 N    0.960
    61   1 H    0.997 --    60 C    0.972
    62   1 H    0.996 --    60 C    0.974
    63   6 C    3.992 --    60 C    1.007    66 C    1.006    64 H    0.979
                            65 H    0.971
    64   1 H    0.997 --    63 C    0.979
    65   1 H    0.996 --    63 C    0.971
    66   6 C    3.994 --    63 C    1.006    69 C    1.002    68 H    0.981
                            67 H    0.977
    67   1 H    0.997 --    66 C    0.977
    68   1 H    0.997 --    66 C    0.981
    69   6 C    3.990 --    66 C    1.002    72 C    0.976    71 H    0.964
                            70 H    0.954
    70   1 H    0.994 --    69 C    0.954
    71   1 H    0.994 --    69 C    0.964
    72   6 C    3.951 --    81 O    1.658    80 N    1.237    69 C    0.976
    73   6 C    3.994 --    77 C    1.442    75 C    1.406    74 H    0.974
                            83 C    0.109
    74   1 H    0.995 --    73 C    0.974
    75   6 C    3.968 --    73 C    1.406    76 C    1.405    80 N    0.991
    76   6 C    3.993 --    83 C    1.441    75 C    1.405    82 H    0.973
                            77 C    0.110
    77   6 C    3.993 --    73 C    1.442    85 C    1.402    78 H    0.974
                            76 C    0.110
    78   1 H    0.995 --    77 C    0.974
    79   1 H    0.995 --    86 C    0.974
    80   7 N    3.480 --    72 C    1.237    75 C    0.991    60 C    0.960
                            81 O    0.189
    81   8 O    1.968 --    72 C    1.658    80 N    0.189
    82   1 H    0.994 --    76 C    0.973
    83   6 C    3.992 --    76 C    1.441    85 C    1.404    84 H    0.973
                            73 C    0.109
    84   1 H    0.995 --    83 C    0.973
    85   6 C    3.965 --    83 C    1.404    77 C    1.402   112 N    0.996
    86   6 C    3.967 --    91 C    0.998    87 H    0.974    79 H    0.974
                           112 N    0.961
    87   1 H    0.997 --    86 C    0.974
    88   6 C    3.957 --   116 O    1.655   112 N    1.202    89 C    1.011
    89   6 C    3.952 --    90 C    1.430   113 N    1.219    88 C    1.011
                           114 N    0.135
    90   6 C    3.981 --    89 C    1.430    94 C    1.322    91 C    1.012
    91   6 C    3.989 --    90 C    1.012    86 C    0.998    93 H    0.962
                            92 H    0.960
    92   1 H    0.994 --    91 C    0.960
    93   1 H    0.992 --    91 C    0.962
    94   6 C    3.968 --   114 N    1.427    90 C    1.322    95 C    1.000
    95   6 C    3.952 --   117 O    1.660   115 N    1.253    94 C    1.000
    96   6 C    3.956 --    97 C    1.402   104 C    1.371   113 N    1.006
    97   6 C    3.992 --    99 C    1.434    96 C    1.402    98 H    0.974
                           102 C    0.108
    98   1 H    0.995 --    97 C    0.974
    99   6 C    3.990 --    97 C    1.434   101 C    1.379   100 H    0.971
   100   1 H    0.995 --    99 C    0.971
   101   6 C    3.933 --    99 C    1.379   102 C    1.344   118 O    1.071
   102   6 C    3.991 --   104 C    1.477   101 C    1.344   103 H    0.972
                            97 C    0.108
   103   1 H    0.993 --   102 C    0.972
   104   6 C    3.990 --   102 C    1.477    96 C    1.371   105 H    0.972
   105   1 H    0.993 --   104 C    0.972
   106   6 C    3.936 --   108 H    0.981   109 H    0.980   107 H    0.979
                           118 O    0.967
   107   1 H    0.994 --   106 C    0.979
   108   1 H    0.996 --   106 C    0.981
   109   1 H    0.997 --   106 C    0.980
   110   1 H    0.957 --   115 N    0.941
   111   1 H    0.955 --   115 N    0.942
   112   7 N    3.472 --    88 C    1.202    85 C    0.996    86 C    0.961
                           116 O    0.189
   113   7 N    3.690 --    89 C    1.219   114 N    1.219    96 C    1.006
   114   7 N    2.965 --    94 C    1.427   113 N    1.219    89 C    0.135
   115   7 N    3.370 --    95 C    1.253   111 H    0.942   110 H    0.941
                           117 O    0.193
   116   8 O    2.000 --    88 C    1.655   112 N    0.189
   117   8 O    1.973 --    95 C    1.660   115 N    0.193
   118   8 O    2.208 --   101 C    1.071   106 C    0.967
   119   6 C    3.990 --   164 C    1.002   167 C    0.977   121 H    0.963
                           120 H    0.954
   120   1 H    0.994 --   119 C    0.954
   121   1 H    0.994 --   119 C    0.963
   122   8 O    1.968 --   167 C    1.659   177 N    0.189
   123   6 C    3.933 --   147 C    1.379   124 C    1.344   130 O    1.072
   124   6 C    3.991 --   148 C    1.477   123 C    1.344   125 H    0.972
                           145 C    0.108
   125   1 H    0.993 --   124 C    0.972
   126   6 C    3.936 --   129 H    0.981   128 H    0.980   127 H    0.979
                           130 O    0.967
   127   1 H    0.994 --   126 C    0.979
   128   1 H    0.997 --   126 C    0.980
   129   1 H    0.996 --   126 C    0.981
   130   8 O    2.209 --   123 C    1.072   126 C    0.967
   131   6 C    3.965 --   173 C    1.403   175 C    1.401   152 N    0.997
   132   1 H    0.995 --   175 C    0.974
   133   6 C    3.967 --   139 C    0.998   134 H    0.974   135 H    0.974
                           152 N    0.961
   134   1 H    0.996 --   133 C    0.974
   135   1 H    0.995 --   133 C    0.974
   136   6 C    3.957 --   156 O    1.646   152 N    1.206   137 C    1.013
   137   6 C    3.952 --   138 C    1.429   153 N    1.218   136 C    1.013
                           154 N    0.134
   138   6 C    3.981 --   137 C    1.429   142 C    1.322   139 C    1.012
   139   6 C    3.989 --   138 C    1.012   133 C    0.998   141 H    0.962
                           140 H    0.960
   140   1 H    0.993 --   139 C    0.960
   141   1 H    0.992 --   139 C    0.962
   142   6 C    3.968 --   154 N    1.427   138 C    1.322   143 C    0.999
   143   6 C    3.952 --   157 O    1.660   155 N    1.253   142 C    0.999
   144   6 C    3.956 --   145 C    1.402   148 C    1.371   153 N    1.005
   145   6 C    3.992 --   147 C    1.434   144 C    1.402   146 H    0.974
                           124 C    0.108
   146   1 H    0.995 --   145 C    0.974
   147   6 C    3.990 --   145 C    1.434   123 C    1.379   176 H    0.971
   148   6 C    3.990 --   124 C    1.477   144 C    1.371   149 H    0.972
   149   1 H    0.993 --   148 C    0.972
   150   1 H    0.957 --   155 N    0.941
   151   1 H    0.955 --   155 N    0.942
   152   7 N    3.475 --   136 C    1.206   131 C    0.997   133 C    0.961
                           156 O    0.188
   153   7 N    3.691 --   154 N    1.220   137 C    1.218   144 C    1.005
   154   7 N    2.966 --   142 C    1.427   153 N    1.220   137 C    0.134
   155   7 N    3.371 --   143 C    1.253   151 H    0.942   150 H    0.941
                           157 O    0.194
   156   8 O    1.992 --   136 C    1.646   152 N    0.188
   157   8 O    1.974 --   143 C    1.660   155 N    0.194
   158   6 C    3.970 --   161 C    1.007   160 H    0.974   159 H    0.972
                           177 N    0.960
   159   1 H    0.997 --   158 C    0.972
   160   1 H    0.996 --   158 C    0.974
   161   6 C    3.992 --   158 C    1.007   164 C    1.006   162 H    0.979
                           163 H    0.971
   162   1 H    0.997 --   161 C    0.979
   163   1 H    0.996 --   161 C    0.971
   164   6 C    3.994 --   161 C    1.006   119 C    1.002   166 H    0.981
                           165 H    0.976
   165   1 H    0.997 --   164 C    0.976
   166   1 H    0.997 --   164 C    0.981
   167   6 C    3.950 --   122 O    1.659   177 N    1.236   119 C    0.977
   168   6 C    3.994 --   175 C    1.442   170 C    1.405   169 H    0.974
                           173 C    0.109
   169   1 H    0.995 --   168 C    0.974
   170   6 C    3.969 --   168 C    1.405   171 C    1.405   177 N    0.992
   171   6 C    3.993 --   173 C    1.441   170 C    1.405   172 H    0.973
                           175 C    0.110
   172   1 H    0.994 --   171 C    0.973
   173   6 C    3.993 --   171 C    1.441   131 C    1.403   174 H    0.973
                           168 C    0.109
   174   1 H    0.995 --   173 C    0.973
   175   6 C    3.993 --   168 C    1.442   131 C    1.401   132 H    0.974
                           171 C    0.110
   176   1 H    0.995 --   147 C    0.971
   177   7 N    3.479 --   167 C    1.236   170 C    0.992   158 C    0.960
                           122 O    0.189
 ---------------------------------------------------------------------------

Topologies differ in total number of bonds
Writing topology from bond orders to xtbtopo.mol

molecular dipole:
                 x           y           z       tot (Debye)
 q only:       -0.218      -0.287       1.312
   full:       -0.411      -0.009       1.504       3.962
molecular quadrupole (traceless):
                xx          xy          yy          xz          yz          zz
 q only:     -149.513     -47.484     -87.449      99.142      76.630     236.962
  q+dip:     -210.484     -59.636     -33.455      95.015     118.319     243.939
   full:     -205.888     -59.460     -39.349     102.530     118.984     245.236


           -------------------------------------------------
          | TOTAL ENERGY             -290.499831709504 Eh   |
          | GRADIENT NORM               1.614831656436 Eh/α |
          | HOMO-LUMO GAP               2.738384002479 eV   |
           -------------------------------------------------

------------------------------------------------------------------------
 * finished run on 2026/10/03 at 18:56:10.733     
------------------------------------------------------------------------
 total:
 * wall-time:     0 d,  0 h,  0 min,  1.042 sec
 *  cpu-time:     0 d,  0 h,  0 min,  1.000 sec
 * ratio c/w:     0.960 speedup
 SCF:
 * wall-time:     0 d,  0 h,  0 min,  0.918 sec
 *  cpu-time:     0 d,  0 h,  0 min,  0.922 sec
 * ratio c/w:     1.004 speedup

normal termination of xtb
