12
Coordinates from ORCA-job Monomer_r2SCAN3c_SMD E -248.456035334232
  C           0.01664192349288      0.02961683815774      0.00186618014645
  O          -0.06514732530765      1.25923274072288      0.00172935332799
  H          -0.88013284454333     -0.62201850064599      0.00346875755232
  N           1.16840044516730     -0.66479055743988      0.00133166967304
  C           1.13800675871649     -2.13078855739780     -0.00017251154592
  C           2.43459613006737      0.06461899857089     -0.00129392940730
  H           2.16159289464623     -2.50774370715864      0.00766422349936
  H           0.62489155453326     -2.51895790697293      0.88728237034929
  H           0.63873197327595     -2.51805838546613     -0.89598640770675
  H           3.26115207956111     -0.64758290074141     -0.00188912732177
  H           2.51891336083127      0.70453136783669      0.88508973073122
  H           2.51635304955912      0.70294057053459     -0.88909030929793
