89
Coordinates from ORCA-job Apixaban_10H2O_Opt_from_confined_final E -2306.363077344130
  C          31.79647316904145    -21.60085267802254      1.82548827938940
  C          30.60741447286755    -21.52659441971460      0.86951523943184
  C          30.73192140062317    -20.58909487538991     -0.32370659600249
  N          31.98456144355370    -20.09017718948533     -0.62691363774561
  C          33.16066606512244    -20.26951664210161      0.24746626522320
  C          33.09180021371672    -21.56936953552112      1.02699348807448
  C          32.17952018793518    -19.29025723428735     -1.78867445713420
  C          31.69864783838603    -19.70118314191738     -3.03519890631153
  C          31.99761334336773    -18.96525271537953     -4.17005843736194
  C          32.77902782588792    -17.81319607364183     -4.08411959277327
  C          33.24539505378340    -17.39062379695380     -2.84304475185380
  C          32.93481946151967    -18.12044764126479     -1.69809179134749
  N          33.08346339155996    -17.07440758131330     -5.26273539083612
  C          32.61769568316387    -15.67310642237025     -5.36377262057147
  C          32.12120002837023    -15.35638518831095     -6.77129800693024
  C          33.16197967305006    -15.80250259999238     -7.73635855425817
  C          34.06405817501001    -16.79291916892756     -7.39366811397847
  C          33.95764264353449    -17.61905814414573     -6.17962370180119
  O          29.74991970198018    -20.34311678429769     -1.00927034807941
  O          34.51470361317216    -18.70092514053370     -6.02847887080897
  C          33.53000906447431    -15.43048791738873     -9.03968355571291
  N          34.61350129882263    -16.11566708917337     -9.45180985937516
  N          34.92015688209111    -16.95055450891011     -8.45478760289195
  C          36.07296929020497    -17.79009389412252     -8.58586933281511
  C          32.83761794096552    -14.49782880999330     -9.95046034923308
  N          33.54154659451022    -14.12502679813625    -11.04701216605182
  O          31.69402006582590    -14.09443547150063     -9.71518466779667
  C          37.32462741519131    -17.19411273263706     -8.72048872573445
  C          38.44314349107611    -17.98083696801669     -8.93624323095487
  C          38.30986568239066    -19.36939754484777     -9.03302365860916
  C          37.05719212554381    -19.96455306168893     -8.86281839210836
  C          35.93875212586609    -19.16912454593241     -8.64007827505108
  O          39.45500723130741    -20.05808245256098     -9.30064428660091
  C          39.32283989655589    -21.40610950403137     -9.75019926777986
  H          31.78099984923231    -20.74605300187056      2.51548700821410
  H          31.72858511812405    -22.50606116245833      2.43990875179500
  H          30.41418998386263    -22.51294735928895      0.42571597289557
  H          29.68231857742304    -21.24688497646154      1.38366283664779
  H          34.04823256371395    -20.24534152773948     -0.39410376698217
  H          33.24278059709483    -19.42843768267869      0.95494928595295
  H          33.13438556720523    -22.41970485075736      0.33323927017679
  H          33.97151128995704    -21.63165360726230      1.67844403205361
  H          31.09078996097229    -20.59480724678180     -3.10933921460280
  H          31.63614644481484    -19.28733334518014     -5.14139077057116
  H          33.85818612626336    -16.49662736644616     -2.76505508962745
  H          33.30188004178210    -17.78064137892068     -0.73419382347047
  H          31.80242642856355    -15.55350092785090     -4.64650860882650
  H          33.42664992362565    -14.98185773142312     -5.08396279766321
  H          31.17570957400605    -15.87161873822666     -6.97200504735284
  H          31.92462007384934    -14.28348672783162     -6.85740059929748
  H          34.41771209251728    -14.57983190878348    -11.25212714336863
  H          33.06638570158151    -13.60532858909179    -11.76585938242649
  H          37.41324556142747    -16.11341241787670     -8.66984080600314
  H          39.42697936126025    -17.53834339372319     -9.05250342141518
  H          36.93992245334700    -21.04096006840063     -8.90413983954591
  H          34.96372823185999    -19.62186018284671     -8.50345983738804
  H          38.98209376866913    -22.07481934202577     -8.94865595081587
  H          38.62657457966610    -21.46967730858502    -10.59724833035482
  H          40.31976452008719    -21.71231463392476    -10.07474975611762
  O          42.38756242395810    -17.93349883857696      1.89204920449198
  H          43.00813699688893    -17.38061037176719      1.39959532603057
  H          41.54880302353300    -17.56899425525481      1.57821492801270
  O          31.32761083380360    -15.00133541932685     -2.07201430023757
  H          31.51093238729561    -15.94540335380913     -2.15372308124265
  H          30.79858825422858    -14.91661070274804     -1.27515136388222
  O          29.55424873696047    -15.82540523741602     -8.50725210072576
  H          28.85388122193186    -15.80841389605359     -9.17018167547741
  H          30.26957284731282    -15.33557281618389     -8.94033100023657
  O          41.50568197499785    -16.64267086911330     -0.53448837467802
  H          41.61417027969885    -15.89999123240584     -1.13640255796171
  H          41.67173388086017    -17.43069911620669     -1.08779327727545
  O          42.16254546329591    -19.04107360740705     -1.95050971678581
  H          41.47451151672097    -19.56895094362763     -2.36636007804003
  H          42.46763688380997    -19.58716995619633     -1.19668764537205
  O          42.82277136935782    -20.38323747103307      0.45217625827133
  H          42.55907971328416    -19.60639767041865      0.98633080904864
  H          43.76469909957103    -20.47199583059253      0.63352200793031
  O          22.04509899093860    -19.56354185728462     -5.02140250866215
  H          21.71342294085140    -19.37080148371717     -4.13964206726702
  H          21.27184548096162    -19.87090460478935     -5.50245188251042
  O          31.79551442013670    -12.73270337483192     -4.00203764257647
  H          31.71027004297005    -13.57283461979291     -3.53212328142098
  H          31.82867112365303    -12.08478179165854     -3.29982146612001
  O          28.56200442162774    -14.28889913938466    -10.86042521815157
  H          29.38350626733721    -13.86460528484780    -10.57802234606785
  H          28.57288010462914    -14.21711304814668    -11.81912033454502
  O          27.38249860149886    -17.85099452355157      8.34042569839788
  H          27.73848484683841    -18.10356477512416      7.48339586423803
  H          27.41086465996360    -16.88947068768196      8.33065387900082
