100

C        -12.76156        4.29895       -5.64050
O        -11.70264        4.84786       -5.42461
C        -12.95587        3.31980       -6.75704
C        -13.99069        4.56809       -4.81953
H        -13.77272        3.66547       -7.38694
H        -12.04843        3.21794       -7.34481
H        -13.22866        2.34939       -6.34870
H        -14.54754        3.65225       -4.64285
H        -14.61980        5.24655       -5.39609
H        -13.73166        5.04486       -3.87723
C          1.42258       -0.62237       -6.70759
O          1.03709       -1.66418       -6.22285
C          1.91714        0.52843       -5.88750
C          1.38509       -0.36397       -8.19440
H          2.19825        0.21000       -4.88702
H          2.74678        1.03204       -6.37432
H          1.09110        1.24028       -5.80879
H          0.85263       -1.16070       -8.70550
H          2.40197       -0.31030       -8.57686
H          0.89975        0.59055       -8.38568
C          0.26045        2.14742       -1.62817
O         -0.76811        1.54071       -1.43516
C          0.66270        2.68128       -2.97051
C          1.26619        2.38992       -0.53247
H          0.93307        3.73069       -2.90057
H          1.54407        2.12902       -3.29650
H         -0.12508        2.55250       -3.70902
H          0.88902        2.03032        0.42114
H          1.50007        3.44874       -0.45686
H          2.18251        1.85770       -0.78637
C        -12.82461        6.94011       -7.32632
O        -13.88940        6.38828       -7.47661
C        -11.65656        6.71738       -8.25004
C        -12.54568        7.87348       -6.17958
H        -11.35299        7.66132       -8.69693
H        -10.81965        6.33214       -7.67079
H        -11.92034        6.01260       -9.03502
H        -11.98079        8.74127       -6.50759
H        -11.94299        7.32752       -5.45371
H        -13.47184        8.18455       -5.70352
C        -13.62733       -1.06319       -5.54451
O        -13.42944        0.07225       -5.92295
C        -12.85070       -1.68723       -4.42121
C        -14.66739       -1.94814       -6.16332
H        -11.86989       -1.22546       -4.32988
H        -13.39364       -1.51694       -3.49157
H        -12.75063       -2.75770       -4.57134
H        -15.27868       -2.40753       -5.39084
H        -14.15115       -2.74736       -6.69694
H        -15.29488       -1.39247       -6.85595
C         -4.29805        1.35241       -2.96429
O         -5.50048        1.38450       -3.09068
C         -3.54101        0.08554       -2.68585
C         -3.42877        2.57294       -3.07529
H         -4.22645       -0.73977       -2.51005
H         -2.90947       -0.14204       -3.54158
H         -2.88563        0.22854       -1.82995
H         -2.83012        2.67135       -2.17228
H         -4.02756        3.46755       -3.22677
H         -2.73627        2.45199       -3.90649
C        -12.23812       -0.20768       -9.46803
O        -11.09328        0.12432       -9.23444
C        -12.59123       -1.54428      -10.04770
C        -13.39968        0.68774       -9.16275
H        -11.71898       -2.19063      -10.11173
H        -13.35392       -2.02119       -9.43520
H        -13.00437       -1.39766      -11.04507
H        -13.14168        1.72727       -9.34407
H        -13.61124        0.58650       -8.09637
H        -14.28461        0.41043       -9.72611
C          1.19818       -0.85378       -2.17851
O          2.13308       -0.16301       -2.51346
C          1.04199       -1.36458       -0.77160
C          0.08767       -1.21908       -3.11649
H          1.89642       -1.08582       -0.15900
H          0.13481       -0.92914       -0.35368
H          0.93034       -2.44549       -0.77698
H         -0.55592       -1.98834       -2.70409
H          0.48833       -1.54082       -4.07715
H         -0.49757       -0.32046       -3.29175
C         -8.37118        3.23593       -7.71354
O         -7.18085        3.28586       -7.91204
C         -8.96372        3.25441       -6.33165
C         -9.37378        3.12538       -8.83242
H         -9.43989        2.29477       -6.14007
H         -8.18758        3.41954       -5.58827
H         -9.72628        4.02533       -6.24152
H         -9.89145        2.16885       -8.76590
H         -8.87444        3.18922       -9.79581
H        -10.11021        3.92088       -8.75151
C         -9.94028        0.93364       -3.64634
O         -9.80513       -0.11881       -4.23143
C        -11.21907        1.72355       -3.70512
C         -8.86943        1.53025       -2.78122
H        -11.63412        1.80607       -2.70221
H        -11.01337        2.73045       -4.06145
H        -11.94174        1.24565       -4.36206
H         -8.97635        2.60769       -2.70744
H         -7.87415        1.27751       -3.13983
H         -8.97125        1.10783       -1.78154
