10
Glycine optimized structure (Conformer I, Neutral)
C        0.54512900     0.18029500    -0.00010900
C       -0.78189600    -0.56942000     0.00013300
O       -0.89311000    -1.77665700     0.00004900
O       -1.80287100     0.31688100     0.00010000
H       -2.62479200    -0.20790700     0.00040500
H        0.58983200     0.82583200     0.88755600
H        0.59013000     0.82563300    -0.88788400
N        1.70119800    -0.71358900    -0.00008500
H        2.56910600    -0.19154400    -0.00078000
H        1.71077800    -1.33230400     0.81267800
