      -----------------------------------------------------------      
     |                   =====================                   |     
     |                           x T B                           |     
     |                   =====================                   |     
     |                         S. Grimme                         |     
     |          Mulliken Center for Theoretical Chemistry        |     
     |                    University of Bonn                     |     
      -----------------------------------------------------------      

   * xtb version 6.7.1pre (5071a88) compiled by 'Marcel@Raven' on 2024-07-23

   xtb is free software: you can redistribute it and/or modify it under
   the terms of the GNU Lesser General Public License as published by
   the Free Software Foundation, either version 3 of the License, or
   (at your option) any later version.
   
   xtb is distributed in the hope that it will be useful,
   but WITHOUT ANY WARRANTY; without even the implied warranty of
   MERCHANTABILITY or FITNESS FOR A PARTICULAR PURPOSE.  See the
   GNU Lesser General Public License for more details.
   
   Cite this work as:
   * C. Bannwarth, E. Caldeweyher, S. Ehlert, A. Hansen, P. Pracht,
     J. Seibert, S. Spicher, S. Grimme, WIREs Comput. Mol. Sci., 2020, 11,
     e01493. DOI: 10.1002/wcms.1493
   
   for GFN2-xTB:
   * C. Bannwarth, S. Ehlert and S. Grimme., J. Chem. Theory Comput., 2019,
     15, 1652-1671. DOI: 10.1021/acs.jctc.8b01176
   for GFN1-xTB:
   * S. Grimme, C. Bannwarth, P. Shushkov, J. Chem. Theory Comput., 2017,
     13, 1989-2009. DOI: 10.1021/acs.jctc.7b00118
   for GFN0-xTB:
   * P. Pracht, E. Caldeweyher, S. Ehlert, S. Grimme, ChemRxiv, 2019, preprint.
     DOI: 10.26434/chemrxiv.8326202.v1
   for GFN-FF:
   * S. Spicher and S. Grimme, Angew. Chem. Int. Ed., 2020, 59, 15665-15673.
     DOI: 10.1002/anie.202004239
   
   for ALPB and GBSA implicit solvation:
   * S. Ehlert, M. Stahn, S. Spicher, S. Grimme, J. Chem. Theory Comput.,
     2021, 17, 4250-4261. DOI: 10.1021/acs.jctc.1c00471
   
   for ddCOSMO and CPCM-X implicit solvation:
   * M. Stahn, S. Ehlert, S. Grimme, J. Phys. Chem. A,
     2023, XX, XXXX-XXXX. DOI: 10.1021/acs.jpca.3c04382
   
   for DFT-D4:
   * E. Caldeweyher, C. Bannwarth and S. Grimme, J. Chem. Phys., 2017,
     147, 034112. DOI: 10.1063/1.4993215
   * E. Caldeweyher, S. Ehlert, A. Hansen, H. Neugebauer, S. Spicher,
     C. Bannwarth and S. Grimme, J. Chem. Phys., 2019, 150, 154122.
     DOI: 10.1063/1.5090222
   * E. Caldeweyher, J.-M. Mewes, S. Ehlert and S. Grimme, Phys. Chem. Chem. Phys.
     2020, 22, 8499-8512. DOI: 10.1039/D0CP00502A
   
   for sTDA-xTB:
   * S. Grimme and C. Bannwarth, J. Chem. Phys., 2016, 145, 054103.
     DOI: 10.1063/1.4959605
   
   in the mass-spec context:
   * V. Asgeirsson, C. Bauer and S. Grimme, Chem. Sci., 2017, 8, 4879.
     DOI: 10.1039/c7sc00601b
   * J. Koopman and S. Grimme, ACS Omega 2019, 4, 12, 15120-15133.
     DOI: 10.1021/acsomega.9b02011
   
   for metadynamics refer to:
   * S. Grimme, J. Chem. Theory Comput., 2019, 155, 2847-2862
     DOI: 10.1021/acs.jctc.9b00143
   
   for SPH calculations refer to:
   * S. Spicher and S. Grimme, J. Chem. Theory Comput., 2021, 17, 1701-1714
     DOI: 10.1021/acs.jctc.0c01306
   
   for ONIOM refer to:
   * C. Plett, A. Katbashev, S. Ehlert, S. Grimme, M. Bursch,
     Phys. Chem. Chem. Phys., 2023, 25, 17860-17868. DOI: 10.1039/D3CP02178E
   
   for DIPRO refer to:
   * J. Kohn, N. Gildemeister, S. Grimme, D. Fazzi, A. Hansen,
     J. Chem. Phys., 2023, just accepted.
   
   for PTB refer to:
   * S. Grimme, M. Mueller, A. Hansen, J. Chem. Phys., 2023, 158, 124111.
     DOI: 10.1063/5.0137838
   
   with help from (in alphabetical order)
   P. Atkinson, C. Bannwarth, F. Bohle, G. Brandenburg, E. Caldeweyher
   M. Checinski, S. Dohm, S. Ehlert, S. Ehrlich, I. Gerasimov, C. Hölzer
   A. Katbashev, J. Kohn, J. Koopman, C. Lavigne, S. Lehtola, F. März, M. Müller,
   F. Musil, H. Neugebauer, J. Pisarek, C. Plett, P. Pracht, F. Pultar,
   J. Seibert, P. Shushkov, S. Spicher, M. Stahn, M. Steiner, T. Strunk,
   J. Stückrath, T. Rose, and J. Unsleber
   
 * started run on 2026/10/03 at 19:14:10.753     
   ID    Z sym.   atoms
    1    1 H      1, 3, 6, 11, 12, 17, 19, 22, 24, 26-30, 39, 40, 42, 43, 45,
                  46, 48, 49, 52, 56, 57, 61, 62, 64, 65, 67, 68, 70, 71, 74,
                  78, 79, 82, 84, 87, 92, 93, 98, 100, 103, 105, 107-111,
                  120, 121, 123, 124, 126, 127, 129, 130, 133, 137, 138, 141,
                  143, 146, 151, 152, 157, 159, 162, 164, 166-170
    2    6 C      2, 4, 5, 7-10, 13-16, 18, 20, 21, 23, 25, 38, 41, 44, 47,
                  50, 51, 53-55, 60, 63, 66, 69, 72, 73, 75-77, 83, 85, 86,
                  88-91, 94-97, 99, 101, 102, 104, 106, 119, 122, 125, 128,
                  131, 132, 134-136, 142, 144, 145, 147-150, 153-156, 158,
                  160, 161, 163, 165
    3    7 N      31-34, 58, 80, 112-115, 139, 171-174
    4    8 O      35-37, 59, 81, 116-118, 140, 175-177

           -------------------------------------------------
          |                Calculation Setup                |
           -------------------------------------------------

          program call               : C:\ORCA_6.1.1\xTB_bigstack\xtb.exe t_A_D3a_D2a.xyz -c 0 -u 0 -P 1 --acc 1.0 --namespace t_A_D3a_D2a
          calculation namespace      : t_A_D3a_D2a
          coordinate file            : t_A_D3a_D2a.xyz
          omp threads                :                     1


molecular fragmentation (1/2 indicates fragments):
111111111111111111111111111111111111111111111111111111111112222222222222
222222222222222222222222222222222222222222222222222222222222222222222222
222222222222222222222222222222222
# atoms in fragment 1/2:    59   118
 fragment masses (1/2) :      459.50      919.00
CMA distance (Bohr)    :   7.450
constraining FC (au)   :  0.0500

           -------------------------------------------------
          |                 G F N 2 - x T B                 |
           -------------------------------------------------

        Reference                      10.1021/acs.jctc.8b01176
      * Hamiltonian:
        H0-scaling (s, p, d)           1.850000    2.230000    2.230000
        zeta-weighting                 0.500000
      * Dispersion:
        s8                             2.700000
        a1                             0.520000
        a2                             5.000000
        s9                             5.000000
      * Repulsion:
        kExp                           1.500000    1.000000
        rExp                           1.000000
      * Coulomb:
        alpha                          2.000000
        third order                    shell-resolved
        anisotropic                    true
        a3                             3.000000
        a5                             4.000000
        cn-shift                       1.200000
        cn-exp                         4.000000
        max-rad                        5.000000


          ...................................................
          :                      SETUP                      :
          :.................................................:
          :  # basis functions                 483          :
          :  # atomic orbitals                 483          :
          :  # shells                          279          :
          :  # electrons                       522          :
          :  max. iterations                   250          :
          :  Hamiltonian                  GFN2-xTB          :
          :  restarted?                      false          :
          :  GBSA solvation                  false          :
          :  PC potential                    false          :
          :  electronic temp.          300.0000000     K    :
          :  accuracy                    1.0000000          :
          :  -> integral cutoff          0.2500000E+02      :
          :  -> integral neglect         0.1000000E-07      :
          :  -> SCF convergence          0.1000000E-05 Eh   :
          :  -> wf. convergence          0.1000000E-03 e    :
          :  Broyden damping             0.4000000          :
          :  net charge                          0          :
          :  unpaired electrons                  0          :
          ...................................................

 iter      E             dE          RMSdq      gap      omega  full diag
   1   -296.2542819 -0.296254E+03  0.412E+00    2.90       0.0  T
   2   -297.0237820 -0.769500E+00  0.241E+00    2.52       1.0  T
   3   -297.0934762 -0.696942E-01  0.129E+00    2.79       1.0  T
   4   -297.1056867 -0.122105E-01  0.427E-01    2.57       1.0  T
   5   -297.1267193 -0.210326E-01  0.915E-02    2.62       1.0  T
   6   -297.1269596 -0.240358E-03  0.520E-02    2.64       1.0  T
   7   -297.1271869 -0.227298E-03  0.215E-02    2.66       1.0  T
   8   -297.1271981 -0.111713E-04  0.818E-03    2.66       1.0  T
   9   -297.1272025 -0.442032E-05  0.372E-03    2.66       2.0  T
  10   -297.1272029 -0.339171E-06  0.152E-03    2.66       5.0  T
  11   -297.1272031 -0.218945E-06  0.545E-04    2.66      13.8  T
  12   -297.1272031 -0.158924E-07  0.261E-04    2.66      28.8  T

   *** convergence criteria satisfied after 12 iterations ***

         #    Occupation            Energy/Eh            Energy/eV
      -------------------------------------------------------------
         1        2.0000           -0.7251598             -19.7326
       ...           ...                  ...                  ...
       255        2.0000           -0.3797973             -10.3348
       256        2.0000           -0.3789368             -10.3114
       257        2.0000           -0.3755601             -10.2195
       258        2.0000           -0.3746984             -10.1961
       259        2.0000           -0.3738975             -10.1743
       260        2.0000           -0.3718714             -10.1191
       261        2.0000           -0.3713689             -10.1055 (HOMO)
       262                         -0.2737302              -7.4486 (LUMO)
       263                         -0.2671532              -7.2696
       264                         -0.2576816              -7.0119
       265                         -0.2452583              -6.6738
       266                         -0.2403379              -6.5399
       ...                                ...                  ...
       483                          0.8831683              24.0322
      -------------------------------------------------------------
                  HL-Gap            0.0976387 Eh            2.6569 eV
             Fermi-level           -0.3225495 Eh           -8.7770 eV

 SCC (total)                   0 d,  0 h,  0 min,  1.022 sec
 SCC setup                      ...        0 min,  0.003 sec (  0.294%)
 Dispersion                     ...        0 min,  0.006 sec (  0.587%)
 classical contributions        ...        0 min,  0.002 sec (  0.196%)
 integral evaluation            ...        0 min,  0.076 sec (  7.436%)
 iterations                     ...        0 min,  0.567 sec ( 55.479%)
 molecular gradient             ...        0 min,  0.362 sec ( 35.421%)
 printout                       ...        0 min,  0.006 sec (  0.587%)

         :::::::::::::::::::::::::::::::::::::::::::::::::::::
         ::                     SUMMARY                     ::
         :::::::::::::::::::::::::::::::::::::::::::::::::::::
         :: total energy            -290.542653205529 Eh    ::
         :: gradient norm              1.614605816142 Eh/a0 ::
         :: HOMO-LUMO gap              2.656885210795 eV    ::
         ::.................................................::
         :: SCC energy              -297.116859816068 Eh    ::
         :: -> isotropic ES            0.441972902104 Eh    ::
         :: -> anisotropic ES          0.002875150386 Eh    ::
         :: -> anisotropic XC          0.055361773227 Eh    ::
         :: -> dispersion             -0.250333735934 Eh    ::
         :: repulsion energy           6.574206610540 Eh    ::
         :: add. restraining           0.000000000000 Eh    ::
         :: total charge               0.000000000000 e     ::
         :::::::::::::::::::::::::::::::::::::::::::::::::::::

           -------------------------------------------------
          |                Property Printout                |
           -------------------------------------------------

    * Orbital Energies and Occupations

         #    Occupation            Energy/Eh            Energy/eV
      -------------------------------------------------------------
         1        2.0000           -0.7251598             -19.7326
       ...           ...                  ...                  ...
       249        2.0000           -0.3888889             -10.5822
       250        2.0000           -0.3863461             -10.5130
       251        2.0000           -0.3860773             -10.5057
       252        2.0000           -0.3859545             -10.5024
       253        2.0000           -0.3820708             -10.3967
       254        2.0000           -0.3812973             -10.3756
       255        2.0000           -0.3797973             -10.3348
       256        2.0000           -0.3789368             -10.3114
       257        2.0000           -0.3755601             -10.2195
       258        2.0000           -0.3746984             -10.1961
       259        2.0000           -0.3738975             -10.1743
       260        2.0000           -0.3718714             -10.1191
       261        2.0000           -0.3713689             -10.1055 (HOMO)
       262                         -0.2737302              -7.4486 (LUMO)
       263                         -0.2671532              -7.2696
       264                         -0.2576816              -7.0119
       265                         -0.2452583              -6.6738
       266                         -0.2403379              -6.5399
       267                         -0.2363819              -6.4323
       268                         -0.2330366              -6.3412
       269                         -0.2276296              -6.1941
       270                         -0.2265431              -6.1646
       271                         -0.2263796              -6.1601
       272                         -0.2263425              -6.1591
       ...                                ...                  ...
       483                          0.8831683              24.0322
      -------------------------------------------------------------
                  HL-Gap            0.0976387 Eh            2.6569 eV
             Fermi-level           -0.3225495 Eh           -8.7770 eV

     #   Z          covCN         q      C6AA      α(0)
     1   1 H        0.930     0.070     2.088     2.259
     2   6 C        2.936    -0.042    29.054     8.840
     3   1 H        0.930     0.092     1.857     2.131
     4   6 C        2.928     0.070    26.433     8.431
     5   6 C        3.764    -0.011    20.807     6.502
     6   1 H        0.930     0.059     2.206     2.322
     7   6 C        2.767     0.276    22.333     7.739
     8   6 C        3.096    -0.001    27.943     8.664
     9   6 C        3.070    -0.020    28.445     8.745
    10   6 C        3.821    -0.083    22.064     6.685
    11   1 H        0.930     0.073     2.047     2.237
    12   1 H        0.930     0.081     1.968     2.194
    13   6 C        3.172     0.019    27.200     8.519
    14   6 C        2.748     0.274    22.358     7.742
    15   6 C        2.920     0.043    27.030     8.526
    16   6 C        2.934    -0.042    29.056     8.840
    17   1 H        0.930     0.092     1.855     2.130
    18   6 C        2.932    -0.078    29.942     8.974
    19   1 H        0.930     0.070     2.082     2.256
    20   6 C        2.878     0.144    24.869     8.175
    21   6 C        2.936    -0.069    29.711     8.939
    22   1 H        0.930     0.076     2.016     2.220
    23   6 C        2.932    -0.049    29.221     8.865
    24   1 H        0.930     0.076     2.023     2.224
    25   6 C        3.664     0.013    20.627     6.514
    26   1 H        0.930     0.072     2.063     2.246
    27   1 H        0.930     0.060     2.196     2.317
    28   1 H        0.930     0.056     2.244     2.342
    29   1 H        0.862     0.204     1.083     1.630
    30   1 H        0.863     0.212     1.046     1.602
    31   7 N        2.745    -0.112    23.439     7.190
    32   7 N        3.019     0.091    19.664     6.586
    33   7 N        1.991    -0.252    27.360     7.758
    34   7 N        2.645    -0.287    27.415     7.776
    35   8 O        0.858    -0.442    22.531     6.364
    36   8 O        0.860    -0.456    22.828     6.406
    37   8 O        1.705    -0.282    18.687     5.836
    38   6 C        3.762    -0.007    20.754     6.494
    39   1 H        0.930     0.054     2.268     2.355
    40   1 H        0.930     0.068     2.109     2.271
    41   6 C        3.827    -0.082    22.040     6.680
    42   1 H        0.930     0.058     2.218     2.329
    43   1 H        0.930     0.060     2.194     2.316
    44   6 C        3.825    -0.080    21.999     6.674
    45   1 H        0.930     0.052     2.296     2.370
    46   1 H        0.930     0.050     2.325     2.384
    47   6 C        3.826    -0.103    22.444     6.741
    48   1 H        0.930     0.069     2.096     2.264
    49   1 H        0.930     0.072     2.062     2.245
    50   6 C        2.766     0.267    22.486     7.766
    51   6 C        2.935    -0.055    29.376     8.889
    52   1 H        0.930     0.062     2.175     2.306
    53   6 C        2.930     0.066    26.517     8.445
    54   6 C        2.938    -0.045    29.118     8.850
    55   6 C        2.935    -0.056    29.394     8.892
    56   1 H        0.930     0.077     2.006     2.215
    57   1 H        0.930     0.070     2.086     2.258
    58   7 N        2.739    -0.112    23.439     7.191
    59   8 O        0.859    -0.485    23.457     6.494
    60   6 C        3.762    -0.011    20.820     6.504
    61   1 H        0.930     0.059     2.214     2.327
    62   1 H        0.930     0.062     2.170     2.303
    63   6 C        3.827    -0.083    22.065     6.684
    64   1 H        0.930     0.055     2.254     2.348
    65   1 H        0.930     0.058     2.220     2.330
    66   6 C        3.825    -0.079    21.991     6.673
    67   1 H        0.930     0.052     2.291     2.367
    68   1 H        0.930     0.051     2.308     2.376
    69   6 C        3.826    -0.103    22.446     6.742
    70   1 H        0.930     0.069     2.101     2.266
    71   1 H        0.930     0.073     2.057     2.243
    72   6 C        2.766     0.267    22.496     7.768
    73   6 C        2.935    -0.059    29.463     8.902
    74   1 H        0.930     0.062     2.174     2.306
    75   6 C        2.930     0.065    26.551     8.450
    76   6 C        2.938    -0.044    29.089     8.846
    77   6 C        2.935    -0.058    29.447     8.900
    78   1 H        0.930     0.068     2.109     2.271
    79   1 H        0.930     0.066     2.132     2.283
    80   7 N        2.739    -0.111    23.422     7.188
    81   8 O        0.859    -0.482    23.394     6.485
    82   1 H        0.930     0.070     2.089     2.260
    83   6 C        2.936    -0.040    28.992     8.831
    84   1 H        0.930     0.095     1.831     2.116
    85   6 C        2.928     0.074    26.348     8.418
    86   6 C        3.764    -0.010    20.798     6.500
    87   1 H        0.930     0.059     2.205     2.322
    88   6 C        2.767     0.277    22.315     7.736
    89   6 C        3.096    -0.001    27.940     8.663
    90   6 C        3.070    -0.018    28.388     8.736
    91   6 C        3.821    -0.082    22.055     6.683
    92   1 H        0.930     0.075     2.032     2.229
    93   1 H        0.930     0.081     1.968     2.194
    94   6 C        3.172     0.023    27.113     8.506
    95   6 C        2.748     0.277    22.316     7.735
    96   6 C        2.920     0.045    26.997     8.521
    97   6 C        2.934    -0.043    29.062     8.841
    98   1 H        0.930     0.092     1.860     2.132
    99   6 C        2.932    -0.078    29.958     8.976
   100   1 H        0.930     0.069     2.093     2.262
   101   6 C        2.878     0.143    24.893     8.179
   102   6 C        2.936    -0.069    29.728     8.942
   103   1 H        0.930     0.075     2.028     2.227
   104   6 C        2.932    -0.049    29.205     8.863
   105   1 H        0.930     0.077     2.011     2.217
   106   6 C        3.664     0.013    20.620     6.513
   107   1 H        0.930     0.071     2.076     2.253
   108   1 H        0.930     0.059     2.207     2.323
   109   1 H        0.930     0.056     2.245     2.343
   110   1 H        0.862     0.204     1.086     1.632
   111   1 H        0.863     0.211     1.052     1.607
   112   7 N        2.745    -0.115    23.497     7.199
   113   7 N        3.019     0.092    19.651     6.584
   114   7 N        1.991    -0.247    27.250     7.742
   115   7 N        2.645    -0.286    27.375     7.771
   116   8 O        0.858    -0.438    22.449     6.353
   117   8 O        0.860    -0.452    22.749     6.395
   118   8 O        1.705    -0.284    18.718     5.841
   119   6 C        3.762    -0.007    20.752     6.494
   120   1 H        0.930     0.054     2.272     2.357
   121   1 H        0.930     0.066     2.128     2.281
   122   6 C        3.827    -0.081    22.030     6.679
   123   1 H        0.930     0.058     2.228     2.334
   124   1 H        0.930     0.059     2.206     2.322
   125   6 C        3.825    -0.080    22.004     6.675
   126   1 H        0.930     0.051     2.306     2.375
   127   1 H        0.930     0.049     2.327     2.385
   128   6 C        3.826    -0.106    22.510     6.751
   129   1 H        0.930     0.073     2.052     2.240
   130   1 H        0.930     0.075     2.033     2.230
   131   6 C        2.766     0.268    22.474     7.764
   132   6 C        2.935    -0.052    29.294     8.877
   133   1 H        0.930     0.066     2.128     2.281
   134   6 C        2.930     0.070    26.425     8.430
   135   6 C        2.938    -0.044    29.084     8.845
   136   6 C        2.935    -0.054    29.339     8.883
   137   1 H        0.930     0.080     1.975     2.197
   138   1 H        0.930     0.075     2.034     2.230
   139   7 N        2.739    -0.113    23.473     7.196
   140   8 O        0.859    -0.471    23.142     6.450
   141   1 H        0.930     0.074     2.036     2.231
   142   6 C        2.936    -0.046    29.142     8.853
   143   1 H        0.930     0.070     2.089     2.260
   144   6 C        2.928     0.067    26.510     8.444
   145   6 C        3.764    -0.013    20.855     6.509
   146   1 H        0.930     0.059     2.207     2.323
   147   6 C        2.767     0.268    22.478     7.765
   148   6 C        3.096    -0.008    28.111     8.690
   149   6 C        3.070    -0.017    28.373     8.734
   150   6 C        3.821    -0.083    22.073     6.686
   151   1 H        0.930     0.077     2.012     2.218
   152   1 H        0.930     0.085     1.929     2.172
   153   6 C        3.172     0.022    27.129     8.508
   154   6 C        2.748     0.275    22.343     7.740
   155   6 C        2.920     0.045    26.992     8.520
   156   6 C        2.934    -0.041    29.019     8.835
   157   1 H        0.930     0.072     2.065     2.247
   158   6 C        2.932    -0.078    29.941     8.974
   159   1 H        0.930     0.070     2.085     2.258
   160   6 C        2.878     0.145    24.840     8.170
   161   6 C        2.936    -0.067    29.667     8.933
   162   1 H        0.930     0.079     1.994     2.208
   163   6 C        2.932    -0.047    29.179     8.859
   164   1 H        0.930     0.078     2.001     2.212
   165   6 C        3.664     0.012    20.636     6.516
   166   1 H        0.930     0.073     2.047     2.237
   167   1 H        0.930     0.060     2.196     2.317
   168   1 H        0.930     0.057     2.231     2.335
   169   1 H        0.862     0.206     1.076     1.624
   170   1 H        0.863     0.213     1.043     1.599
   171   7 N        2.745    -0.116    23.520     7.203
   172   7 N        3.019     0.088    19.719     6.595
   173   7 N        1.991    -0.247    27.241     7.741
   174   7 N        2.645    -0.286    27.375     7.771
   175   8 O        0.858    -0.448    22.669     6.384
   176   8 O        0.860    -0.453    22.759     6.396
   177   8 O        1.705    -0.280    18.648     5.830

 Mol. C6AA /au·bohr⁶  :     376898.588083
 Mol. C8AA /au·bohr⁸  :    9002296.609569
 Mol. α(0) /au        :        951.532770


Wiberg/Mayer (AO) data.
largest (>0.10) Wiberg bond orders for each atom

 ---------------------------------------------------------------------------
     #   Z sym  total        # sym  WBO       # sym  WBO       # sym  WBO
 ---------------------------------------------------------------------------
     1   1 H    0.995 --    54 C    0.974
     2   6 C    3.989 --    54 C    1.439     4 C    1.404     3 H    0.968
                            51 C    0.110
     3   1 H    0.991 --     2 C    0.968
     4   6 C    3.964 --     2 C    1.404    55 C    1.403    31 N    0.995
     5   6 C    3.969 --    10 C    0.998     6 H    0.974    57 H    0.974
                            31 N    0.963
     6   1 H    0.996 --     5 C    0.974
     7   6 C    3.958 --    35 O    1.655    31 N    1.208     8 C    1.006
     8   6 C    3.955 --     9 C    1.432    32 N    1.227     7 C    1.006
                            33 N    0.133
     9   6 C    3.981 --     8 C    1.432    13 C    1.322    10 C    1.012
    10   6 C    3.990 --     9 C    1.012     5 C    0.998    12 H    0.964
                            11 H    0.961
    11   1 H    0.994 --    10 C    0.961
    12   1 H    0.993 --    10 C    0.964
    13   6 C    3.967 --    33 N    1.418     9 C    1.322    14 C    1.004
    14   6 C    3.950 --    36 O    1.654    34 N    1.250    13 C    1.004
    15   6 C    3.954 --    16 C    1.400    23 C    1.372    32 N    1.003
    16   6 C    3.987 --    18 C    1.436    15 C    1.400    17 H    0.967
                            21 C    0.108
    17   1 H    0.991 --    16 C    0.967
    18   6 C    3.991 --    16 C    1.436    20 C    1.380    19 H    0.970
    19   1 H    0.995 --    18 C    0.970
    20   6 C    3.932 --    18 C    1.380    21 C    1.344    37 O    1.069
    21   6 C    3.991 --    23 C    1.475    20 C    1.344    22 H    0.973
                            16 C    0.108
    22   1 H    0.994 --    21 C    0.973
    23   6 C    3.990 --    21 C    1.475    15 C    1.372    24 H    0.973
    24   1 H    0.994 --    23 C    0.973
    25   6 C    3.936 --    28 H    0.981    27 H    0.981    26 H    0.980
                            37 O    0.967
    26   1 H    0.994 --    25 C    0.980
    27   1 H    0.996 --    25 C    0.981
    28   1 H    0.997 --    25 C    0.981
    29   1 H    0.958 --    34 N    0.942
    30   1 H    0.955 --    34 N    0.942
    31   7 N    3.479 --     7 C    1.208     4 C    0.995     5 C    0.963
                            35 O    0.190
    32   7 N    3.694 --     8 C    1.227    33 N    1.219    15 C    1.003
    33   7 N    2.960 --    13 C    1.418    32 N    1.219     8 C    0.133
    34   7 N    3.366 --    14 C    1.250    29 H    0.942    30 H    0.942
                            36 O    0.190
    35   8 O    2.001 --     7 C    1.655    31 N    0.190
    36   8 O    1.966 --    14 C    1.654    34 N    0.190
    37   8 O    2.205 --    20 C    1.069    25 C    0.967
    38   6 C    3.968 --    41 C    1.007    40 H    0.972    39 H    0.971
                            58 N    0.959
    39   1 H    0.997 --    38 C    0.971
    40   1 H    0.995 --    38 C    0.972
    41   6 C    3.991 --    38 C    1.007    44 C    1.007    42 H    0.979
                            43 H    0.970
    42   1 H    0.997 --    41 C    0.979
    43   1 H    0.996 --    41 C    0.970
    44   6 C    3.994 --    41 C    1.007    47 C    1.001    46 H    0.981
                            45 H    0.977
    45   1 H    0.997 --    44 C    0.977
    46   1 H    0.998 --    44 C    0.981
    47   6 C    3.991 --    44 C    1.001    50 C    0.977    49 H    0.963
                            48 H    0.955
    48   1 H    0.995 --    47 C    0.955
    49   1 H    0.995 --    47 C    0.963
    50   6 C    3.951 --    59 O    1.636    58 N    1.255    47 C    0.977
    51   6 C    3.994 --    55 C    1.441    53 C    1.406    52 H    0.974
                             2 C    0.110
    52   1 H    0.996 --    51 C    0.974
    53   6 C    3.966 --    54 C    1.406    51 C    1.406    58 N    0.988
    54   6 C    3.994 --     2 C    1.439    53 C    1.406     1 H    0.974
                            55 C    0.110
    55   6 C    3.992 --    51 C    1.441     4 C    1.403    56 H    0.971
                            54 C    0.110
    56   1 H    0.994 --    55 C    0.971
    57   1 H    0.995 --     5 C    0.974
    58   7 N    3.492 --    50 C    1.255    53 C    0.988    38 C    0.959
                            59 O    0.191
    59   8 O    1.951 --    50 C    1.636    58 N    0.191
    60   6 C    3.970 --    63 C    1.007    62 H    0.973    61 H    0.972
                            80 N    0.961
    61   1 H    0.997 --    60 C    0.972
    62   1 H    0.996 --    60 C    0.973
    63   6 C    3.992 --    60 C    1.007    66 C    1.006    64 H    0.979
                            65 H    0.971
    64   1 H    0.997 --    63 C    0.979
    65   1 H    0.996 --    63 C    0.971
    66   6 C    3.994 --    63 C    1.006    69 C    1.002    68 H    0.981
                            67 H    0.977
    67   1 H    0.997 --    66 C    0.977
    68   1 H    0.997 --    66 C    0.981
    69   6 C    3.991 --    66 C    1.002    72 C    0.976    71 H    0.963
                            70 H    0.955
    70   1 H    0.995 --    69 C    0.955
    71   1 H    0.995 --    69 C    0.963
    72   6 C    3.951 --    81 O    1.638    80 N    1.254    69 C    0.976
    73   6 C    3.994 --    77 C    1.441    75 C    1.406    74 H    0.975
                            83 C    0.110
    74   1 H    0.996 --    73 C    0.975
    75   6 C    3.965 --    76 C    1.406    73 C    1.406    80 N    0.985
    76   6 C    3.994 --    83 C    1.440    75 C    1.406    82 H    0.974
                            77 C    0.109
    77   6 C    3.993 --    73 C    1.441    85 C    1.402    78 H    0.974
                            76 C    0.109
    78   1 H    0.995 --    77 C    0.974
    79   1 H    0.995 --    86 C    0.975
    80   7 N    3.491 --    72 C    1.254    75 C    0.985    60 C    0.961
                            81 O    0.191
    81   8 O    1.954 --    72 C    1.638    80 N    0.191
    82   1 H    0.995 --    76 C    0.974
    83   6 C    3.988 --    76 C    1.440    85 C    1.402    84 H    0.968
                            73 C    0.110
    84   1 H    0.991 --    83 C    0.968
    85   6 C    3.967 --    83 C    1.402    77 C    1.402   112 N    1.000
    86   6 C    3.969 --    91 C    0.998    79 H    0.975    87 H    0.974
                           112 N    0.962
    87   1 H    0.996 --    86 C    0.974
    88   6 C    3.957 --   116 O    1.663   112 N    1.198    89 C    1.008
    89   6 C    3.955 --    90 C    1.432   113 N    1.225    88 C    1.008
                           114 N    0.134
    90   6 C    3.980 --    89 C    1.432    94 C    1.322    91 C    1.011
    91   6 C    3.990 --    90 C    1.011    86 C    0.998    93 H    0.964
                            92 H    0.961
    92   1 H    0.994 --    91 C    0.961
    93   1 H    0.993 --    91 C    0.964
    94   6 C    3.967 --   114 N    1.422    90 C    1.322    95 C    1.002
    95   6 C    3.951 --   117 O    1.658   115 N    1.249    94 C    1.002
    96   6 C    3.955 --    97 C    1.401   104 C    1.373   113 N    1.004
    97   6 C    3.987 --    99 C    1.435    96 C    1.401    98 H    0.967
                           102 C    0.108
    98   1 H    0.992 --    97 C    0.967
    99   6 C    3.991 --    97 C    1.435   101 C    1.381   100 H    0.971
                           104 C    0.100
   100   1 H    0.995 --    99 C    0.971
   101   6 C    3.932 --    99 C    1.381   102 C    1.345   118 O    1.066
   102   6 C    3.991 --   104 C    1.475   101 C    1.345   103 H    0.973
                            97 C    0.108
   103   1 H    0.994 --   102 C    0.973
   104   6 C    3.990 --   102 C    1.475    96 C    1.373   105 H    0.972
                            99 C    0.100
   105   1 H    0.994 --   104 C    0.972
   106   6 C    3.937 --   109 H    0.981   108 H    0.981   107 H    0.980
                           118 O    0.967
   107   1 H    0.995 --   106 C    0.980
   108   1 H    0.996 --   106 C    0.981
   109   1 H    0.997 --   106 C    0.981
   110   1 H    0.958 --   115 N    0.942
   111   1 H    0.956 --   115 N    0.942
   112   7 N    3.470 --    88 C    1.198    85 C    1.000    86 C    0.962
                           116 O    0.186
   113   7 N    3.694 --    89 C    1.225   114 N    1.219    96 C    1.004
   114   7 N    2.962 --    94 C    1.422   113 N    1.219    89 C    0.134
   115   7 N    3.366 --    95 C    1.249   111 H    0.942   110 H    0.942
                           117 O    0.191
   116   8 O    2.006 --    88 C    1.663   112 N    0.186
   117   8 O    1.970 --    95 C    1.658   115 N    0.191
   118   8 O    2.202 --   101 C    1.066   106 C    0.967
   119   6 C    3.968 --   122 C    1.007   121 H    0.972   120 H    0.971
                           139 N    0.958
   120   1 H    0.997 --   119 C    0.971
   121   1 H    0.996 --   119 C    0.972
   122   6 C    3.991 --   119 C    1.007   125 C    1.006   123 H    0.979
                           124 H    0.970
   123   1 H    0.997 --   122 C    0.979
   124   1 H    0.996 --   122 C    0.970
   125   6 C    3.994 --   122 C    1.006   128 C    1.002   127 H    0.981
                           126 H    0.977
   126   1 H    0.997 --   125 C    0.977
   127   1 H    0.998 --   125 C    0.981
   128   6 C    3.991 --   125 C    1.002   131 C    0.976   130 H    0.964
                           129 H    0.955
   129   1 H    0.994 --   128 C    0.955
   130   1 H    0.994 --   128 C    0.964
   131   6 C    3.951 --   140 O    1.655   139 N    1.241   128 C    0.976
   132   6 C    3.994 --   136 C    1.441   134 C    1.406   133 H    0.974
                           142 C    0.109
   133   1 H    0.995 --   132 C    0.974
   134   6 C    3.969 --   132 C    1.406   135 C    1.405   139 N    0.992
   135   6 C    3.993 --   142 C    1.440   134 C    1.405   141 H    0.973
                           136 C    0.111
   136   6 C    3.991 --   132 C    1.441   144 C    1.402   137 H    0.971
                           135 C    0.111
   137   1 H    0.993 --   136 C    0.971
   138   1 H    0.994 --   145 C    0.973
   139   7 N    3.483 --   131 C    1.241   134 C    0.992   119 C    0.958
                           140 O    0.190
   140   8 O    1.964 --   131 C    1.655   139 N    0.190
   141   1 H    0.994 --   135 C    0.973
   142   6 C    3.992 --   135 C    1.440   144 C    1.404   143 H    0.973
                           132 C    0.109
   143   1 H    0.995 --   142 C    0.973
   144   6 C    3.963 --   142 C    1.404   136 C    1.402   171 N    0.993
   145   6 C    3.967 --   150 C    0.998   146 H    0.974   138 H    0.973
                           171 N    0.962
   146   1 H    0.996 --   145 C    0.974
   147   6 C    3.958 --   175 O    1.646   171 N    1.212   148 C    1.008
   148   6 C    3.953 --   149 C    1.430   172 N    1.221   147 C    1.008
                           173 N    0.134
   149   6 C    3.981 --   148 C    1.430   153 C    1.322   150 C    1.013
   150   6 C    3.989 --   149 C    1.013   145 C    0.998   152 H    0.962
                           151 H    0.960
   151   1 H    0.994 --   150 C    0.960
   152   1 H    0.992 --   150 C    0.962
   153   6 C    3.968 --   173 N    1.422   149 C    1.322   154 C    1.002
   154   6 C    3.951 --   176 O    1.656   174 N    1.252   153 C    1.002
   155   6 C    3.955 --   156 C    1.401   163 C    1.372   172 N    1.004
   156   6 C    3.991 --   158 C    1.436   155 C    1.401   157 H    0.973
                           161 C    0.108
   157   1 H    0.995 --   156 C    0.973
   158   6 C    3.991 --   156 C    1.436   160 C    1.379   159 H    0.971
   159   1 H    0.995 --   158 C    0.971
   160   6 C    3.933 --   158 C    1.379   161 C    1.344   177 O    1.072
   161   6 C    3.991 --   163 C    1.476   160 C    1.344   162 H    0.972
                           156 C    0.108
   162   1 H    0.993 --   161 C    0.972
   163   6 C    3.990 --   161 C    1.476   155 C    1.372   164 H    0.972
   164   1 H    0.993 --   163 C    0.972
   165   6 C    3.935 --   168 H    0.981   167 H    0.981   166 H    0.979
                           177 O    0.966
   166   1 H    0.994 --   165 C    0.979
   167   1 H    0.996 --   165 C    0.981
   168   1 H    0.996 --   165 C    0.981
   169   1 H    0.957 --   174 N    0.941
   170   1 H    0.955 --   174 N    0.941
   171   7 N    3.482 --   147 C    1.212   144 C    0.993   145 C    0.962
                           175 O    0.193
   172   7 N    3.691 --   148 C    1.221   173 N    1.219   155 C    1.004
   173   7 N    2.963 --   153 C    1.422   172 N    1.219   148 C    0.134
   174   7 N    3.369 --   154 C    1.252   170 H    0.941   169 H    0.941
                           176 O    0.192
   175   8 O    1.995 --   147 C    1.646   171 N    0.193
   176   8 O    1.969 --   154 C    1.656   174 N    0.192
   177   8 O    2.209 --   160 C    1.072   165 C    0.966
 ---------------------------------------------------------------------------

Topologies differ in total number of bonds
Writing topology from bond orders to xtbtopo.mol

molecular dipole:
                 x           y           z       tot (Debye)
 q only:       -0.301       0.396       1.517
   full:       -0.492       0.110       1.710       4.531
molecular quadrupole (traceless):
                xx          xy          yy          xz          yz          zz
 q only:     -251.712     -68.265      14.083      78.975     164.488     237.629
  q+dip:     -256.812    -124.153     -47.200      68.681     150.325     304.012
   full:     -252.165    -123.653     -53.161      76.231     152.304     305.326


           -------------------------------------------------
          | TOTAL ENERGY             -290.542653205529 Eh   |
          | GRADIENT NORM               1.614605816142 Eh/α |
          | HOMO-LUMO GAP               2.656885210795 eV   |
           -------------------------------------------------

------------------------------------------------------------------------
 * finished run on 2026/10/03 at 19:14:11.931     
------------------------------------------------------------------------
 total:
 * wall-time:     0 d,  0 h,  0 min,  1.175 sec
 *  cpu-time:     0 d,  0 h,  0 min,  1.094 sec
 * ratio c/w:     0.931 speedup
 SCF:
 * wall-time:     0 d,  0 h,  0 min,  1.024 sec
 *  cpu-time:     0 d,  0 h,  0 min,  1.016 sec
 * ratio c/w:     0.992 speedup

normal termination of xtb
