
                                 *****************
                                 * O   R   C   A *
                                 *****************

                                            #,                                       
                                            ###                                      
                                            ####                                     
                                            #####                                    
                                            ######                                   
                                           ########,                                 
                                     ,,################,,,,,                         
                               ,,#################################,,                 
                          ,,##########################################,,             
                       ,#########################################, ''#####,          
                    ,#############################################,,   '####,        
                  ,##################################################,,,,####,       
                ,###########''''           ''''###############################       
              ,#####''   ,,,,##########,,,,          '''####'''          '####       
            ,##' ,,,,###########################,,,                        '##       
           ' ,,###''''                  '''############,,,                           
         ,,##''                                '''############,,,,        ,,,,,,###''
      ,#''                                            '''#######################'''  
     '                                                          ''''####''''         
             ,#######,   #######,   ,#######,      ##                                
            ,#'     '#,  ##    ##  ,#'     '#,    #''#        ,####,    ,#,          
            ##       ##  ##   ,#'  ##            #'  '#       #'       ,# #          
            ##       ##  #######   ##           ,######,      #####,      #          
            '#,     ,#'  ##    ##  '#,     ,#' ,#      #,     #,   #      #          
             '#######'   ##     ##  '#######'  #'      '#     '####' #    #          



                #########################################################
                #                        -***-                          #
                #          Department of theory and spectroscopy        #
                #                                                       #
                #                      Frank Neese                      #
                #                                                       #
                #     Directorship, Architecture, Infrastructure        #
                #                    SHARK, DRIVERS                     #
                #        Core code/Algorithms in most modules           #
                #                                                       #
                #        Max Planck Institute fuer Kohlenforschung      #
                #                Kaiser Wilhelm Platz 1                 #
                #                 D-45470 Muelheim/Ruhr                 #
                #                      Germany                          #
                #                                                       #
                #                  All rights reserved                  #
                #                        -***-                          #
                #########################################################


                         Program Version 6.1.1  -  RELEASE   -


 With contributions from (in alphabetic order):
[Max-Planck-Institut fuer Kohlenforschung]                               
  Daniel Aravena         : Magnetic Suceptibility                        
  Michael Atanasov       : Ab Initio Ligand Field Theory (pilot matlab implementation)
  Alexander A. Auer      : GIAO ZORA, VPT2 properties, NMR spectrum      
  Ute Becker             : All parallelization in ORCA, NUMFREQ, NUMCALC 
  Giovanni Bistoni       : ED, misc. LED, open-shell LED, HFLD           
  Dmytro Bykov           : pre 5.0 version of the SCF Hessian            
  Marcos Casanova-Pﾃ｡ez   : Triplet and SCS-CIS(D). UHF-(DLPNO)-IP/EA/STEOM-CCSD. UHF-CVS-IP/STEOM-CCSD   
  Vijay G. Chilkuri      : MRCI spin determinant printing, contributions to CSF-ICE 
  Pauline Colinet        : FMM embedding                                 
  Dipayan Datta          : RHF DLPNO-CCSD density                        
  Achintya Kumar Dutta   : EOM-CC, STEOM-CC                              
  Nicolas Foglia         : Exact transition moments, OPA infrastructure, MCD improvements    
  Dmitry Ganyushin       : Spin-Orbit,Spin-Spin,Magnetic field MRCI      
  Miquel Garcia-Rates    : C-PCM and meta-GGA Hessian, CCSD/C-PCM, Gaussian charge scheme 
  Tiago L. C. Gouveia    : GS-ROHF, GS-ROCIS                             
  Yang Guo               : DLPNO-NEVPT2, F12-NEVPT2, CIM, IAO-localization        
  Andreas Hansen         : Spin unrestricted coupled pair/coupled cluster methods 
  Ingolf Harden          : AUTO-CI MPn and infrastructure                
  Benjamin Helmich-Paris : MC-RPA, TRAH-(SCF,CASSCF), AVAS, COSX integrals, SCF dyn. polar., MC-PDFT, srDFT 
  Lee Huntington         : MR-EOM, pCC                                   
  Robert Izsak           : Overlap fitted RIJCOSX, COSX-SCS-MP3, EOM     
  Riya Kayal             : Wick's Theorem for AUTO-CI, AUTO-CI UHF-CCSDT 
  Emily Kempfer          : AUTO-CI RHF CISDT and CCSDT, approximate NEVPT4
  Christian Kollmar      : KDIIS, OOCD, Brueckner-CCSD(T), CCSD density, CASPT2, CASPT2-K, improved NEVPT2 
  Axel Koslowski         : Symmetry handling                             
  Simone Kossmann        : meta-GGA functionals, TD-DFT gradient, OOMP2, (MP2 Hessian; deprecated post 5.0) 
  Lucas Lang             : DCDCAS, Hyperfine gauge corrections, ICE-SOC+SSC
  Marvin Lechner         : AUTO-CI (C++ implementation), FIC-MRCC        
  Spencer Leger          : CASSCF response                               
  Dagmar Lenk            : GEPOL surface, SMD, ORCA-2-JSON               
  Dimitrios Liakos       : Extrapolation schemes; Compound Job, Property file
  Dimitrios Manganas     : Further ROCIS development; embedding schemes. LFT, Crystal Embedding 
  Dimitrios Pantazis     : SARC Basis sets                               
  Anastasios Papadopoulos: AUTO-CI, single reference methods and gradients 
  Taras Petrenko         : pre 6.0 DFT Hessian and TD-DFT gradient,  ECA, NRVS 
  Petra Pikulova         : Analytic Raman intensities                    
  Peter Pinski           : DLPNO-MP2, DLPNO-MP2 Gradient                 
  Shashank Vittal Rao    : ES-AILFT, MagRelax                            
  Christoph Reimann      : Effective Core Potentials                     
  Marius Retegan         : Local ZFS, SOC                                
  Christoph Riplinger    : Optimizer, TS searches, QM/MM, DLPNO-CCSD(T), (RO)-DLPNO pert. Triples 
  Michael Roemelt        : Original ROCIS implementation, recursive CI coupling coefficients
  Masaaki Saitow         : Open-shell DLPNO-CCSD energy and density      
  Barbara Sandhoefer     : DKH picture change effects                    
  Yorick L. A. Schmerwitz: GMF and freeze-and-release deltaSCF, NEB S-IDPP initial path                    
  Kantharuban Sivalingam : CASSCF convergence/infrastructure, NEVPT2, NEVPT3, NEVPT4(SD), FIC-MRCI and CEPA variants
  Bernardo de Souza      : ESD, SOC TD-DFT                               
  Georgi L. Stoychev     : AutoAux, RI-MP2 NMR, DLPNO-MP2 response, X2C  
  Van Anh Tran           : RI-MP2 g-tensors                              
  Willem Van den Heuvel  : Paramagnetic NMR                              
  Zikuan Wang            : NOTCH, Electric field optimization            
  Frank Wennmohs         : Technical directorship and infrastructure     
  Hang Xu                : AUTO-CI-Response properties                   
                                                                         
[FACCTs GmbH]                                                            
  Markus Bursch, Nicolas Foglia, Miquel Garcia-Rates, Ingolf Harden, Hagen Neugebauer, Anastasios Papadopoulos, 
  Christoph Riplinger, Bernardo de Souza, Georgi L. Stoychev                                                    
                                                                 
  APM, various basis sets, CI-OPT, improved COSX, DLPNO-Multilevel,           
  DOCKER, DRACO, updates on ESD, Fragmentator, GOAT, IRC, LR-CPCM, L-BFGS, MBIS, meta-GGA TD-DFT gradient, ML-optimized integration grids, 
  MM, NACMEs, nearIR, NEB, NEB-TS, NL-DFT gradient (VV10), 2- and 3-layer-ONIOM, interface openCOSMO-RS, QMMM,   
  Crystal-QMMM, RESP, rigid body optimization, SF, symmetry and pop. for TD-DFT, various functionals, SOLVATOR                                   
                                                                         
[Other institutions]                                                     
  V. Asgeirsson          : NEB                                           
  Christoph Bannwarth    : sTDA-DFT, sTD-DFT, PBEh-3c, B97-3c, D3        
  Giovanni Bistoni       : ETS/NOCV, ADLD/ADEX, COVALED                  
  Martin Brehm           : Molecular dynamics                            
  Ronald Cardenas        : ETS/NOCV                                      
  Martina Colucci        : COVALED                                       
  Sebastian Ehlert       : rSCAN, r2SCAN, r2SCAN-3c, D4, dhf basis sets  
  Marvin Friede          : D4 for Fr, Ra, Ac-Lr                          
  Lars Goerigk           : TD-DFT with DH, B97 family of functionals     
  Stefan Grimme          : VdW corrections, initial TS optimization, DFT functionals, gCP, sTDA/sTD-DF 
  Waldemar Hujo          : DFT-NL                                        
  H. Jonsson             : NEB                                           
  Holger Kruse           : gCP                                           
  Marcel Mueller         : wB97X-3c, vDZP basis set                      
  Hagen Neugebauer       : wr2SCAN, Native XTB                           
  Gianluca Regni         : ADLD/ADEX                                     
  Tobias Risthaus        : pre 6.0 range-separated hybrid DFT and stability analysis
  Lukas Wittmann         : regularized MP2, r2SCAN double-hybrids, wr2SCAN        
                                                                         
We gratefully acknowledge several colleagues who have allowed us to      
interface, adapt or use parts of their codes:                            
  Ed Valeev, F. Pavosevic, A. Kumar             : LibInt (2-el integral package), F12 methods 
  Garnet Chan, S. Sharma, J. Yang, R. Olivares  : DMRG                   
  Ulf Ekstrom                                   : XCFun DFT Library      
  Mihaly Kallay                                 : mrcc  (arbitrary order and MRCC methods)
  Frank Weinhold                                : gennbo (NPA and NBO analysis)           
  Simon Mueller                                 : openCOSMO-RS                            
  Christopher J. Cramer and Donald G. Truhlar   : smd solvation model                     
  S Lehtola, MJT Oliveira, MAL Marques          : LibXC Library                           
  Liviu Ungur et al                             : ANISO software                          


 Your calculation uses the libint2 library for the computation of 2-el integrals
 For citations please refer to: http://libint.valeyev.net

 Your ORCA version has been built with support for libXC version: 7.0.0
 For citations please refer to: https://libxc.gitlab.io

 This ORCA versions uses:
   CBLAS   interface :  Fast vector & matrix operations
   LAPACKE interface :  Fast linear algebra routines
   Shared memory     :  Shared parallel matrices


  ***********************************
  * Starting time: Sat Sep  5 08:36:25 2026
  * Host name:     DESKTOP-2KDTO5M
  * Process ID:    10716
  * Working dir.:  C:\Users\naoki\Downloads\デスクトップ\data\Molecules\Calculations\Apixaban\Chloroform
  ***********************************

NOTE: MaxCore=2000 MB was set to SCF,MP2,MDCI,CIPSI,MRCI,RASCI and CIS
      => If you want to overwrite this, your respective input block should be placed after the MaxCore statement
Your calculation utilizes the geometrical counterpoise correction gCP
Please cite in your paper:
H.Kruse, S. Grimme J.Chem.Phys., 136, (2012), 154101 
   

Your calculation utilizes the atom-pairwise dispersion correction
based on EEQ partial charges (D4)


Your calculation utilizes the SMD solvation module
Please cite in your paper:
Marenich, A. V.; Cramer, C. J.; Truhlar, D. G. J. Phys. Chem. B 2009, 113, 6378 

================================================================================

----- Orbital basis set information -----
Your calculation utilizes the basis: def2-mTZVPP
   Stefan Grimme, Andreas Hansen, Sebastian Ehlert, and Jan-Michael Mewes 
   J. Chem. Phys. 154, 064103 (2021). DOI: 10.1063/5.0040021

----- AuxJ basis set information -----
Your calculation utilizes the basis: def2-mTZVPP/J
   Stefan Grimme, Andreas Hansen, Sebastian Ehlert, and Jan-Michael Mewes 
   J. Chem. Phys. 154, 000000 (2021). DOI: 10.1063/5.0040021

================================================================================
                                        WARNINGS
                       Please study these warnings very carefully!
================================================================================



WARNING: SCAN, rSCAN, or r2SCAN functional requested.
  ===> : libXC variant has now been activated.



WARNING: Geometry Optimization
  ===> : Switching off AutoStart
         For restart on a previous wavefunction, please use MOREAD

================================================================================
                                       INPUT FILE
================================================================================
NAME = Apixaban_SMD_chloroform_Opt_Freq_KeepDens.inp
|  1> # Apixaban: SMD(chloroform) Opt + Freq
|  2> # Purpose:
|  3> #   Continuum (SMD) geometry optimization + vibrational analysis of Apixaban
|  4> #   in chloroform, analogous to the water/DMSO/methanol SMD Opt calculations
|  5> #   already done (Apixaban/Water/Opt, Apixaban/DMSO/Opt, Apixaban/MeOH).
|  6> #   This is the first step for a new solvent - later an explicit-solvent
|  7> #   (Explicit4/Explicit10-style) comparison can follow the same pattern used
|  8> #   for the other three solvents.
|  9> #
| 10> # Starting geometry: Apixaban_SMD_dmso_Opt.xyz (r2SCAN-3c/SMD(DMSO)-optimized
| 11> #   Apixaban) - used only as a reasonable starting guess; chloroform's dielectric
| 12> #   constant (~4.8) is much lower than DMSO's, so the structure is expected to
| 13> #   relax somewhat differently.
| 14> 
| 15> ! r2SCAN-3c TightSCF Opt Freq KeepDens SMD(chloroform)
| 16> 
| 17> %pal
| 18>   nprocs 4
| 19> end
| 20> 
| 21> %maxcore 2000
| 22> 
| 23> * xyz 0 1
| 24> C     23.82104420   -17.58590701    -0.04724075
| 25> C     24.21868796   -18.52827684     1.08281723
| 26> C     25.51327425   -19.29487689     0.88998554
| 27> N     26.42250721   -18.80543668    -0.01781829
| 28> C     26.10452228   -17.73921892    -0.99738544
| 29> C     25.04267325   -16.78942789    -0.47890423
| 30> C     27.67965550   -19.45842669    -0.17891862
| 31> C     28.50978041   -19.67885119     0.92459771
| 32> C     29.74396518   -20.28739268     0.76385451
| 33> C     30.18109861   -20.67275960    -0.50764577
| 34> C     29.36072915   -20.44173212    -1.61108757
| 35> C     28.11445091   -19.84446773    -1.44583858
| 36> N     31.43703878   -21.32283555    -0.66504083
| 37> C     31.52856641   -22.41652137    -1.66467293
| 38> C     32.52477992   -23.49356257    -1.24840149
| 39> C     33.79690960   -22.82720653    -0.85972217
| 40> C     33.78268730   -21.53485691    -0.36667403
| 41> C     32.57649566   -20.71893321    -0.16574841
| 42> O     25.74376304   -20.29463490     1.57172735
| 43> O     32.57776639   -19.63197501     0.40841350
| 44> C     35.15317137   -23.19268546    -0.86380423
| 45> N     35.92010389   -22.18483468    -0.40797775
| 46> N     35.08238603   -21.18932899    -0.10045013
| 47> C     35.62048345   -19.97172896     0.42105068
| 48> C     35.74164234   -24.48419427    -1.29084569
| 49> N     37.09203510   -24.53450112    -1.30591344
| 50> O     35.01690810   -25.42996134    -1.61026864
| 51> C     35.28453835   -19.55200097     1.70690168
| 52> C     35.84575316   -18.39436378     2.21305661
| 53> C     36.75199169   -17.65180852     1.44117793
| 54> C     37.09440149   -18.08439751     0.15601657
| 55> C     36.52176015   -19.24953607    -0.34801109
| 56> O     37.24408941   -16.53398434     2.02966964
| 57> C     38.18897437   -15.75118690     1.28599357
| 58> H     23.44107239   -18.16232095    -0.90146632
| 59> H     23.01169442   -16.92620411     0.28501584
| 60> H     24.35869409   -17.95606885     2.01165937
| 61> H     23.44288104   -19.27154066     1.29182011
| 62> H     27.03723684   -17.20525364    -1.20862003
| 63> H     25.75988563   -18.19409353    -1.93739539
| 64> H     25.43612972   -16.21298014     0.36925696
| 65> H     24.79789388   -16.08034271    -1.27779144
| 66> H     28.18231506   -19.37714968     1.91339779
| 67> H     30.37443500   -20.46680070     1.62812528
| 68> H     29.68550437   -20.72475802    -2.60764156
| 69> H     27.48501316   -19.68316355    -2.31555659
| 70> H     30.53040666   -22.84823846    -1.76658707
| 71> H     31.82424598   -21.99849687    -2.63776961
| 72> H     32.13251672   -24.07788102    -0.40444953
| 73> H     32.67408174   -24.18652479    -2.08004397
| 74> H     37.64757424   -23.74814017    -1.00443811
| 75> H     37.55401902   -25.39808410    -1.54796195
| 76> H     34.59046029   -20.13258871     2.30515908
| 77> H     35.59953969   -18.05242431     3.21395199
| 78> H     37.79292616   -17.53106514    -0.46057689
| 79> H     36.77568117   -19.59066187    -1.34759858
| 80> H     37.74238910   -15.36235111     0.36272312
| 81> H     38.45971301   -14.91757087     1.93624518
| 82> H     39.08705571   -16.33448484     1.04865390
| 83> *
| 84> 
| 85>                          ****END OF INPUT****
================================================================================

                       *****************************
                       * Geometry Optimization Run *
                       *****************************

Geometry optimization settings:
Update method            Update   .... BFGS
Choice of coordinates    CoordSys .... (2022) Redundant Internals
Initial Hessian          InHess   .... Almloef's Model
Max. no of cycles        MaxIter  .... 177

Convergence Tolerances:
Energy Change            TolE     ....  5.0000e-06 Eh
Max. Gradient            TolMAXG  ....  3.0000e-04 Eh/bohr
RMS Gradient             TolRMSG  ....  1.0000e-04 Eh/bohr
Max. Displacement        TolMAXD  ....  4.0000e-03 bohr
RMS Displacement         TolRMSD  ....  2.0000e-03 bohr
Strict Convergence                .... False

------------------------------------------------------------------------------
                        ORCA OPTIMIZATION COORDINATE SETUP
------------------------------------------------------------------------------

The optimization will be done in redundant internal coordinates (2022)
Making redundant internal coordinates   ...  (2022 redundants) done
Evaluating the initial hessian          ...  (Almloef) done
Evaluating the coordinates              ...  done
Calculating the B-matrix                .... done
Calculating the G-matrix                .... done
The number of degrees of freedom        ....  319

    -----------------------------------------------------------------
                    Redundant Internal Coordinates


    -----------------------------------------------------------------
         Definition                    Initial Value    Approx d2E/dq
    -----------------------------------------------------------------
      1. B(C   1,C   0)                  1.5242         0.381608   
      2. B(C   2,C   1)                  1.5168         0.392074   
      3. B(N   3,C   2)                  1.3749         0.591505   
      4. B(C   4,N   3)                  1.4824         0.398538   
      5. B(C   5,C   4)                  1.5161         0.393199   
      6. B(C   5,C   0)                  1.5209         0.386296   
      7. B(C   6,N   3)                  1.4258         0.490720   
      8. B(C   7,C   6)                  1.3984         0.605874   
      9. B(C   8,C   7)                  1.3854         0.635411   
     10. B(C   9,C   8)                  1.3987         0.605187   
     11. B(C  10,C   9)                  1.3943         0.615093   
     12. B(C  11,C  10)                  1.3918         0.620569   
     13. B(C  11,C   6)                  1.3940         0.615743   
     14. B(N  12,C   9)                  1.4229         0.495818   
     15. B(C  13,N  12)                  1.4845         0.395439   
     16. B(C  14,C  13)                  1.5250         0.380447   
     17. B(C  15,C  14)                  1.4878         0.436291   
     18. B(C  16,C  15)                  1.3833         0.640410   
     19. B(C  17,C  16)                  1.4700         0.465639   
     20. B(C  17,N  12)                  1.3829         0.574430   
     21. B(O  18,C   2)                  1.2318         1.000508   
     22. B(O  19,C  17)                  1.2293         1.009918   
     23. B(C  20,C  15)                  1.4046         0.592063   
     24. B(N  21,C  20)                  1.3460         0.657762   
     25. B(N  22,N  21)                  1.3369         0.609096   
     26. B(N  22,C  16)                  1.3709         0.600180   
     27. B(C  23,N  22)                  1.4297         0.483644   
     28. B(C  24,C  20)                  1.4821         0.445429   
     29. B(N  25,C  24)                  1.3514         0.644819   
     30. B(O  26,C  24)                  1.2336         0.994069   
     31. B(C  27,C  23)                  1.3937         0.616326   
     32. B(C  28,C  27)                  1.3825         0.642274   
     33. B(C  29,C  28)                  1.4030         0.595625   
     34. B(C  30,C  29)                  1.3986         0.605417   
     35. B(C  31,C  30)                  1.3927         0.618714   
     36. B(C  31,C  23)                  1.3876         0.630426   
     37. B(O  32,C  29)                  1.3557         0.634666   
     38. B(C  33,O  32)                  1.4348         0.474690   
     39. B(H  34,C   0)                  1.0983         0.349245   
     40. B(H  35,C   0)                  1.0957         0.352584   
     41. B(H  36,C   1)                  1.0999         0.347244   
     42. B(H  37,C   1)                  1.0945         0.354155   
     43. B(H  38,C   4)                  1.0953         0.353149   
     44. B(H  39,C   4)                  1.0997         0.347515   
     45. B(H  40,C   5)                  1.0984         0.349161   
     46. B(H  41,C   5)                  1.0959         0.352413   
     47. B(H  42,C   7)                  1.0844         0.367548   
     48. B(H  43,C   8)                  1.0847         0.367137   
     49. B(H  44,C  10)                  1.0857         0.365860   
     50. B(H  45,C  11)                  1.0856         0.365910   
     51. B(H  46,C  13)                  1.0923         0.357088   
     52. B(H  47,C  13)                  1.0996         0.347640   
     53. B(H  48,C  14)                  1.0989         0.348533   
     54. B(H  49,C  14)                  1.0928         0.356472   
     55. B(H  50,N  25)                  1.0089         0.434464   
     56. B(H  50,N  21)                  2.4050         0.010000   
     57. B(H  51,N  25)                  1.0089         0.434529   
     58. B(H  52,C  27)                  1.0848         0.367078   
     59. B(H  53,C  28)                  1.0860         0.365468   
     60. B(H  54,C  30)                  1.0837         0.368597   
     61. B(H  55,C  31)                  1.0863         0.365046   
     62. B(H  56,C  33)                  1.0968         0.351163   
     63. B(H  57,C  33)                  1.0913         0.358320   
     64. B(H  58,C  33)                  1.0969         0.351130   
     65. A(C   5,C   0,H  34)          109.3889         0.324472   
     66. A(H  34,C   0,H  35)          107.2335         0.288491   
     67. A(C   1,C   0,H  35)          109.8842         0.324329   
     68. A(C   1,C   0,C   5)          108.9450         0.366773   
     69. A(C   5,C   0,H  35)          111.3499         0.324980   
     70. A(C   1,C   0,H  34)          110.0237         0.323822   
     71. A(C   0,C   1,H  36)          109.7347         0.323517   
     72. A(C   0,C   1,C   2)          116.1596         0.367708   
     73. A(C   2,C   1,H  37)          106.6200         0.326012   
     74. A(C   2,C   1,H  36)          105.1675         0.324958   
     75. A(H  36,C   1,H  37)          106.3943         0.288433   
     76. A(C   0,C   1,H  37)          112.1173         0.324565   
     77. A(N   3,C   2,O  18)          122.0456         0.463231   
     78. A(C   1,C   2,O  18)          119.9678         0.432801   
     79. A(C   1,C   2,N   3)          117.9328         0.394241   
     80. A(C   2,N   3,C   6)          119.6480         0.407504   
     81. A(C   2,N   3,C   4)          123.4007         0.392852   
     82. A(C   4,N   3,C   6)          116.3524         0.380273   
     83. A(N   3,C   4,C   5)          112.0153         0.368325   
     84. A(C   5,C   4,H  38)          110.9142         0.326013   
     85. A(N   3,C   4,H  38)          107.1822         0.324782   
     86. A(N   3,C   4,H  39)          109.5461         0.323925   
     87. A(C   5,C   4,H  39)          109.3885         0.325152   
     88. A(H  38,C   4,H  39)          107.6784         0.288339   
     89. A(C   0,C   5,H  41)          111.4906         0.324954   
     90. A(C   4,C   5,H  40)          109.9972         0.325405   
     91. A(C   0,C   5,C   4)          109.3637         0.368661   
     92. A(H  40,C   5,H  41)          107.6590         0.288458   
     93. A(C   0,C   5,H  40)          110.0843         0.324459   
     94. A(C   4,C   5,H  41)          108.2100         0.325902   
     95. A(C   7,C   6,C  11)          119.2356         0.431736   
     96. A(N   3,C   6,C  11)          120.3019         0.413079   
     97. A(N   3,C   6,C   7)          120.4284         0.411896   
     98. A(C   6,C   7,C   8)          120.4319         0.434184   
     99. A(C   6,C   7,H  42)          119.7647         0.352755   
    100. A(C   8,C   7,H  42)          119.8022         0.355612   
    101. A(C   7,C   8,C   9)          120.3257         0.434095   
    102. A(C   7,C   8,H  43)          119.8665         0.355545   
    103. A(C   9,C   8,H  43)          119.8077         0.352621   
    104. A(C   8,C   9,C  10)          119.3346         0.431566   
    105. A(C  10,C   9,N  12)          120.4971         0.413760   
    106. A(C   8,C   9,N  12)          120.1510         0.412569   
    107. A(C   9,C  10,C  11)          120.2646         0.433517   
    108. A(C  11,C  10,H  44)          119.2554         0.353913   
    109. A(C   9,C  10,H  44)          120.4800         0.353383   
    110. A(C   6,C  11,H  45)          120.4047         0.353454   
    111. A(C  10,C  11,H  45)          119.1955         0.353922   
    112. A(C   6,C  11,C  10)          120.3999         0.433600   
    113. A(C  13,N  12,C  17)          120.9340         0.390311   
    114. A(C   9,N  12,C  17)          119.1978         0.406140   
    115. A(C   9,N  12,C  13)          117.7413         0.380440   
    116. A(C  14,C  13,H  47)          109.5355         0.323416   
    117. A(C  14,C  13,H  46)          110.0768         0.324843   
    118. A(N  12,C  13,H  47)          109.4153         0.323530   
    119. A(H  46,C  13,H  47)          108.2652         0.288857   
    120. A(N  12,C  13,C  14)          112.1343         0.365759   
    121. A(N  12,C  13,H  46)          107.3178         0.324957   
    122. A(C  13,C  14,H  49)          109.2306         0.324751   
    123. A(H  48,C  14,H  49)          107.2215         0.288895   
    124. A(C  15,C  14,H  49)          111.4708         0.332173   
    125. A(C  15,C  14,H  48)          110.0443         0.330937   
    126. A(C  13,C  14,C  15)          108.2735         0.374334   
    127. A(C  13,C  14,H  48)          110.6087         0.323552   
    128. A(C  14,C  15,C  20)          135.0979         0.404375   
    129. A(C  14,C  15,C  16)          120.1840         0.410028   
    130. A(C  16,C  15,C  20)          104.7174         0.432996   
    131. A(C  15,C  16,C  17)          125.1490         0.414794   
    132. A(C  17,C  16,N  22)          127.6943         0.407403   
    133. A(C  15,C  16,N  22)          107.1538         0.431219   
    134. A(C  16,C  17,O  19)          123.6258         0.447204   
    135. A(N  12,C  17,O  19)          123.7539         0.461547   
    136. A(N  12,C  17,C  16)          112.6036         0.404258   
    137. A(N  21,C  20,C  24)          121.5890         0.410826   
    138. A(C  15,C  20,C  24)          127.6575         0.405858   
    139. A(C  15,C  20,N  21)          110.7535         0.432236   
    140. A(C  20,N  21,N  22)          106.1662         0.428729   
    141. A(N  21,N  22,C  23)          118.8307         0.405889   
    142. A(C  16,N  22,C  23)          129.9627         0.407506   
    143. A(C  16,N  22,N  21)          111.2044         0.421757   
    144. A(N  22,C  23,C  31)          119.0490         0.413742   
    145. A(C  27,C  23,C  31)          120.7425         0.434905   
    146. A(N  22,C  23,C  27)          120.1515         0.412084   
    147. A(N  25,C  24,O  26)          123.7541         0.470056   
    148. A(C  20,C  24,O  26)          120.6254         0.442357   
    149. A(C  20,C  24,N  25)          115.6199         0.409381   
    150. A(H  50,N  25,H  51)          119.1258         0.303658   
    151. A(C  24,N  25,H  51)          119.4802         0.361334   
    152. A(C  24,N  25,H  50)          121.1900         0.361324   
    153. A(C  28,C  27,H  52)          120.3970         0.356184   
    154. A(C  23,C  27,H  52)          120.1234         0.353701   
    155. A(C  23,C  27,C  28)          119.4793         0.436366   
    156. A(C  29,C  28,H  53)          119.1340         0.351401   
    157. A(C  27,C  28,H  53)          120.6011         0.355918   
    158. A(C  27,C  28,C  29)          120.2625         0.433690   
    159. A(C  30,C  29,O  32)          124.4049         0.431194   
    160. A(C  28,C  29,O  32)          115.5961         0.429933   
    161. A(C  28,C  29,C  30)          119.9986         0.429110   
    162. A(C  29,C  30,C  31)          119.3848         0.432051   
    163. A(C  31,C  30,H  54)          119.0989         0.354181   
    164. A(C  29,C  30,H  54)          121.5157         0.352880   
    165. A(C  23,C  31,C  30)          120.1279         0.435208   
    166. A(C  30,C  31,H  55)          119.9763         0.353601   
    167. A(C  23,C  31,H  55)          119.8945         0.354726   
    168. A(C  29,O  32,C  33)          117.6384         0.410198   
    169. A(H  57,C  33,H  58)          109.3905         0.289465   
    170. A(H  56,C  33,H  58)          109.8616         0.288552   
    171. A(O  32,C  33,H  58)          111.1753         0.333982   
    172. A(H  56,C  33,H  57)          109.3755         0.289470   
    173. A(O  32,C  33,H  57)          105.7407         0.335109   
    174. A(O  32,C  33,H  56)          111.1968         0.333988   
    175. D(H  36,C   1,C   0,H  34)   -166.0371         0.011601   
    176. D(C   2,C   1,C   0,C   5)    -45.0202         0.011601   
    177. D(C   2,C   1,C   0,H  34)     74.8918         0.011601   
    178. D(C   2,C   1,C   0,H  35)   -167.2600         0.011601   
    179. D(H  36,C   1,C   0,H  35)    -48.1889         0.011601   
    180. D(H  36,C   1,C   0,C   5)     74.0510         0.011601   
    181. D(N   3,C   2,C   1,H  37)    146.0865         0.011430   
    182. D(N   3,C   2,C   1,C   0)     20.3277         0.011430   
    183. D(O  18,C   2,C   1,C   0)   -162.2856         0.011430   
    184. D(N   3,C   2,C   1,H  36)   -101.2014         0.011430   
    185. D(O  18,C   2,C   1,H  36)     76.1854         0.011430   
    186. D(C   6,N   3,C   2,O  18)     -0.4987         0.028136   
    187. D(C   6,N   3,C   2,C   1)    176.8304         0.028136   
    188. D(C   4,N   3,C   2,O  18)    170.2969         0.028136   
    189. D(C   4,N   3,C   2,C   1)    -12.3740         0.028136   
    190. D(H  38,C   4,N   3,C   2)    151.5702         0.013563   
    191. D(H  39,C   4,N   3,C   2)    -91.8736         0.013563   
    192. D(H  38,C   4,N   3,C   6)    -37.3546         0.013563   
    193. D(C   5,C   4,N   3,C   2)     29.6958         0.013563   
    194. D(C   5,C   4,N   3,C   6)   -159.2290         0.013563   
    195. D(H  40,C   5,C   4,N   3)     67.1845         0.012283   
    196. D(C   0,C   5,C   4,H  39)     67.8307         0.012283   
    197. D(C   0,C   5,C   4,H  38)   -173.5409         0.012283   
    198. D(C   0,C   5,C   4,N   3)    -53.8291         0.012283   
    199. D(H  40,C   5,C   0,H  35)     62.0087         0.011874   
    200. D(H  40,C   5,C   0,C   1)    -59.3415         0.011874   
    201. D(H  40,C   5,C   0,H  34)   -179.6456         0.011874   
    202. D(C   4,C   5,C   0,H  34)    -58.6849         0.011874   
    203. D(C   4,C   5,C   0,H  35)   -177.0306         0.011874   
    204. D(H  40,C   5,C   4,H  38)    -52.5273         0.012283   
    205. D(C   4,C   5,C   0,C   1)     61.6192         0.011874   
    206. D(H  40,C   5,C   4,H  39)   -171.1557         0.012283   
    207. D(C  11,C   6,N   3,C   4)    -43.7945         0.019017   
    208. D(C   7,C   6,N   3,C   4)    134.0657         0.019017   
    209. D(C   7,C   6,N   3,C   2)    -54.5048         0.019017   
    210. D(C  11,C   6,N   3,C   2)    127.6350         0.019017   
    211. D(H  42,C   7,C   6,C  11)    179.6779         0.025333   
    212. D(H  42,C   7,C   6,N   3)      1.7950         0.025333   
    213. D(C   8,C   7,C   6,C  11)     -0.7178         0.025333   
    214. D(C   8,C   7,C   6,N   3)   -178.6007         0.025333   
    215. D(H  43,C   8,C   7,H  42)      0.4809         0.028025   
    216. D(H  43,C   8,C   7,C   6)   -179.1233         0.028025   
    217. D(C   9,C   8,C   7,H  42)   -179.5667         0.028025   
    218. D(C   9,C   8,C   7,C   6)      0.8291         0.028025   
    219. D(N  12,C   9,C   8,H  43)      1.2743         0.025272   
    220. D(N  12,C   9,C   8,C   7)   -178.6781         0.025272   
    221. D(C  10,C   9,C   8,H  43)    179.7732         0.025272   
    222. D(C  10,C   9,C   8,C   7)     -0.1792         0.025272   
    223. D(H  44,C  10,C   9,N  12)     -2.0891         0.026155   
    224. D(H  44,C  10,C   9,C   8)    179.4173         0.026155   
    225. D(C  11,C  10,C   9,N  12)    177.9187         0.026155   
    226. D(C  11,C  10,C   9,C   8)     -0.5749         0.026155   
    227. D(H  45,C  11,C  10,H  44)      0.7088         0.026651   
    228. D(C   6,C  11,C  10,H  44)   -179.3076         0.026651   
    229. D(C   6,C  11,C  10,C   9)      0.6847         0.026651   
    230. D(H  45,C  11,C   6,C   7)    179.9452         0.026214   
    231. D(H  45,C  11,C   6,N   3)     -2.1691         0.026214   
    232. D(H  45,C  11,C  10,C   9)   -179.2989         0.026651   
    233. D(C  10,C  11,C   6,C   7)     -0.0381         0.026214   
    234. D(C  10,C  11,C   6,N   3)    177.8475         0.026214   
    235. D(C  17,N  12,C   9,C   8)    -54.7128         0.019425   
    236. D(C  13,N  12,C   9,C  10)    -36.7818         0.019425   
    237. D(C  13,N  12,C   9,C   8)    141.6994         0.019425   
    238. D(C  17,N  12,C   9,C  10)    126.8059         0.019425   
    239. D(H  47,C  13,N  12,C   9)     90.4681         0.013358   
    240. D(H  46,C  13,N  12,C  17)    169.9217         0.013358   
    241. D(H  46,C  13,N  12,C   9)    -26.7894         0.013358   
    242. D(C  14,C  13,N  12,C  17)     48.9231         0.013358   
    243. D(C  14,C  13,N  12,C   9)   -147.7880         0.013358   
    244. D(H  48,C  14,C  13,H  47)   -167.1685         0.011534   
    245. D(H  48,C  14,C  13,H  46)    -48.2375         0.011534   
    246. D(H  48,C  14,C  13,N  12)     71.1564         0.011534   
    247. D(C  15,C  14,C  13,H  47)     72.1810         0.011534   
    248. D(C  15,C  14,C  13,H  46)   -168.8880         0.011534   
    249. D(C  15,C  14,C  13,N  12)    -49.4941         0.011534   
    250. D(C  20,C  15,C  14,H  48)     87.0415         0.014050   
    251. D(C  20,C  15,C  14,C  13)   -151.9576         0.014050   
    252. D(C  16,C  15,C  14,H  49)    147.8524         0.014050   
    253. D(C  16,C  15,C  14,H  48)    -93.3211         0.014050   
    254. D(C  16,C  15,C  14,C  13)     27.6798         0.014050   
    255. D(N  22,C  16,C  15,C  20)     -0.1597         0.028497   
    256. D(N  22,C  16,C  15,C  14)   -179.8951         0.028497   
    257. D(C  17,C  16,C  15,C  20)   -179.5800         0.028497   
    258. D(C  17,C  16,C  15,C  14)      0.6847         0.028497   
    259. D(O  19,C  17,C  16,N  22)     -7.5718         0.014766   
    260. D(O  19,C  17,C  16,C  15)    171.7282         0.014766   
    261. D(N  12,C  17,C  16,N  22)    173.8662         0.014766   
    262. D(N  12,C  17,C  16,C  15)     -6.8339         0.014766   
    263. D(O  19,C  17,N  12,C  13)    162.5258         0.026433   
    264. D(O  19,C  17,N  12,C   9)     -0.5241         0.026433   
    265. D(C  16,C  17,N  12,C  13)    -18.9143         0.026433   
    266. D(C  16,C  17,N  12,C   9)    178.0358         0.026433   
    267. D(C  24,C  20,C  15,C  16)    179.6274         0.024132   
    268. D(C  24,C  20,C  15,C  14)     -0.6967         0.024132   
    269. D(N  21,C  20,C  15,C  16)     -0.2776         0.024132   
    270. D(N  21,C  20,C  15,C  14)    179.3983         0.024132   
    271. D(N  22,N  21,C  20,C  24)   -179.3031         0.035382   
    272. D(N  22,N  21,C  20,C  15)      0.6087         0.035382   
    273. D(C  23,N  22,N  21,C  20)    179.7634         0.035201   
    274. D(C  16,N  22,N  21,C  20)     -0.7172         0.035201   
    275. D(C  23,N  22,C  16,C  17)     -0.5938         0.029027   
    276. D(C  23,N  22,C  16,C  15)   -179.9948         0.029027   
    277. D(N  21,N  22,C  16,C  17)    179.9554         0.029027   
    278. D(N  21,N  22,C  16,C  15)      0.5545         0.029027   
    279. D(C  31,C  23,N  22,N  21)     60.1587         0.018459   
    280. D(C  31,C  23,N  22,C  16)   -119.2567         0.018459   
    281. D(C  27,C  23,N  22,N  21)   -117.1178         0.018459   
    282. D(C  27,C  23,N  22,C  16)     63.4667         0.018459   
    283. D(O  26,C  24,C  20,N  21)    174.5177         0.013530   
    284. D(O  26,C  24,C  20,C  15)     -5.3780         0.013530   
    285. D(N  25,C  24,C  20,N  21)     -5.7558         0.013530   
    286. D(N  25,C  24,C  20,C  15)    174.3484         0.013530   
    287. D(H  51,N  25,C  24,O  26)     -2.9730         0.033886   
    288. D(H  51,N  25,C  24,C  20)    177.3101         0.033886   
    289. D(H  50,N  25,C  24,O  26)   -177.7372         0.033886   
    290. D(H  50,N  25,C  24,C  20)      2.5459         0.033886   
    291. D(H  52,C  27,C  23,C  31)   -179.0551         0.026266   
    292. D(H  52,C  27,C  23,N  22)     -1.8252         0.026266   
    293. D(C  28,C  27,C  23,C  31)      0.7421         0.026266   
    294. D(C  28,C  27,C  23,N  22)    177.9719         0.026266   
    295. D(H  53,C  28,C  27,H  52)      0.0131         0.028675   
    296. D(H  53,C  28,C  27,C  23)   -179.7835         0.028675   
    297. D(C  29,C  28,C  27,H  52)    179.4492         0.028675   
    298. D(C  29,C  28,C  27,C  23)     -0.3474         0.028675   
    299. D(O  32,C  29,C  28,C  27)    179.9955         0.024438   
    300. D(C  30,C  29,C  28,H  53)    179.2244         0.024438   
    301. D(C  30,C  29,C  28,C  27)     -0.2199         0.024438   
    302. D(O  32,C  29,C  28,H  53)     -0.5602         0.024438   
    303. D(H  54,C  30,C  29,O  32)     -0.1205         0.025293   
    304. D(H  54,C  30,C  29,C  28)   -179.8851         0.025293   
    305. D(C  31,C  30,C  29,O  32)   -179.8359         0.025293   
    306. D(C  31,C  30,C  29,C  28)      0.3995         0.025293   
    307. D(H  55,C  31,C  30,H  54)     -0.1397         0.026483   
    308. D(H  55,C  31,C  30,C  29)    179.5827         0.026483   
    309. D(C  23,C  31,C  30,H  54)   -179.7338         0.026483   
    310. D(C  23,C  31,C  30,C  29)     -0.0114         0.026483   
    311. D(H  55,C  31,C  23,C  27)    179.8422         0.027559   
    312. D(H  55,C  31,C  23,N  22)      2.5822         0.027559   
    313. D(C  30,C  31,C  23,C  27)     -0.5634         0.027559   
    314. D(C  30,C  31,C  23,N  22)   -177.8233         0.027559   
    315. D(C  33,O  32,C  29,C  30)     -0.6082         0.029656   
    316. D(C  33,O  32,C  29,C  28)    179.1657         0.029656   
    317. D(H  58,C  33,O  32,C  29)    -60.8194         0.017768   
    318. D(H  57,C  33,O  32,C  29)   -179.4462         0.017768   
    319. D(H  56,C  33,O  32,C  29)     61.9336         0.017768   
    -----------------------------------------------------------------

Number of atoms                         .... 59
Number of degrees of freedom            .... 319


         *************************************************************
         *                GEOMETRY OPTIMIZATION CYCLE   1            *
         *************************************************************
---------------------------------
CARTESIAN COORDINATES (ANGSTROEM)
---------------------------------
  C     23.821044  -17.585907   -0.047241
  C     24.218688  -18.528277    1.082817
  C     25.513274  -19.294877    0.889986
  N     26.422507  -18.805437   -0.017818
  C     26.104522  -17.739219   -0.997385
  C     25.042673  -16.789428   -0.478904
  C     27.679655  -19.458427   -0.178919
  C     28.509780  -19.678851    0.924598
  C     29.743965  -20.287393    0.763855
  C     30.181099  -20.672760   -0.507646
  C     29.360729  -20.441732   -1.611088
  C     28.114451  -19.844468   -1.445839
  N     31.437039  -21.322836   -0.665041
  C     31.528566  -22.416521   -1.664673
  C     32.524780  -23.493563   -1.248401
  C     33.796910  -22.827207   -0.859722
  C     33.782687  -21.534857   -0.366674
  C     32.576496  -20.718933   -0.165748
  O     25.743763  -20.294635    1.571727
  O     32.577766  -19.631975    0.408413
  C     35.153171  -23.192685   -0.863804
  N     35.920104  -22.184835   -0.407978
  N     35.082386  -21.189329   -0.100450
  C     35.620483  -19.971729    0.421051
  C     35.741642  -24.484194   -1.290846
  N     37.092035  -24.534501   -1.305913
  O     35.016908  -25.429961   -1.610269
  C     35.284538  -19.552001    1.706902
  C     35.845753  -18.394364    2.213057
  C     36.751992  -17.651809    1.441178
  C     37.094401  -18.084398    0.156017
  C     36.521760  -19.249536   -0.348011
  O     37.244089  -16.533984    2.029670
  C     38.188974  -15.751187    1.285994
  H     23.441072  -18.162321   -0.901466
  H     23.011694  -16.926204    0.285016
  H     24.358694  -17.956069    2.011659
  H     23.442881  -19.271541    1.291820
  H     27.037237  -17.205254   -1.208620
  H     25.759886  -18.194094   -1.937395
  H     25.436130  -16.212980    0.369257
  H     24.797894  -16.080343   -1.277791
  H     28.182315  -19.377150    1.913398
  H     30.374435  -20.466801    1.628125
  H     29.685504  -20.724758   -2.607642
  H     27.485013  -19.683164   -2.315557
  H     30.530407  -22.848238   -1.766587
  H     31.824246  -21.998497   -2.637770
  H     32.132517  -24.077881   -0.404450
  H     32.674082  -24.186525   -2.080044
  H     37.647574  -23.748140   -1.004438
  H     37.554019  -25.398084   -1.547962
  H     34.590460  -20.132589    2.305159
  H     35.599540  -18.052424    3.213952
  H     37.792926  -17.531065   -0.460577
  H     36.775681  -19.590662   -1.347599
  H     37.742389  -15.362351    0.362723
  H     38.459713  -14.917571    1.936245
  H     39.087056  -16.334485    1.048654

----------------------------
CARTESIAN COORDINATES (A.U.)
----------------------------
  NO LB      ZA    FRAG     MASS         X           Y           Z
   0 C     6.0000    0    12.011   45.015250  -33.232548   -0.089272
   1 C     6.0000    0    12.011   45.766688  -35.013369    2.046228
   2 C     6.0000    0    12.011   48.213101  -36.462033    1.681829
   3 N     7.0000    0    14.007   49.931302  -35.537125   -0.033672
   4 C     6.0000    0    12.011   49.330398  -33.522266   -1.884785
   5 C     6.0000    0    12.011   47.323794  -31.727421   -0.904998
   6 C     6.0000    0    12.011   52.306968  -36.771097   -0.338107
   7 C     6.0000    0    12.011   53.875677  -37.187639    1.747236
   8 C     6.0000    0    12.011   56.207948  -38.337616    1.443476
   9 C     6.0000    0    12.011   57.034011  -39.065854   -0.959311
  10 C     6.0000    0    12.011   55.483737  -38.629275   -3.044514
  11 C     6.0000    0    12.011   53.128613  -37.500609   -2.732239
  12 N     7.0000    0    14.007   59.407394  -40.294320   -1.256745
  13 C     6.0000    0    12.011   59.580356  -42.361086   -3.145776
  14 C     6.0000    0    12.011   61.462927  -44.396399   -2.359137
  15 C     6.0000    0    12.011   63.866903  -43.137169   -1.624639
  16 C     6.0000    0    12.011   63.840027  -40.694982   -0.692913
  17 C     6.0000    0    12.011   61.560655  -39.153110   -0.313219
  18 O     8.0000    0    15.999   48.648662  -38.351302    2.970134
  19 O     8.0000    0    15.999   61.563057  -37.099056    0.771790
  20 C     6.0000    0    12.011   66.429867  -43.827824   -1.632353
  21 N     7.0000    0    14.007   67.879159  -41.923262   -0.770966
  22 N     7.0000    0    14.007   66.296102  -40.042029   -0.189823
  23 C     6.0000    0    12.011   67.312958  -37.741098    0.795670
  24 C     6.0000    0    12.011   67.541916  -46.268422   -2.439345
  25 N     7.0000    0    14.007   70.093788  -46.363488   -2.467819
  26 O     8.0000    0    15.999   66.172366  -48.055663   -3.042967
  27 C     6.0000    0    12.011   66.678114  -36.947927    3.225577
  28 C     6.0000    0    12.011   67.738657  -34.760310    4.182071
  29 C     6.0000    0    12.011   69.451199  -33.357084    2.723432
  30 C     6.0000    0    12.011   70.098260  -34.174559    0.294829
  31 C     6.0000    0    12.011   69.016125  -36.376351   -0.657646
  32 O     8.0000    0    15.999   70.381129  -31.244702    3.835520
  33 C     6.0000    0    12.011   72.166703  -29.765430    2.430176
  34 H     1.0000    0     1.008   44.297207  -34.321813   -1.703524
  35 H     1.0000    0     1.008   43.485800  -31.985890    0.538602
  36 H     1.0000    0     1.008   46.031261  -33.932053    3.801485
  37 H     1.0000    0     1.008   44.300625  -36.417934    2.441186
  38 H     1.0000    0     1.008   51.092973  -32.513217   -2.283961
  39 H     1.0000    0     1.008   48.679129  -34.381854   -3.661147
  40 H     1.0000    0     1.008   48.067319  -30.638092    0.697795
  41 H     1.0000    0     1.008   46.861228  -30.387444   -2.414676
  42 H     1.0000    0     1.008   53.256857  -36.617506    3.615798
  43 H     1.0000    0     1.008   57.399364  -38.676648    3.076711
  44 H     1.0000    0     1.008   56.097473  -39.164117   -4.927728
  45 H     1.0000    0     1.008   51.939148  -37.195789   -4.375768
  46 H     1.0000    0     1.008   57.694107  -43.176913   -3.338366
  47 H     1.0000    0     1.008   60.139109  -41.571134   -4.984662
  48 H     1.0000    0     1.008   60.721657  -45.500601   -0.764299
  49 H     1.0000    0     1.008   61.745066  -45.705908   -3.930713
  50 H     1.0000    0     1.008   71.143605  -44.877481   -1.898113
  51 H     1.0000    0     1.008   70.966811  -47.995423   -2.925224
  52 H     1.0000    0     1.008   65.366497  -38.045079    4.356119
  53 H     1.0000    0     1.008   67.273381  -34.114138    6.073489
  54 H     1.0000    0     1.008   71.418280  -33.128912   -0.870364
  55 H     1.0000    0     1.008   69.495966  -37.020986   -2.546592
  56 H     1.0000    0     1.008   71.322779  -29.030636    0.685447
  57 H     1.0000    0     1.008   72.678325  -28.190124    3.658973
  58 H     1.0000    0     1.008   73.863831  -30.867703    1.981669

--------------------------------
INTERNAL COORDINATES (ANGSTROEM)
--------------------------------
 C      0   0   0     0.000000000000     0.00000000     0.00000000
 C      1   0   0     1.524208809357     0.00000000     0.00000000
 C      2   1   0     1.516843221821   116.15964529     0.00000000
 N      3   2   1     1.374905119809   117.93277313    20.32767106
 C      4   3   2     1.482392164309   123.40069835   347.62600329
 C      5   4   3     1.516063695332   112.01533508    29.69577198
 C      4   3   2     1.425752816072   119.64797300   176.83043999
 C      7   4   3     1.398371415962   120.42841051   305.49520677
 C      8   7   4     1.385414439039   120.43192473   181.39934343
 C      9   8   7     1.398680185280   120.32572009     0.82911902
 C     10   9   8     1.394260934475   119.33464895   359.82075913
 C     11  10   9     1.391848207153   120.26459134   359.42507653
 N     10   9   8     1.422939793632   120.15104097   181.32186789
 C     13  10   9     1.484516862576   117.74127481   141.69941837
 C     14  13  10     1.525038037481   112.13432620   212.21197408
 C     15  14  13     1.487755325508   108.27350172   310.50592466
 C     16  15  14     1.383280984648   120.18399650    27.67978740
 C     13  10   9     1.382878497304   119.19779479   305.28720478
 O      3   2   1     1.231833209642   119.96784835   197.71442957
 O     18  13  10     1.229285012597   123.75391619   359.47585169
 C     16  15  14     1.404648532641   135.09788091   208.04238186
 N     21  16  15     1.346003887383   110.75348642   179.39832028
 N     22  21  16     1.336927832326   106.16618518     0.60867205
 C     23  22  21     1.429706879503   118.83074550   179.76335140
 C     21  16  15     1.482112511721   127.65748267   359.30334053
 N     25  21  16     1.351413490575   115.61993566   174.34842832
 O     25  21  16     1.233590730474   120.62539988   354.62196002
 C     24  23  22     1.393715713481   120.15150222   242.88219820
 C     28  24  23     1.382490050524   119.47931156   177.97191833
 C     29  28  24     1.403015781825   120.26251545   359.65260752
 C     30  29  28     1.398576929111   119.99863874   359.78007466
 C     24  23  22     1.387558383062   119.04902423    60.15873056
 O     30  29  28     1.355733585982   115.59608827   179.99546621
 C     33  30  29     1.434793893490   117.63842212   179.16567783
 H      1   2   3     1.098331885662   110.02371998    74.89176917
 H      1   2   3     1.095741495177   109.88419135   192.73999048
 H      2   1   3     1.099896095682   109.73470609   119.07114946
 H      2   1   3     1.094531720458   112.11731058   237.07103267
 H      5   4   3     1.095306086304   107.18224509   151.57021815
 H      5   4   3     1.099683607882   109.54614282   268.12644325
 H      6   5   4     1.098397654079   109.99719062    67.18448234
 H      6   5   4     1.095873855320   108.21000844   184.54270399
 H      8   7   4     1.084427477886   119.76474142     1.79500761
 H      9   8   7     1.084731946357   119.86652836   180.87666708
 H     11  10   9     1.085680642999   120.48000780   179.41728784
 H     12  11  10     1.085642821801   119.19545849   180.70112365
 H     14  13  10     1.092286145774   107.31783307   333.21058053
 H     14  13  10     1.099585394293   109.41525133    90.46807674
 H     15  14  13     1.098887337206   110.60869967    71.15639752
 H     15  14  13     1.092756554015   109.23064268   188.94305246
 H     26  25  21     1.008897742269   121.18999867     2.54585337
 H     26  25  21     1.008856871354   119.48016672   177.31013135
 H     28  24  23     1.084775734365   120.12341809   358.17475885
 H     29  28  24     1.085972023424   120.60107672   180.21654602
 H     31  30  29     1.083651660453   121.51574285   180.11493965
 H     32  24  23     1.086286263371   119.89454527     2.58223554
 H     34  33  30     1.096840917731   111.19682953    61.93360709
 H     34  33  30     1.091348822774   105.74068157   180.55384273
 H     34  33  30     1.096866764480   111.17526645   299.18058391

---------------------------
INTERNAL COORDINATES (A.U.)
---------------------------
 C      0   0   0     0.000000000000     0.00000000     0.00000000
 C      1   0   0     2.880337220596     0.00000000     0.00000000
 C      2   1   0     2.866418277336   116.15964529     0.00000000
 N      3   2   1     2.598194136566   117.93277313    20.32767106
 C      4   3   2     2.801315213615   123.40069835   347.62600329
 C      5   4   3     2.864945185758   112.01533508    29.69577198
 C      4   3   2     2.694282357042   119.64797300   176.83043999
 C      7   4   3     2.642539009672   120.42841051   305.49520677
 C      8   7   4     2.618053871764   120.43192473   181.39934343
 C      9   8   7     2.643122499121   120.32572009     0.82911902
 C     10   9   8     2.634771325383   119.33464895   359.82075913
 C     11  10   9     2.630211931509   120.26459134   359.42507653
 N     10   9   8     2.688966515022   120.15104097   181.32186789
 C     13  10   9     2.805330311457   117.74127481   141.69941837
 C     14  13  10     2.881904234652   112.13432620   212.21197408
 C     15  14  13     2.811450119493   108.27350172   310.50592466
 C     16  15  14     2.614022227246   120.18399650    27.67978740
 C     13  10   9     2.613261636393   119.19779479   305.28720478
 O      3   2   1     2.327827408893   119.96784835   197.71442957
 O     18  13  10     2.323012014343   123.75391619   359.47585169
 C     16  15  14     2.654401041106   135.09788091   208.04238186
 N     21  16  15     2.543578722347   110.75348642   179.39832028
 N     22  21  16     2.526427463913   106.16618518     0.60867205
 C     23  22  21     2.701754454043   118.83074550   179.76335140
 C     21  16  15     2.800786746810   127.65748267   359.30334053
 N     25  21  16     2.553801390873   115.61993566   174.34842832
 O     25  21  16     2.331148641940   120.62539988   354.62196002
 C     24  23  22     2.633741007022   120.15150222   242.88219820
 C     28  24  23     2.612527578361   119.47931156   177.97191833
 C     29  28  24     2.651315589218   120.26251545   359.65260752
 C     30  29  28     2.642927373241   119.99863874   359.78007466
 C     24  23  22     2.622105338813   119.04902423    60.15873056
 O     30  29  28     2.561965188066   115.59608827   179.99546621
 C     33  30  29     2.711367517318   117.63842212   179.16567783
 H      1   2   3     2.075546468055   110.02371998    74.89176917
 H      1   2   3     2.070651339458   109.88419135   192.73999048
 H      2   1   3     2.078502396609   109.73470609   119.07114946
 H      2   1   3     2.068365196556   112.11731058   237.07103267
 H      5   4   3     2.069828535931   107.18224509   151.57021815
 H      5   4   3     2.078100852860   109.54614282   268.12644325
 H      6   5   4     2.075670752352   109.99719062    67.18448234
 H      6   5   4     2.070901463880   108.21000844   184.54270399
 H      8   7   4     2.049270945304   119.76474142     1.79500761
 H      9   8   7     2.049846307330   119.86652836   180.87666708
 H     11  10   9     2.051639084167   120.48000780   179.41728784
 H     12  11  10     2.051567612462   119.19545849   180.70112365
 H     14  13  10     2.064121675389   107.31783307   333.21058053
 H     14  13  10     2.077915256074   109.41525133    90.46807674
 H     15  14  13     2.076596119354   110.60869967    71.15639752
 H     15  14  13     2.065010618136   109.23064268   188.94305246
 H     26  25  21     1.906540430020   121.18999867     2.54585337
 H     26  25  21     1.906463195183   119.48016672   177.31013135
 H     28  24  23     2.049929054673   120.12341809   358.17475885
 H     29  28  24     2.052189713371   120.60107672   180.21654602
 H     31  30  29     2.047804862826   121.51574285   180.11493965
 H     32  24  23     2.052783540811   119.89454527     2.58223554
 H     34  33  30     2.072728946991   111.19682953    61.93360709
 H     34  33  30     2.062350391620   105.74068157   180.55384273
 H     34  33  30     2.072777790267   111.17526645   299.18058391

---------------------
BASIS SET INFORMATION
---------------------
There are 4 groups of distinct atoms

 Group   1 Type C   : 11s6p1d contracted to 5s3p1d pattern {62111/411/1}
 Group   2 Type N   : 11s6p2d contracted to 5s3p2d pattern {62111/411/11}
 Group   3 Type O   : 11s6p2d contracted to 5s3p2d pattern {62111/411/11}
 Group   4 Type H   : 4s1p contracted to 2s1p pattern {31/1}

Atom   0C    basis set group =>   1
Atom   1C    basis set group =>   1
Atom   2C    basis set group =>   1
Atom   3N    basis set group =>   2
Atom   4C    basis set group =>   1
Atom   5C    basis set group =>   1
Atom   6C    basis set group =>   1
Atom   7C    basis set group =>   1
Atom   8C    basis set group =>   1
Atom   9C    basis set group =>   1
Atom  10C    basis set group =>   1
Atom  11C    basis set group =>   1
Atom  12N    basis set group =>   2
Atom  13C    basis set group =>   1
Atom  14C    basis set group =>   1
Atom  15C    basis set group =>   1
Atom  16C    basis set group =>   1
Atom  17C    basis set group =>   1
Atom  18O    basis set group =>   3
Atom  19O    basis set group =>   3
Atom  20C    basis set group =>   1
Atom  21N    basis set group =>   2
Atom  22N    basis set group =>   2
Atom  23C    basis set group =>   1
Atom  24C    basis set group =>   1
Atom  25N    basis set group =>   2
Atom  26O    basis set group =>   3
Atom  27C    basis set group =>   1
Atom  28C    basis set group =>   1
Atom  29C    basis set group =>   1
Atom  30C    basis set group =>   1
Atom  31C    basis set group =>   1
Atom  32O    basis set group =>   3
Atom  33C    basis set group =>   1
Atom  34H    basis set group =>   4
Atom  35H    basis set group =>   4
Atom  36H    basis set group =>   4
Atom  37H    basis set group =>   4
Atom  38H    basis set group =>   4
Atom  39H    basis set group =>   4
Atom  40H    basis set group =>   4
Atom  41H    basis set group =>   4
Atom  42H    basis set group =>   4
Atom  43H    basis set group =>   4
Atom  44H    basis set group =>   4
Atom  45H    basis set group =>   4
Atom  46H    basis set group =>   4
Atom  47H    basis set group =>   4
Atom  48H    basis set group =>   4
Atom  49H    basis set group =>   4
Atom  50H    basis set group =>   4
Atom  51H    basis set group =>   4
Atom  52H    basis set group =>   4
Atom  53H    basis set group =>   4
Atom  54H    basis set group =>   4
Atom  55H    basis set group =>   4
Atom  56H    basis set group =>   4
Atom  57H    basis set group =>   4
Atom  58H    basis set group =>   4
---------------------------------
AUXILIARY/J BASIS SET INFORMATION
---------------------------------
There are 4 groups of distinct atoms

 Group   1 Type C   : 8s3p3d contracted to 6s3p3d pattern {311111/111/111}
 Group   2 Type N   : 8s3p3d contracted to 6s3p3d pattern {311111/111/111}
 Group   3 Type O   : 8s3p3d contracted to 6s3p3d pattern {311111/111/111}
 Group   4 Type H   : 5s2p1d contracted to 3s1p1d pattern {311/2/1}

Atom   0C    basis set group =>   1
Atom   1C    basis set group =>   1
Atom   2C    basis set group =>   1
Atom   3N    basis set group =>   2
Atom   4C    basis set group =>   1
Atom   5C    basis set group =>   1
Atom   6C    basis set group =>   1
Atom   7C    basis set group =>   1
Atom   8C    basis set group =>   1
Atom   9C    basis set group =>   1
Atom  10C    basis set group =>   1
Atom  11C    basis set group =>   1
Atom  12N    basis set group =>   2
Atom  13C    basis set group =>   1
Atom  14C    basis set group =>   1
Atom  15C    basis set group =>   1
Atom  16C    basis set group =>   1
Atom  17C    basis set group =>   1
Atom  18O    basis set group =>   3
Atom  19O    basis set group =>   3
Atom  20C    basis set group =>   1
Atom  21N    basis set group =>   2
Atom  22N    basis set group =>   2
Atom  23C    basis set group =>   1
Atom  24C    basis set group =>   1
Atom  25N    basis set group =>   2
Atom  26O    basis set group =>   3
Atom  27C    basis set group =>   1
Atom  28C    basis set group =>   1
Atom  29C    basis set group =>   1
Atom  30C    basis set group =>   1
Atom  31C    basis set group =>   1
Atom  32O    basis set group =>   3
Atom  33C    basis set group =>   1
Atom  34H    basis set group =>   4
Atom  35H    basis set group =>   4
Atom  36H    basis set group =>   4
Atom  37H    basis set group =>   4
Atom  38H    basis set group =>   4
Atom  39H    basis set group =>   4
Atom  40H    basis set group =>   4
Atom  41H    basis set group =>   4
Atom  42H    basis set group =>   4
Atom  43H    basis set group =>   4
Atom  44H    basis set group =>   4
Atom  45H    basis set group =>   4
Atom  46H    basis set group =>   4
Atom  47H    basis set group =>   4
Atom  48H    basis set group =>   4
Atom  49H    basis set group =>   4
Atom  50H    basis set group =>   4
Atom  51H    basis set group =>   4
Atom  52H    basis set group =>   4
Atom  53H    basis set group =>   4
Atom  54H    basis set group =>   4
Atom  55H    basis set group =>   4
Atom  56H    basis set group =>   4
Atom  57H    basis set group =>   4
Atom  58H    basis set group =>   4


           ************************************************************
           *        Program running with 4 parallel MPI-processes     *
           *              working on a common directory               *
           ************************************************************
------------------------------------------------------------------------------
                             ORCA STARTUP CALCULATIONS
                           -- RI-GTO INTEGRALS CHOSEN --
------------------------------------------------------------------------------
------------------------------------------------------------------------------
                   ___                                                        
                  /   \      - P O W E R E D   B Y -                         
                 /     \                                                     
                 |  |  |   _    _      __       _____    __    __             
                 |  |  |  | |  | |    /  \     |  _  \  |  |  /  |          
                  \  \/   | |  | |   /    \    | | | |  |  | /  /          
                 / \  \   | |__| |  /  /\  \   | |_| |  |  |/  /          
                |  |  |   |  __  | /  /__\  \  |    /   |      \           
                |  |  |   | |  | | |   __   |  |    \   |  |\   \          
                \     /   | |  | | |  |  |  |  | |\  \  |  | \   \       
                 \___/    |_|  |_| |__|  |__|  |_| \__\ |__|  \__/        
                                                                              
                      - O R C A' S   B I G   F R I E N D -                    
                                      &                                       
                       - I N T E G R A L  F E E D E R -                       
                                                                              
 v1 FN, 2020, v2 2021, v3 2022-2024                                           
------------------------------------------------------------------------------


----------------------
SHARK INTEGRAL PACKAGE
----------------------

Number of atoms                             ...     59
Number of basis functions                   ...    816
Number of shells                            ...    390
Maximum angular momentum                    ...      2
Integral batch strategy                     ... SHARK/LIBINT Hybrid
RI-J (if used) integral strategy            ... SPLIT-RIJ (Revised 2003 algorithm where possible)
Printlevel                                  ...      1
Contraction scheme used                     ... SEGMENTED contraction
Prescreening option                         ... SCHWARTZ
   Thresh                                   ... 2.500e-11
   Tcut                                     ... 2.500e-12
   Tpresel                                  ... 2.500e-12 
Coulomb Range Separation                    ... NOT USED
Exchange Range Separation                   ... NOT USED
Multipole approximations                    ... NOT USED
Finite Nucleus Model                        ... NOT USED
CABS basis                                  ... NOT available
Auxiliary Coulomb fitting basis             ... AVAILABLE
   # of basis functions in Aux-J            ...   1295
   # of shells in Aux-J                     ...    533
   Maximum angular momentum in Aux-J        ...      2
Auxiliary J/K fitting basis                 ... NOT available
Auxiliary Correlation fitting basis         ... NOT available
Auxiliary 'external' fitting basis          ... NOT available

Checking pre-screening integrals            ... done (  0.0 sec) Dimension = 390
   => SHARK Basis and OBASIS are compatible. Storing Pre-screening
Shell pair information
Shell pair cut-off parameter TPreSel        ...   2.5e-12
Total number of shell pairs                 ...     76245
Shell pairs after pre-screening             ...     38809
Total number of primitive shell pairs       ...    279454
Primitive shell pairs kept                  ...     86854
          la=0 lb=0:  11491 shell pairs
          la=1 lb=0:  14747 shell pairs
          la=1 lb=1:   4719 shell pairs
          la=2 lb=0:   4492 shell pairs
          la=2 lb=1:   2890 shell pairs
          la=2 lb=2:    470 shell pairs

Checking whether 4 symmetric matrices of dimension 816 fit in memory
:Max Core in MB      =   2000.00
 MB in use           =     38.13
 MB left             =   1961.87
 MB needed           =     10.17
 Data fit in memory  = YES
Calculating RI/J V-Matrix + Cholesky decomp.... done (  0.1 sec)
Calculating Nuclear repulsion               ... done (  0.0 sec) ENN=   3308.643884884677 Eh

Diagonalization of the overlap matrix:
Smallest eigenvalue                        ... 1.854e-05
Time for diagonalization                   ...    0.109 sec
Threshold for overlap eigenvalues          ... 1.000e-07
Number of eigenvalues below threshold      ... 0
Time for construction of square roots      ...    0.065 sec
Total time needed                          ...    0.180 sec

-------------------
DFT GRID GENERATION
-------------------

General Integration Accuracy     IntAcc      ... 4.388
Radial Grid Type                 RadialGrid  ... OptM3 with GC (2021)
Angular Grid (max. ang.)         AngularGrid ... 4 (Lebedev-302)
Angular grid pruning method      GridPruning ... 4 (adaptive)
Weight generation scheme         WeightScheme... mBecke (2022)
Basis function cutoff            BFCut       ... 1.0000e-11
Integration weight cutoff        WCut        ... 1.0000e-14
Partially contracted basis set               ... off
Rotationally invariant grid construction     ... off
Angular grids for H and He will be reduced by one unit
Diffuse basis detected: some atoms will have their outermost
                        angular grid increased by 1.

Total number of grid points                  ...   283839
Total number of batches                      ...     4462
Average number of points per batch           ...       63
Average number of grid points per atom       ...     4811
Grids setup in   4.0 sec
Initializing property integral containers    ... done (  0.0 sec)

SHARK setup successfully completed in   5.0 seconds

Maximum memory used throughout the entire STARTUP-calculation: 100.9 MB


           ************************************************************
           *        Program running with 4 parallel MPI-processes     *
           *              working on a common directory               *
           ************************************************************
-------------------------------------------------------------------------------
                                 ORCA GUESS
                   Start orbitals & Density for SCF / CASSCF
-------------------------------------------------------------------------------

------------
SCF SETTINGS
------------
Hamiltonian:
 Density Functional     Method          .... DFT(GTOs)
  Functional kind                       .... Exchange
  Functional name                       .... Re-regularized SCAN exchange by Furness et al
  Functional family                     .... MGGA
  Functional refs                              
    [ 0] J. W. Furness, A. D. Kaplan, J. Ning, J. P. Perdew, and J. Sun.,  J. Phys. Chem. Lett. 11, 8208-8215 (2020), doi: 10.1021/acs.jpclett.0c02405
    [ 1] J. W. Furness, A. D. Kaplan, J. Ning, J. P. Perdew, and J. Sun.,  J. Phys. Chem. Lett. 11, 9248-9248 (2020), doi: 10.1021/acs.jpclett.0c03077
  Functional external parameters        .... 6
    Parameter  0 _c1        =  6.670000e-01 : c1 parameter        
    Parameter  1 _c2        =  8.000000e-01 : c2 parameter        
    Parameter  2 _d         =  1.240000e+00 : d parameter         
    Parameter  3 _k1        =  6.500000e-02 : k1 parameter        
    Parameter  4 _eta       =  1.000000e-03 : eta parameter       
    Parameter  5 _dp2       =  3.610000e-01 : dp2 parameter       
  Functional kind                       .... Correlation
  Functional name                       .... Re-regularized SCAN correlation by Furness et al
  Functional family                     .... MGGA
  Functional refs                              
    [ 0] J. W. Furness, A. D. Kaplan, J. Ning, J. P. Perdew, and J. Sun.,  J. Phys. Chem. Lett. 11, 8208-8215 (2020), doi: 10.1021/acs.jpclett.0c02405
    [ 1] J. W. Furness, A. D. Kaplan, J. Ning, J. P. Perdew, and J. Sun.,  J. Phys. Chem. Lett. 11, 9248-9248 (2020), doi: 10.1021/acs.jpclett.0c03077
  Functional external parameters        .... 1
    Parameter  0 _eta       =  1.000000e-03 : Regularization parameter
 Gradients option       PostSCFGGA      .... off
 RI-approximation to the Coulomb term is turned on
   Number of AuxJ basis functions       .... 1295


General Settings:
 Integral files         IntName         .... Apixaban_SMD_chloroform_Opt_Freq_KeepDens
 Hartree-Fock type      HFTyp           .... RHF
 Total Charge           Charge          ....    0
 Multiplicity           Mult            ....    1
 Number of Electrons    NEL             ....  242
 Basis Dimension        Dim             ....  816
 Nuclear Repulsion      ENuc            ....   3308.6438848847 Eh

Convergence Acceleration:
 AO-DIIS                CNVDIIS         .... on
   Start iteration      DIISMaxIt       ....    12
   Startup error        DIISStart       ....  0.200000
   # of expansion vecs  DIISMaxEq       ....     5
   Bias factor          DIISBfac        ....   1.050
   Max. coefficient     DIISMaxC        ....  10.000
 MO-DIIS                CNVKDIIS        .... off
 Trust-Rad. Augm. Hess. CNVTRAH         .... auto
   Auto Start mean grad. ratio tolernc. ....  1.125000
   Auto Start start iteration           ....    50
   Auto Start num. interpolation iter.  ....    10
   Max. Number of Micro iterations      ....    24
   Max. Number of Macro iterations      .... Maxiter - #DIIS iter
   Number of Davidson start vectors     ....     2
   Converg. threshold    (grad. norm)   ....   1.000e-05
   Grad. Scal. Fac. for Micro threshold ....   0.100
   Minimum threshold for Micro iter.    ....   1.000e-02
   NR start threshold (gradient norm)   ....   1.000e-04
   Initial trust radius                 ....   0.400
   Minimum AH scaling param. (alpha)    ....   1.000
   Maximum AH scaling param. (alpha)    .... 1000.000
   Quad. conv. algorithm                .... NR
   White noise on init. David. guess    .... on
   Maximum white noise                  ....   0.010
   Pseudo random numbers                .... off
   Inactive MOs                         .... canonical
   Orbital update algorithm             .... Taylor
   Preconditioner                       .... Diag
   Full preconditioner red. dimension   ....   250
   COSX micro iterations for RIJONX calc.... off
 SOSCF                 CNVSOSCF           .... on
   Start iteration     SOSCFMaxIt         ....   150
   Startup grad/error  SOSCFStart         ....  0.003300
   Hessian update      SOSCFHessUp        .... L-BFGS
   Autom. constraints  SOSCFAutoConstrain .... off
 Level Shifting         CNVShift        .... on
   Level shift para.    LevelShift      ....    0.2500
   Turn off err/grad.   ShiftErr        ....    0.0010
 Zerner damping         CNVZerner       .... off
 Static damping         CNVDamp         .... on
   Fraction old density DampFac         ....    0.7000
   Max. Damping (<1)    DampMax         ....    0.9800
   Min. Damping (>=0)   DampMin         ....    0.0000
   Turn off err/grad.   DampErr         ....    0.1000

SCF Procedure:
 Maximum # iterations   MaxIter         ....   125
 SCF integral mode      SCFMode         .... Direct
   Integral package                     .... SHARK and LIBINT hybrid scheme
 Reset frequency        DirectResetFreq ....    20
 Integral Threshold     Thresh          ....  2.500e-11 Eh
 Primitive CutOff       TCut            ....  2.500e-12 Eh

Convergence Tolerance:
 Convergence Check Mode ConvCheckMode   .... Total+1el-Energy
 Convergence forced     ConvForced      .... 0
 Energy Change          TolE            ....  1.000e-08 Eh
 1-El. energy change                    ....  1.000e-05 Eh
 Orbital Gradient       TolG            ....  1.000e-05
 Orbital Rotation angle TolX            ....  1.000e-05
 DIIS Error             TolErr          ....  5.000e-07

------------------------------
INITIAL GUESS: MODEL POTENTIAL
------------------------------
Loading Hartree-Fock densities                     ... done
Calculating cut-offs                               ... done
Initializing the effective Hamiltonian             ... done
Setting up the integral package (SHARK)            ... done
Starting the Coulomb interaction                   ... done (   2.8 sec)
Making the grid                                    ... done (   1.1 sec)
Mapping shells                                     ... done
Starting the XC term evaluation                    ... done (   1.6 sec)
  promolecular density results
     # of electrons  =    241.989366880
     EX              =   -200.715753529
     EC              =     -8.194324486
     EX+EC           =   -208.910078015
Transforming the Hamiltonian                       ... done (   0.1 sec)
Diagonalizing the Hamiltonian                      ... done (   0.1 sec)
Back transforming the eigenvectors                 ... done (   0.1 sec)
Now organizing SCF variables                       ... done
                      ------------------
                      INITIAL GUESS DONE (   5.9 sec)
                      ------------------
             **** ENERGY FILE WAS UPDATED (Apixaban_SMD_chloroform_Opt_Freq_KeepDens.en.tmp) ****
Finished Guess after   6.4 sec
Maximum memory used throughout the entire GUESS-calculation: 58.8 MB


           ************************************************************
           *        Program running with 4 parallel MPI-processes     *
           *              working on a common directory               *
           ************************************************************

-------------------------------------------------------------------------------------------
                                      ORCA LEAN-SCF
                              memory conserving SCF solver
-------------------------------------------------------------------------------------------

--------------------
CPCM SOLVATION MODEL
--------------------
CPCM parameters:
  Epsilon                                         ...       4.7113
  Refrac                                          ...       1.4459
  Rsolv                                           ...       1.3000
  Surface type                                    ... GAUSSIAN VDW
  Discretization scheme                           ... Constant charge density
    Threshold for H atoms                         ...       5.0000 (charges/Ang^2)
    Threshold for non-H atoms                     ...       5.0000 (charges/Ang^2)
  Epsilon function type                           ...         CPCM
Solvent:                                          ... CHLOROFORM
SMD-CDS solvent descriptors:
  Soln                                            ...       1.4459
  Soln25                                          ...       1.4431
  Sola                                            ...       0.1500
  Solb                                            ...       0.0200
  Solg                                            ...      38.3900
  Solc                                            ...       0.0000
  Solh                                            ...       0.7500
Radii:
  Scheme                                          ... Element-dependent radii
  Radius for C  used is    3.4960 Bohr (=   1.8500 Ang.)
  Radius for N  used is    3.5716 Bohr (=   1.8900 Ang.)
  Radius for O  used is    3.8248 Bohr (=   2.0240 Ang.)
  Radius for H  used is    2.2677 Bohr (=   1.2000 Ang.)
Calculating surface                               ...        done! (  0.0s)
Cavity surface points                             ...         4516
Cavity Volume                                     ...    3253.0875
Cavity Surface-area                               ...    1734.2679
Calculating surface distance matrix               ...        done! (  0.2s)
Performing Cholesky decomposition & store         ...        done! (  1.7s)
Overall time for CPCM initialization              ...                 2.0s

----------------------------------------D-I-I-S--------------------------------------------
Iteration    Energy (Eh)           Delta-E    RMSDP     MaxDP     DIISErr   Damp  Time(sec)
-------------------------------------------------------------------------------------------
               ***  Starting incremental Fock matrix formation  ***
    1    -1541.4045726144258879     0.00e+00  4.03e-03  1.81e-01  2.86e-01  0.700  19.7
    2    -1541.7567917603992100    -3.52e-01  3.20e-03  1.43e-01  1.09e-01  0.700  16.7
                               ***Turning on AO-DIIS***
    3    -1541.8845126887372317    -1.28e-01  1.29e-03  3.87e-02  3.82e-02  0.700  16.2
    4    -1541.9659375794672087    -8.14e-02  2.32e-03  5.84e-02  1.62e-02  0.000  15.5
    5    -1542.1457119865244749    -1.80e-01  7.19e-04  3.79e-02  7.01e-03  0.000  15.7
                              *** Initializing SOSCF ***
---------------------------------------S-O-S-C-F--------------------------------------
Iteration    Energy (Eh)           Delta-E    RMSDP     MaxDP     MaxGrad    Time(sec)
--------------------------------------------------------------------------------------
    6    -1542.1469345184195845    -1.22e-03  2.93e-04  1.16e-02  3.01e-03    15.2
               *** Restarting incremental Fock matrix formation ***
    7    -1542.1470061292820901    -7.16e-05  2.23e-04  1.40e-02  4.51e-04    19.3
    8    -1542.1468821670705438     1.24e-04  1.11e-04  8.99e-03  1.26e-03    13.2
    9    -1542.1470325281034093    -1.50e-04  2.91e-05  1.93e-03  6.11e-05    13.0
   10    -1542.1470306026967592     1.93e-06  1.67e-05  1.16e-03  1.30e-04    12.0
   11    -1542.1470332062144735    -2.60e-06  8.08e-06  2.98e-04  3.30e-05    13.5
   12    -1542.1470329544181368     2.52e-07  5.10e-06  1.79e-04  6.67e-05    12.0
   13    -1542.1470333026245498    -3.48e-07  4.02e-06  3.06e-04  6.25e-06    11.4
   14    -1542.1470332886055985     1.40e-08  1.82e-06  8.17e-05  1.08e-05    10.9
   15    -1542.1470332982507898    -9.65e-09  3.84e-06  2.65e-04  1.67e-06    10.7
                 **** Energy Check signals convergence ****

               *****************************************************
               *                     SUCCESS                       *
               *           SCF CONVERGED AFTER  15 CYCLES          *
               *****************************************************


SMD CDS free energy correction energy :                -7.76502     Kcal/mol
Total Energy after SMD CDS correction =             -1542.159407646 Eh
             **** ENERGY FILE WAS UPDATED (Apixaban_SMD_chloroform_Opt_Freq_KeepDens.en.tmp) ****

----------------
TOTAL SCF ENERGY
----------------

Total Energy       :      -1542.15940764614288 Eh          -41964.29091 eV

Components:
Nuclear Repulsion  :       3308.64388488467739 Eh           90032.77729 eV
Electronic Energy  :      -4850.75051473689928 Eh         -131995.63203 eV
One Electron Energy:      -8678.90757538829530 Eh         -236165.08153 eV
Two Electron Energy:       3828.15706065139648 Eh          104169.44949 eV
CPCM Dielectric    :         -0.04040345261389 Eh              -1.09943 eV
SMD CDS (Gcds)     :         -0.01237434130746 Eh              -0.33672 eV

Virial components:
Potential Energy   :      -3077.46807814558179 Eh          -83742.16378 eV
Kinetic Energy     :       1535.30867049943913 Eh           41777.87287 eV
Virial Ratio       :          2.00446212366174

DFT components:
N(Alpha)           :      120.999967048342 electrons
N(Beta)            :      120.999967048342 electrons
N(Total)           :      241.999934096683 electrons
E(X)               :     -205.553097308677 Eh       
E(C)               :       -7.985148799890 Eh       
E(XC)              :     -213.538246108567 Eh       

CPCM Solvation Model Properties:
Surface-charge          :         -0.05707964007656
Corrected charge        :          0.00000000000000
Outlying charge corr.   :          0.00011296893783 Eh               0.00307 eV
Free-energy (cav+disp)  :         -0.01237434130746 Eh              -0.33672 eV

---------------
SCF CONVERGENCE
---------------

  Last Energy change         ...    9.6452e-09  Tolerance :   1.0000e-08
  Last MAX-Density change    ...    2.6496e-04  Tolerance :   1.0000e-07
  Last RMS-Density change    ...    3.8446e-06  Tolerance :   5.0000e-09
  Last DIIS Error            ...    3.0129e-03  Tolerance :   5.0000e-07
  Last Orbital Gradient      ...    1.6734e-06  Tolerance :   1.0000e-05
  Last Orbital Rotation      ...    6.4157e-06  Tolerance :   1.0000e-05


----------------
ORBITAL ENERGIES
----------------

  NO   OCC          E(Eh)            E(eV) 
   0   2.0000     -18.991397      -516.7822 
   1   2.0000     -18.926064      -515.0044 
   2   2.0000     -18.919032      -514.8130 
   3   2.0000     -18.911713      -514.6139 
   4   2.0000     -14.265663      -388.1884 
   5   2.0000     -14.207242      -386.5987 
   6   2.0000     -14.199676      -386.3928 
   7   2.0000     -14.199394      -386.3852 
   8   2.0000     -14.178541      -385.8177 
   9   2.0000     -10.146959      -276.1128 
  10   2.0000     -10.139767      -275.9171 
  11   2.0000     -10.128457      -275.6093 
  12   2.0000     -10.103308      -274.9250 
  13   2.0000     -10.082826      -274.3677 
  14   2.0000     -10.080967      -274.3171 
  15   2.0000     -10.080311      -274.2992 
  16   2.0000     -10.079885      -274.2876 
  17   2.0000     -10.077587      -274.2251 
  18   2.0000     -10.075987      -274.1816 
  19   2.0000     -10.071306      -274.0542 
  20   2.0000     -10.068780      -273.9854 
  21   2.0000     -10.054835      -273.6060 
  22   2.0000     -10.048746      -273.4403 
  23   2.0000     -10.047016      -273.3932 
  24   2.0000     -10.044894      -273.3355 
  25   2.0000     -10.042179      -273.2616 
  26   2.0000     -10.041386      -273.2400 
  27   2.0000     -10.041240      -273.2360 
  28   2.0000     -10.039115      -273.1782 
  29   2.0000     -10.038767      -273.1687 
  30   2.0000     -10.038377      -273.1581 
  31   2.0000     -10.033437      -273.0237 
  32   2.0000     -10.032032      -272.9855 
  33   2.0000     -10.030289      -272.9381 
  34   2.0000      -1.042892       -28.3785 
  35   2.0000      -1.035813       -28.1859 
  36   2.0000      -1.009704       -27.4755 
  37   2.0000      -0.999220       -27.1902 
  38   2.0000      -0.997675       -27.1481 
  39   2.0000      -0.920504       -25.0482 
  40   2.0000      -0.909529       -24.7495 
  41   2.0000      -0.874381       -23.7931 
  42   2.0000      -0.849477       -23.1154 
  43   2.0000      -0.825484       -22.4626 
  44   2.0000      -0.804252       -21.8848 
  45   2.0000      -0.795195       -21.6384 
  46   2.0000      -0.772177       -21.0120 
  47   2.0000      -0.739887       -20.1334 
  48   2.0000      -0.728364       -19.8198 
  49   2.0000      -0.723564       -19.6892 
  50   2.0000      -0.716362       -19.4932 
  51   2.0000      -0.711262       -19.3544 
  52   2.0000      -0.709180       -19.2978 
  53   2.0000      -0.670683       -18.2502 
  54   2.0000      -0.643326       -17.5058 
  55   2.0000      -0.633369       -17.2348 
  56   2.0000      -0.623157       -16.9570 
  57   2.0000      -0.619162       -16.8483 
  58   2.0000      -0.591617       -16.0987 
  59   2.0000      -0.590703       -16.0739 
  60   2.0000      -0.577392       -15.7116 
  61   2.0000      -0.567583       -15.4447 
  62   2.0000      -0.555382       -15.1127 
  63   2.0000      -0.542108       -14.7515 
  64   2.0000      -0.529582       -14.4107 
  65   2.0000      -0.516819       -14.0634 
  66   2.0000      -0.507505       -13.8099 
  67   2.0000      -0.502852       -13.6833 
  68   2.0000      -0.490958       -13.3596 
  69   2.0000      -0.479346       -13.0437 
  70   2.0000      -0.474190       -12.9034 
  71   2.0000      -0.471748       -12.8369 
  72   2.0000      -0.464300       -12.6343 
  73   2.0000      -0.457612       -12.4523 
  74   2.0000      -0.445569       -12.1245 
  75   2.0000      -0.435604       -11.8534 
  76   2.0000      -0.433703       -11.8017 
  77   2.0000      -0.427890       -11.6435 
  78   2.0000      -0.425363       -11.5747 
  79   2.0000      -0.420702       -11.4479 
  80   2.0000      -0.418648       -11.3920 
  81   2.0000      -0.413782       -11.2596 
  82   2.0000      -0.410331       -11.1657 
  83   2.0000      -0.401755       -10.9323 
  84   2.0000      -0.400448       -10.8967 
  85   2.0000      -0.397809       -10.8249 
  86   2.0000      -0.396338       -10.7849 
  87   2.0000      -0.391785       -10.6610 
  88   2.0000      -0.386735       -10.5236 
  89   2.0000      -0.383593       -10.4381 
  90   2.0000      -0.378066       -10.2877 
  91   2.0000      -0.376039       -10.2325 
  92   2.0000      -0.372714       -10.1421 
  93   2.0000      -0.370552       -10.0832 
  94   2.0000      -0.363976        -9.9043 
  95   2.0000      -0.359182        -9.7738 
  96   2.0000      -0.355902        -9.6846 
  97   2.0000      -0.351883        -9.5752 
  98   2.0000      -0.344990        -9.3877 
  99   2.0000      -0.337527        -9.1846 
 100   2.0000      -0.332890        -9.0584 
 101   2.0000      -0.323766        -8.8101 
 102   2.0000      -0.318400        -8.6641 
 103   2.0000      -0.312716        -8.5094 
 104   2.0000      -0.304648        -8.2899 
 105   2.0000      -0.303456        -8.2575 
 106   2.0000      -0.301937        -8.2161 
 107   2.0000      -0.301374        -8.2008 
 108   2.0000      -0.285112        -7.7583 
 109   2.0000      -0.269853        -7.3431 
 110   2.0000      -0.251863        -6.8535 
 111   2.0000      -0.251140        -6.8339 
 112   2.0000      -0.247153        -6.7254 
 113   2.0000      -0.245513        -6.6808 
 114   2.0000      -0.241088        -6.5603 
 115   2.0000      -0.232107        -6.3160 
 116   2.0000      -0.229888        -6.2556 
 117   2.0000      -0.227071        -6.1789 
 118   2.0000      -0.216091        -5.8801 
 119   2.0000      -0.205704        -5.5975 
 120   2.0000      -0.197290        -5.3685 
 121   0.0000      -0.078280        -2.1301 
 122   0.0000      -0.051494        -1.4012 
 123   0.0000      -0.042031        -1.1437 
 124   0.0000      -0.037709        -1.0261 
 125   0.0000      -0.035091        -0.9549 
 126   0.0000      -0.025493        -0.6937 
 127   0.0000       0.002148         0.0585 
 128   0.0000       0.052203         1.4205 
 129   0.0000       0.061233         1.6662 
 130   0.0000       0.069592         1.8937 
 131   0.0000       0.073255         1.9934 
*Only the first 10 virtual orbitals were printed.

                    ********************************
                    * MULLIKEN POPULATION ANALYSIS *
                    ********************************

-----------------------
MULLIKEN ATOMIC CHARGES
-----------------------
   0 C :   -0.264266
   1 C :   -0.361310
   2 C :    0.240462
   3 N :    0.253237
   4 C :   -0.278835
   5 C :   -0.327325
   6 C :    0.040282
   7 C :   -0.305249
   8 C :   -0.298166
   9 C :    0.031331
  10 C :   -0.264782
  11 C :   -0.280325
  12 N :    0.312672
  13 C :   -0.291032
  14 C :   -0.482595
  15 C :    0.010397
  16 C :   -0.011165
  17 C :   -0.050565
  18 O :   -0.469088
  19 O :   -0.432029
  20 C :    0.304146
  21 N :   -0.507986
  22 N :    0.897349
  23 C :   -0.060167
  24 C :    0.025322
  25 N :   -0.418140
  26 O :   -0.438133
  27 C :   -0.220186
  28 C :   -0.350169
  29 C :    0.336292
  30 C :   -0.251097
  31 C :   -0.289368
  32 O :   -0.192831
  33 C :   -0.346895
  34 H :    0.163585
  35 H :    0.164721
  36 H :    0.190908
  37 H :    0.185294
  38 H :    0.178247
  39 H :    0.172497
  40 H :    0.171896
  41 H :    0.169202
  42 H :    0.183426
  43 H :    0.183033
  44 H :    0.174275
  45 H :    0.173287
  46 H :    0.182634
  47 H :    0.192847
  48 H :    0.201991
  49 H :    0.200619
  50 H :    0.306051
  51 H :    0.289949
  52 H :    0.187988
  53 H :    0.184816
  54 H :    0.182751
  55 H :    0.184995
  56 H :    0.172073
  57 H :    0.171959
  58 H :    0.171172
Sum of atomic charges:   -0.0000000

--------------------------------
MULLIKEN REDUCED ORBITAL CHARGES
--------------------------------
  0 C s       :     3.211488  s :     3.211488
      pz      :     1.001208  p :     3.014212
      px      :     0.991544
      py      :     1.021460
      dz2     :     0.006465  d :     0.038566
      dxz     :     0.006900
      dyz     :     0.010198
      dx2y2   :     0.004580
      dxy     :     0.010424

  1 C s       :     3.253347  s :     3.253347
      pz      :     1.037681  p :     3.070643
      px      :     0.987927
      py      :     1.045036
      dz2     :     0.008343  d :     0.037320
      dxz     :     0.004413
      dyz     :     0.008619
      dx2y2   :     0.004606
      dxy     :     0.011338

  2 C s       :     3.152994  s :     3.152994
      pz      :     0.807323  p :     2.494993
      px      :     0.876944
      py      :     0.810726
      dz2     :     0.025057  d :     0.111551
      dxz     :     0.019075
      dyz     :     0.017975
      dx2y2   :     0.018461
      dxy     :     0.030983

  3 N s       :     3.127258  s :     3.127258
      pz      :     1.262176  p :     3.449051
      px      :     0.981927
      py      :     1.204947
      dz2     :     0.030009  d :     0.170455
      dxz     :     0.039831
      dyz     :     0.037952
      dx2y2   :     0.023933
      dxy     :     0.038730

  4 C s       :     3.304365  s :     3.304365
      pz      :     0.954856  p :     2.925705
      px      :     1.067675
      py      :     0.903175
      dz2     :     0.010177  d :     0.048765
      dxz     :     0.006847
      dyz     :     0.013869
      dx2y2   :     0.008045
      dxy     :     0.009827

  5 C s       :     3.266456  s :     3.266456
      pz      :     1.101540  p :     3.022171
      px      :     0.940881
      py      :     0.979750
      dz2     :     0.004665  d :     0.038697
      dxz     :     0.006655
      dyz     :     0.010527
      dx2y2   :     0.006075
      dxy     :     0.010776

  6 C s       :     3.235702  s :     3.235702
      pz      :     0.751059  p :     2.662439
      px      :     0.906780
      py      :     1.004600
      dz2     :     0.015120  d :     0.061577
      dxz     :     0.016572
      dyz     :     0.009745
      dx2y2   :     0.010020
      dxy     :     0.010120

  7 C s       :     3.297063  s :     3.297063
      pz      :     1.033063  p :     2.970144
      px      :     0.968991
      py      :     0.968090
      dz2     :     0.008507  d :     0.038042
      dxz     :     0.011742
      dyz     :     0.005050
      dx2y2   :     0.006291
      dxy     :     0.006451

  8 C s       :     3.284404  s :     3.284404
      pz      :     1.006655  p :     2.975804
      px      :     1.003330
      py      :     0.965820
      dz2     :     0.009290  d :     0.037958
      dxz     :     0.011613
      dyz     :     0.005721
      dx2y2   :     0.005731
      dxy     :     0.005602

  9 C s       :     3.225139  s :     3.225139
      pz      :     0.758542  p :     2.681774
      px      :     0.917776
      py      :     1.005455
      dz2     :     0.015233  d :     0.061757
      dxz     :     0.017979
      dyz     :     0.009465
      dx2y2   :     0.008646
      dxy     :     0.010433

 10 C s       :     3.305277  s :     3.305277
      pz      :     1.009810  p :     2.921641
      px      :     0.921199
      py      :     0.990632
      dz2     :     0.008527  d :     0.037864
      dxz     :     0.011571
      dyz     :     0.005117
      dx2y2   :     0.006313
      dxy     :     0.006337

 11 C s       :     3.280669  s :     3.280669
      pz      :     0.991810  p :     2.961818
      px      :     0.986839
      py      :     0.983169
      dz2     :     0.009095  d :     0.037838
      dxz     :     0.011438
      dyz     :     0.005854
      dx2y2   :     0.005996
      dxy     :     0.005455

 12 N s       :     3.131935  s :     3.131935
      pz      :     1.345818  p :     3.387144
      px      :     0.873766
      py      :     1.167560
      dz2     :     0.027386  d :     0.168249
      dxz     :     0.043016
      dyz     :     0.022631
      dx2y2   :     0.022601
      dxy     :     0.052614

 13 C s       :     3.330105  s :     3.330105
      pz      :     0.937460  p :     2.913084
      px      :     1.088975
      py      :     0.886648
      dz2     :     0.012033  d :     0.047844
      dxz     :     0.004040
      dyz     :     0.014212
      dx2y2   :     0.009022
      dxy     :     0.008537

 14 C s       :     3.448438  s :     3.448438
      pz      :     1.121342  p :     2.994826
      px      :     0.920750
      py      :     0.952734
      dz2     :     0.005451  d :     0.039331
      dxz     :     0.006199
      dyz     :     0.009590
      dx2y2   :     0.007112
      dxy     :     0.010979

 15 C s       :     3.339775  s :     3.339775
      pz      :     1.000546  p :     2.599282
      px      :     0.734975
      py      :     0.863761
      dz2     :     0.005073  d :     0.050546
      dxz     :     0.008180
      dyz     :     0.007773
      dx2y2   :     0.018235
      dxy     :     0.011285

 16 C s       :     3.224240  s :     3.224240
      pz      :     0.983924  p :     2.728236
      px      :     0.945605
      py      :     0.798707
      dz2     :     0.006798  d :     0.058689
      dxz     :     0.010170
      dyz     :     0.006900
      dx2y2   :     0.017944
      dxy     :     0.016876

 17 C s       :     3.246145  s :     3.246145
      pz      :     0.790948  p :     2.689504
      px      :     1.018616
      py      :     0.879940
      dz2     :     0.015794  d :     0.114916
      dxz     :     0.018441
      dyz     :     0.016169
      dx2y2   :     0.021641
      dxy     :     0.042872

 18 O s       :     3.827589  s :     3.827589
      pz      :     1.504640  p :     4.615335
      px      :     1.742629
      py      :     1.368066
      dz2     :     0.004224  d :     0.026165
      dxz     :     0.003578
      dyz     :     0.010787
      dx2y2   :     0.007660
      dxy     :    -0.000084

 19 O s       :     3.848124  s :     3.848124
      pz      :     1.444103  p :     4.558224
      px      :     1.794780
      py      :     1.319340
      dz2     :     0.005307  d :     0.025682
      dxz     :     0.001624
      dyz     :     0.011714
      dx2y2   :     0.008168
      dxy     :    -0.001131

 20 C s       :     3.100015  s :     3.100015
      pz      :     0.983884  p :     2.534932
      px      :     0.758382
      py      :     0.792666
      dz2     :     0.005680  d :     0.060907
      dxz     :     0.010005
      dyz     :     0.008219
      dx2y2   :     0.017122
      dxy     :     0.019882

 21 N s       :     3.696276  s :     3.696276
      pz      :     1.192427  p :     3.718419
      px      :     1.525132
      py      :     1.000860
      dz2     :     0.018211  d :     0.093291
      dxz     :     0.021065
      dyz     :     0.022421
      dx2y2   :    -0.001624
      dxy     :     0.033218

 22 N s       :     2.772625  s :     2.772625
      pz      :     1.318872  p :     3.080974
      px      :     0.915659
      py      :     0.846443
      dz2     :     0.028824  d :     0.249052
      dxz     :     0.043173
      dyz     :     0.041075
      dx2y2   :     0.058659
      dxy     :     0.077321

 23 C s       :     3.245454  s :     3.245454
      pz      :     0.859058  p :     2.755373
      px      :     0.950701
      py      :     0.945614
      dz2     :     0.014132  d :     0.059340
      dxz     :     0.010574
      dyz     :     0.015902
      dx2y2   :     0.009439
      dxy     :     0.009293

 24 C s       :     3.159876  s :     3.159876
      pz      :     0.823782  p :     2.698344
      px      :     0.923923
      py      :     0.950639
      dz2     :     0.008328  d :     0.116459
      dxz     :     0.022055
      dyz     :     0.014275
      dx2y2   :     0.045466
      dxy     :     0.026335

 25 N s       :     3.422775  s :     3.422775
      pz      :     1.638402  p :     3.967520
      px      :     1.055480
      py      :     1.273638
      dz2     :     0.003498  d :     0.027845
      dxz     :     0.003619
      dyz     :     0.003407
      dx2y2   :     0.008203
      dxy     :     0.009118

 26 O s       :     3.827007  s :     3.827007
      pz      :     1.498656  p :     4.586956
      px      :     1.618893
      py      :     1.469407
      dz2     :     0.004651  d :     0.024170
      dxz     :     0.003957
      dyz     :     0.005325
      dx2y2   :    -0.001120
      dxy     :     0.011358

 27 C s       :     3.225931  s :     3.225931
      pz      :     0.961593  p :     2.955294
      px      :     1.017770
      py      :     0.975931
      dz2     :     0.010016  d :     0.038961
      dxz     :     0.007344
      dyz     :     0.009501
      dx2y2   :     0.005261
      dxy     :     0.006838

 28 C s       :     3.289937  s :     3.289937
      pz      :     1.040337  p :     3.023794
      px      :     0.998732
      py      :     0.984726
      dz2     :     0.006957  d :     0.036437
      dxz     :     0.005791
      dyz     :     0.009539
      dx2y2   :     0.006929
      dxy     :     0.007222

 29 C s       :     3.091998  s :     3.091998
      pz      :     0.787414  p :     2.496388
      px      :     0.900014
      py      :     0.808960
      dz2     :     0.015348  d :     0.075322
      dxz     :     0.013202
      dyz     :     0.018777
      dx2y2   :     0.015020
      dxy     :     0.012974

 30 C s       :     3.218133  s :     3.218133
      pz      :     0.938214  p :     2.996710
      px      :     1.060630
      py      :     0.997867
      dz2     :     0.009254  d :     0.036255
      dxz     :     0.006533
      dyz     :     0.009262
      dx2y2   :     0.004766
      dxy     :     0.006440

 31 C s       :     3.286104  s :     3.286104
      pz      :     1.036516  p :     2.964388
      px      :     0.948632
      py      :     0.979241
      dz2     :     0.007259  d :     0.038876
      dxz     :     0.005937
      dyz     :     0.009662
      dx2y2   :     0.008597
      dxy     :     0.007422

 32 O s       :     3.709550  s :     3.709550
      pz      :     1.624729  p :     4.444735
      px      :     1.518053
      py      :     1.301952
      dz2     :     0.009057  d :     0.038546
      dxz     :     0.008106
      dyz     :     0.012453
      dx2y2   :     0.004366
      dxy     :     0.004564

 33 C s       :     3.359016  s :     3.359016
      pz      :     1.026609  p :     2.942422
      px      :     0.922271
      py      :     0.993541
      dz2     :     0.006740  d :     0.045458
      dxz     :     0.009074
      dyz     :     0.011011
      dx2y2   :     0.007911
      dxy     :     0.010721

 34 H s       :     0.818924  s :     0.818924
      pz      :     0.007858  p :     0.017491
      px      :     0.004219
      py      :     0.005413

 35 H s       :     0.817555  s :     0.817555
      pz      :     0.004034  p :     0.017724
      px      :     0.007572
      py      :     0.006117

 36 H s       :     0.791261  s :     0.791261
      pz      :     0.008786  p :     0.017831
      px      :     0.003615
      py      :     0.005430

 37 H s       :     0.797013  s :     0.797013
      pz      :     0.003769  p :     0.017693
      px      :     0.007058
      py      :     0.006867

 38 H s       :     0.804040  s :     0.804040
      pz      :     0.003406  p :     0.017713
      px      :     0.009282
      py      :     0.005024

 39 H s       :     0.810107  s :     0.810107
      pz      :     0.009054  p :     0.017396
      px      :     0.004159
      py      :     0.004183

 40 H s       :     0.810653  s :     0.810653
      pz      :     0.007834  p :     0.017451
      px      :     0.004246
      py      :     0.005371

 41 H s       :     0.813131  s :     0.813131
      pz      :     0.007291  p :     0.017667
      px      :     0.003755
      py      :     0.006621

 42 H s       :     0.797074  s :     0.797074
      pz      :     0.010997  p :     0.019500
      px      :     0.004156
      py      :     0.004347

 43 H s       :     0.797461  s :     0.797461
      pz      :     0.009039  p :     0.019506
      px      :     0.006540
      py      :     0.003928

 44 H s       :     0.806122  s :     0.806122
      pz      :     0.010970  p :     0.019603
      px      :     0.004102
      py      :     0.004532

 45 H s       :     0.807122  s :     0.807122
      pz      :     0.009085  p :     0.019591
      px      :     0.006420
      py      :     0.004085

 46 H s       :     0.799356  s :     0.799356
      pz      :     0.003110  p :     0.018010
      px      :     0.010555
      py      :     0.004344

 47 H s       :     0.789889  s :     0.789889
      pz      :     0.009472  p :     0.017263
      px      :     0.003871
      py      :     0.003920

 48 H s       :     0.780300  s :     0.780300
      pz      :     0.007895  p :     0.017709
      px      :     0.004180
      py      :     0.005633

 49 H s       :     0.781305  s :     0.781305
      pz      :     0.007811  p :     0.018076
      px      :     0.003453
      py      :     0.006812

 50 H s       :     0.660879  s :     0.660879
      pz      :     0.010255  p :     0.033070
      px      :     0.008407
      py      :     0.014408

 51 H s       :     0.677397  s :     0.677397
      pz      :     0.009798  p :     0.032654
      px      :     0.006930
      py      :     0.015925

 52 H s       :     0.792559  s :     0.792559
      pz      :     0.005967  p :     0.019452
      px      :     0.007632
      py      :     0.005853

 53 H s       :     0.795754  s :     0.795754
      pz      :     0.011175  p :     0.019430
      px      :     0.004084
      py      :     0.004171

 54 H s       :     0.797104  s :     0.797104
      pz      :     0.006285  p :     0.020145
      px      :     0.007850
      py      :     0.006010

 55 H s       :     0.795574  s :     0.795574
      pz      :     0.011170  p :     0.019431
      px      :     0.004033
      py      :     0.004229

 56 H s       :     0.810510  s :     0.810510
      pz      :     0.009337  p :     0.017417
      px      :     0.003845
      py      :     0.004236

 57 H s       :     0.810539  s :     0.810539
      pz      :     0.005767  p :     0.017502
      px      :     0.003569
      py      :     0.008166

 58 H s       :     0.811404  s :     0.811404
      pz      :     0.003658  p :     0.017424
      px      :     0.008788
      py      :     0.004977



                     *******************************
                     * LOEWDIN POPULATION ANALYSIS *
                     *******************************

----------------------
LOEWDIN ATOMIC CHARGES
----------------------
   0 C :   -0.289930
   1 C :   -0.232900
   2 C :    0.358930
   3 N :   -0.747917
   4 C :   -0.009906
   5 C :   -0.268958
   6 C :    0.138428
   7 C :   -0.103202
   8 C :   -0.105863
   9 C :    0.139841
  10 C :   -0.128128
  11 C :   -0.125699
  12 N :   -0.737525
  13 C :    0.002715
  14 C :   -0.225225
  15 C :    0.029986
  16 C :    0.255647
  17 C :    0.400455
  18 O :   -0.505764
  19 O :   -0.463280
  20 C :    0.212203
  21 N :   -0.339373
  22 N :   -0.569854
  23 C :    0.149984
  24 C :    0.344579
  25 N :   -0.459713
  26 O :   -0.498577
  27 C :   -0.086037
  28 C :   -0.132433
  29 C :    0.191087
  30 C :   -0.168178
  31 C :   -0.096070
  32 O :   -0.680278
  33 C :   -0.053965
  34 H :    0.163721
  35 H :    0.163698
  36 H :    0.189560
  37 H :    0.185028
  38 H :    0.194914
  39 H :    0.180149
  40 H :    0.166794
  41 H :    0.169548
  42 H :    0.193912
  43 H :    0.193620
  44 H :    0.189371
  45 H :    0.188551
  46 H :    0.202507
  47 H :    0.186205
  48 H :    0.185456
  49 H :    0.190725
  50 H :    0.280386
  51 H :    0.274982
  52 H :    0.195487
  53 H :    0.193092
  54 H :    0.191080
  55 H :    0.193034
  56 H :    0.173844
  57 H :    0.185405
  58 H :    0.173852

-------------------------------
LOEWDIN REDUCED ORBITAL CHARGES
-------------------------------
  0 C s       :     2.929556  s :     2.929556
      pz      :     1.100250  p :     3.279300
      px      :     1.084836
      py      :     1.094213
      dz2     :     0.013260  d :     0.081075
      dxz     :     0.014244
      dyz     :     0.022441
      dx2y2   :     0.008429
      dxy     :     0.022701

  1 C s       :     2.921258  s :     2.921258
      pz      :     1.099284  p :     3.235788
      px      :     1.044832
      py      :     1.091673
      dz2     :     0.016526  d :     0.075853
      dxz     :     0.008068
      dyz     :     0.019329
      dx2y2   :     0.008295
      dxy     :     0.023636

  2 C s       :     2.733609  s :     2.733609
      pz      :     0.841441  p :     2.670958
      px      :     0.929616
      py      :     0.899901
      dz2     :     0.049582  d :     0.236503
      dxz     :     0.039294
      dyz     :     0.044182
      dx2y2   :     0.037855
      dxy     :     0.065589

  3 N s       :     3.094260  s :     3.094260
      pz      :     1.350856  p :     3.940508
      px      :     1.245073
      py      :     1.344579
      dz2     :     0.129300  d :     0.713149
      dxz     :     0.149913
      dyz     :     0.130509
      dx2y2   :     0.151361
      dxy     :     0.152067

  4 C s       :     2.846344  s :     2.846344
      pz      :     1.004149  p :     3.058567
      px      :     1.074808
      py      :     0.979610
      dz2     :     0.022628  d :     0.104995
      dxz     :     0.015103
      dyz     :     0.029202
      dx2y2   :     0.014952
      dxy     :     0.023110

  5 C s       :     2.927453  s :     2.927453
      pz      :     1.130662  p :     3.261069
      px      :     1.058043
      py      :     1.072363
      dz2     :     0.009360  d :     0.080437
      dxz     :     0.013890
      dyz     :     0.023697
      dx2y2   :     0.011354
      dxy     :     0.022136

  6 C s       :     2.777309  s :     2.777309
      pz      :     1.081335  p :     2.953985
      px      :     0.934685
      py      :     0.937965
      dz2     :     0.031851  d :     0.130278
      dxz     :     0.037357
      dyz     :     0.019230
      dx2y2   :     0.020562
      dxy     :     0.021278

  7 C s       :     2.895732  s :     2.895732
      pz      :     1.088351  p :     3.127640
      px      :     1.044908
      py      :     0.994381
      dz2     :     0.019794  d :     0.079830
      dxz     :     0.025589
      dyz     :     0.009852
      dx2y2   :     0.011956
      dxy     :     0.012639

  8 C s       :     2.895201  s :     2.895201
      pz      :     1.072644  p :     3.131048
      px      :     1.062486
      py      :     0.995917
      dz2     :     0.020813  d :     0.079614
      dxz     :     0.026108
      dyz     :     0.011115
      dx2y2   :     0.010691
      dxy     :     0.010887

  9 C s       :     2.775992  s :     2.775992
      pz      :     1.079231  p :     2.953835
      px      :     0.933532
      py      :     0.941072
      dz2     :     0.032023  d :     0.130332
      dxz     :     0.040361
      dyz     :     0.018599
      dx2y2   :     0.017521
      dxy     :     0.021828

 10 C s       :     2.893619  s :     2.893619
      pz      :     1.085718  p :     3.155120
      px      :     1.056268
      py      :     1.013134
      dz2     :     0.019850  d :     0.079389
      dxz     :     0.025192
      dyz     :     0.010015
      dx2y2   :     0.012116
      dxy     :     0.012216

 11 C s       :     2.893600  s :     2.893600
      pz      :     1.079315  p :     3.152609
      px      :     1.068609
      py      :     1.004684
      dz2     :     0.020359  d :     0.079490
      dxz     :     0.025758
      dyz     :     0.011410
      dx2y2   :     0.011453
      dxy     :     0.010510

 12 N s       :     3.094718  s :     3.094718
      pz      :     1.414269  p :     3.931846
      px      :     1.196713
      py      :     1.320864
      dz2     :     0.119724  d :     0.710961
      dxz     :     0.136585
      dyz     :     0.110481
      dx2y2   :     0.169828
      dxy     :     0.174344

 13 C s       :     2.846153  s :     2.846153
      pz      :     1.003843  p :     3.047630
      px      :     1.077533
      py      :     0.966254
      dz2     :     0.027343  d :     0.103503
      dxz     :     0.008579
      dyz     :     0.029665
      dx2y2   :     0.017924
      dxy     :     0.019991

 14 C s       :     2.908598  s :     2.908598
      pz      :     1.141217  p :     3.235473
      px      :     1.027515
      py      :     1.066741
      dz2     :     0.010810  d :     0.081154
      dxz     :     0.012588
      dyz     :     0.021938
      dx2y2   :     0.013341
      dxy     :     0.022477

 15 C s       :     2.834203  s :     2.834203
      pz      :     0.977762  p :     3.037208
      px      :     1.035952
      py      :     1.023494
      dz2     :     0.008774  d :     0.098603
      dxz     :     0.014361
      dyz     :     0.014102
      dx2y2   :     0.038034
      dxy     :     0.023332

 16 C s       :     2.748715  s :     2.748715
      pz      :     0.960218  p :     2.875147
      px      :     0.916648
      py      :     0.998281
      dz2     :     0.013453  d :     0.120491
      dxz     :     0.018486
      dyz     :     0.013815
      dx2y2   :     0.040801
      dxy     :     0.033936

 17 C s       :     2.708953  s :     2.708953
      pz      :     0.808266  p :     2.647618
      px      :     0.913129
      py      :     0.926223
      dz2     :     0.030347  d :     0.242975
      dxz     :     0.037421
      dyz     :     0.037421
      dx2y2   :     0.046958
      dxy     :     0.090828

 18 O s       :     3.552194  s :     3.552194
      pz      :     1.530447  p :     4.723918
      px      :     1.716270
      py      :     1.477202
      dz2     :     0.041835  d :     0.229652
      dxz     :     0.027746
      dyz     :     0.059340
      dx2y2   :     0.045174
      dxy     :     0.055557

 19 O s       :     3.548327  s :     3.548327
      pz      :     1.482393  p :     4.687767
      px      :     1.742900
      py      :     1.462474
      dz2     :     0.032684  d :     0.227187
      dxz     :     0.025424
      dyz     :     0.058513
      dx2y2   :     0.054029
      dxy     :     0.056537

 20 C s       :     2.771057  s :     2.771057
      pz      :     0.944175  p :     2.892642
      px      :     0.996175
      py      :     0.952293
      dz2     :     0.010734  d :     0.124097
      dxz     :     0.019284
      dyz     :     0.014671
      dx2y2   :     0.038183
      dxy     :     0.041226

 21 N s       :     3.156814  s :     3.156814
      pz      :     1.140286  p :     3.615185
      px      :     1.407774
      py      :     1.067125
      dz2     :     0.079494  d :     0.567374
      dxz     :     0.063668
      dyz     :     0.125000
      dx2y2   :     0.141710
      dxy     :     0.157502

 22 N s       :     2.983712  s :     2.983712
      pz      :     1.313104  p :     3.666744
      px      :     1.167224
      py      :     1.186416
      dz2     :     0.096995  d :     0.919398
      dxz     :     0.173666
      dyz     :     0.131704
      dx2y2   :     0.256223
      dxy     :     0.260809

 23 C s       :     2.766060  s :     2.766060
      pz      :     1.041204  p :     2.959932
      px      :     0.997581
      py      :     0.921147
      dz2     :     0.029660  d :     0.124023
      dxz     :     0.021481
      dyz     :     0.033652
      dx2y2   :     0.018800
      dxy     :     0.020430

 24 C s       :     2.733404  s :     2.733404
      pz      :     0.767708  p :     2.676664
      px      :     0.965182
      py      :     0.943775
      dz2     :     0.018567  d :     0.245353
      dxz     :     0.042744
      dyz     :     0.026772
      dx2y2   :     0.096698
      dxy     :     0.060573

 25 N s       :     3.136749  s :     3.136749
      pz      :     1.578418  p :     4.060013
      px      :     1.205853
      py      :     1.275742
      dz2     :     0.029600  d :     0.262951
      dxz     :     0.049249
      dyz     :     0.014114
      dx2y2   :     0.063997
      dxy     :     0.105992

 26 O s       :     3.555807  s :     3.555807
      pz      :     1.500666  p :     4.726099
      px      :     1.650255
      py      :     1.575177
      dz2     :     0.026966  d :     0.216671
      dxz     :     0.028589
      dyz     :     0.037016
      dx2y2   :     0.067448
      dxy     :     0.056651

 27 C s       :     2.895771  s :     2.895771
      pz      :     1.043752  p :     3.108995
      px      :     1.015176
      py      :     1.050066
      dz2     :     0.021022  d :     0.081272
      dxz     :     0.015324
      dyz     :     0.021052
      dx2y2   :     0.010019
      dxy     :     0.013855

 28 C s       :     2.894642  s :     2.894642
      pz      :     1.085590  p :     3.161304
      px      :     1.024971
      py      :     1.050743
      dz2     :     0.015961  d :     0.076487
      dxz     :     0.012063
      dyz     :     0.020393
      dx2y2   :     0.013429
      dxy     :     0.014641

 29 C s       :     2.781349  s :     2.781349
      pz      :     1.028246  p :     2.866660
      px      :     0.942646
      py      :     0.895769
      dz2     :     0.032191  d :     0.160904
      dxz     :     0.026238
      dyz     :     0.043422
      dx2y2   :     0.030941
      dxy     :     0.028112

 30 C s       :     2.893990  s :     2.893990
      pz      :     1.055235  p :     3.197566
      px      :     1.071079
      py      :     1.071252
      dz2     :     0.019365  d :     0.076622
      dxz     :     0.014005
      dyz     :     0.020876
      dx2y2   :     0.009275
      dxy     :     0.013102

 31 C s       :     2.895342  s :     2.895342
      pz      :     1.081646  p :     3.119732
      px      :     1.002435
      py      :     1.035651
      dz2     :     0.016442  d :     0.080996
      dxz     :     0.012382
      dyz     :     0.020530
      dx2y2   :     0.016549
      dxy     :     0.015092

 32 O s       :     3.475212  s :     3.475212
      pz      :     1.658093  p :     4.723107
      px      :     1.598805
      py      :     1.466210
      dz2     :     0.081888  d :     0.481959
      dxz     :     0.071405
      dyz     :     0.103526
      dx2y2   :     0.108961
      dxy     :     0.116178

 33 C s       :     2.910522  s :     2.910522
      pz      :     1.045531  p :     3.038639
      px      :     0.975523
      py      :     1.017584
      dz2     :     0.015592  d :     0.104805
      dxz     :     0.021544
      dyz     :     0.025992
      dx2y2   :     0.017168
      dxy     :     0.024509

 34 H s       :     0.793550  s :     0.793550
      pz      :     0.019492  p :     0.042728
      px      :     0.010007
      py      :     0.013229

 35 H s       :     0.793040  s :     0.793040
      pz      :     0.009644  p :     0.043262
      px      :     0.018604
      py      :     0.015013

 36 H s       :     0.766563  s :     0.766563
      pz      :     0.022373  p :     0.043877
      px      :     0.008467
      py      :     0.013037

 37 H s       :     0.771522  s :     0.771522
      pz      :     0.008966  p :     0.043450
      px      :     0.017016
      py      :     0.017468

 38 H s       :     0.764060  s :     0.764060
      pz      :     0.007092  p :     0.041026
      px      :     0.022833
      py      :     0.011101

 39 H s       :     0.779026  s :     0.779026
      pz      :     0.020876  p :     0.040824
      px      :     0.009662
      py      :     0.010287

 40 H s       :     0.790435  s :     0.790435
      pz      :     0.019677  p :     0.042771
      px      :     0.010212
      py      :     0.012882

 41 H s       :     0.787109  s :     0.787109
      pz      :     0.018319  p :     0.043343
      px      :     0.009001
      py      :     0.016024

 42 H s       :     0.761121  s :     0.761121
      pz      :     0.026231  p :     0.044967
      px      :     0.009015
      py      :     0.009721

 43 H s       :     0.761438  s :     0.761438
      pz      :     0.021202  p :     0.044943
      px      :     0.015092
      py      :     0.008648

 44 H s       :     0.765286  s :     0.765286
      pz      :     0.026165  p :     0.045344
      px      :     0.009121
      py      :     0.010058

 45 H s       :     0.766170  s :     0.766170
      pz      :     0.021381  p :     0.045279
      px      :     0.014943
      py      :     0.008955

 46 H s       :     0.755802  s :     0.755802
      pz      :     0.006593  p :     0.041691
      px      :     0.025677
      py      :     0.009421

 47 H s       :     0.772736  s :     0.772736
      pz      :     0.022340  p :     0.041059
      px      :     0.009149
      py      :     0.009570

 48 H s       :     0.771344  s :     0.771344
      pz      :     0.020196  p :     0.043200
      px      :     0.009564
      py      :     0.013440

 49 H s       :     0.764806  s :     0.764806
      pz      :     0.020012  p :     0.044468
      px      :     0.007845
      py      :     0.016611

 50 H s       :     0.630928  s :     0.630928
      pz      :     0.025447  p :     0.088686
      px      :     0.024076
      py      :     0.039163

 51 H s       :     0.637727  s :     0.637727
      pz      :     0.024484  p :     0.087292
      px      :     0.019658
      py      :     0.043149

 52 H s       :     0.759658  s :     0.759658
      pz      :     0.013578  p :     0.044854
      px      :     0.017695
      py      :     0.013582

 53 H s       :     0.761778  s :     0.761778
      pz      :     0.026736  p :     0.045130
      px      :     0.009051
      py      :     0.009344

 54 H s       :     0.761996  s :     0.761996
      pz      :     0.014655  p :     0.046924
      px      :     0.018470
      py      :     0.013799

 55 H s       :     0.762062  s :     0.762062
      pz      :     0.026825  p :     0.044904
      px      :     0.008809
      py      :     0.009270

 56 H s       :     0.785063  s :     0.785063
      pz      :     0.021818  p :     0.041093
      px      :     0.009802
      py      :     0.009473

 57 H s       :     0.774678  s :     0.774678
      pz      :     0.014621  p :     0.039917
      px      :     0.007126
      py      :     0.018170

 58 H s       :     0.785050  s :     0.785050
      pz      :     0.008023  p :     0.041098
      px      :     0.020579
      py      :     0.012496



                      *****************************
                      * MAYER POPULATION ANALYSIS *
                      *****************************

  NA   - Mulliken gross atomic population
  ZA   - Total nuclear charge
  QA   - Mulliken gross atomic charge
  VA   - Mayer's total valence
  BVA  - Mayer's bonded valence
  FA   - Mayer's free valence

  ATOM       NA         ZA         QA         VA         BVA        FA
  0 C      6.2643     6.0000    -0.2643     3.6004     3.6004     0.0000
  1 C      6.3613     6.0000    -0.3613     3.7116     3.7116     0.0000
  2 C      5.7595     6.0000     0.2405     3.9301     3.9301    -0.0000
  3 N      6.7468     7.0000     0.2532     3.1341     3.1341    -0.0000
  4 C      6.2788     6.0000    -0.2788     3.7262     3.7262    -0.0000
  5 C      6.3273     6.0000    -0.3273     3.7214     3.7214    -0.0000
  6 C      5.9597     6.0000     0.0403     3.7399     3.7399    -0.0000
  7 C      6.3052     6.0000    -0.3052     3.7783     3.7783    -0.0000
  8 C      6.2982     6.0000    -0.2982     3.7582     3.7582    -0.0000
  9 C      5.9687     6.0000     0.0313     3.7594     3.7594     0.0000
 10 C      6.2648     6.0000    -0.2648     3.6106     3.6106     0.0000
 11 C      6.2803     6.0000    -0.2803     3.6041     3.6041     0.0000
 12 N      6.6873     7.0000     0.3127     3.0933     3.0933    -0.0000
 13 C      6.2910     6.0000    -0.2910     3.6891     3.6891    -0.0000
 14 C      6.4826     6.0000    -0.4826     3.7045     3.7045    -0.0000
 15 C      5.9896     6.0000     0.0104     3.0534     3.0534    -0.0000
 16 C      6.0112     6.0000    -0.0112     3.6971     3.6971     0.0000
 17 C      6.0506     6.0000    -0.0506     3.9559     3.9559     0.0000
 18 O      8.4691     8.0000    -0.4691     1.9796     1.9796    -0.0000
 19 O      8.4320     8.0000    -0.4320     2.0396     2.0396     0.0000
 20 C      5.6959     6.0000     0.3041     3.5505     3.5505     0.0000
 21 N      7.5080     7.0000    -0.5080     3.1505     3.1505    -0.0000
 22 N      6.1027     7.0000     0.8973     3.4096     3.4096    -0.0000
 23 C      6.0602     6.0000    -0.0602     3.8530     3.8530    -0.0000
 24 C      5.9747     6.0000     0.0253     4.1655     4.1655     0.0000
 25 N      7.4181     7.0000    -0.4181     2.9824     2.9824    -0.0000
 26 O      8.4381     8.0000    -0.4381     2.0027     2.0027     0.0000
 27 C      6.2202     6.0000    -0.2202     3.7437     3.7437    -0.0000
 28 C      6.3502     6.0000    -0.3502     3.7709     3.7709    -0.0000
 29 C      5.6637     6.0000     0.3363     3.7811     3.7811    -0.0000
 30 C      6.2511     6.0000    -0.2511     3.6542     3.6542    -0.0000
 31 C      6.2894     6.0000    -0.2894     3.7051     3.7051    -0.0000
 32 O      8.1928     8.0000    -0.1928     2.0081     2.0081    -0.0000
 33 C      6.3469     6.0000    -0.3469     3.7334     3.7334    -0.0000
 34 H      0.8364     1.0000     0.1636     0.9608     0.9608     0.0000
 35 H      0.8353     1.0000     0.1647     0.9571     0.9571    -0.0000
 36 H      0.8091     1.0000     0.1909     0.9504     0.9504     0.0000
 37 H      0.8147     1.0000     0.1853     0.9525     0.9525     0.0000
 38 H      0.8218     1.0000     0.1782     0.9452     0.9452    -0.0000
 39 H      0.8275     1.0000     0.1725     0.9453     0.9453     0.0000
 40 H      0.8281     1.0000     0.1719     0.9592     0.9592    -0.0000
 41 H      0.8308     1.0000     0.1692     0.9558     0.9558    -0.0000
 42 H      0.8166     1.0000     0.1834     0.9581     0.9581    -0.0000
 43 H      0.8170     1.0000     0.1830     0.9573     0.9573    -0.0000
 44 H      0.8257     1.0000     0.1743     0.9632     0.9632     0.0000
 45 H      0.8267     1.0000     0.1733     0.9643     0.9643     0.0000
 46 H      0.8174     1.0000     0.1826     0.9475     0.9475    -0.0000
 47 H      0.8072     1.0000     0.1928     0.9322     0.9322    -0.0000
 48 H      0.7980     1.0000     0.2020     0.9416     0.9416     0.0000
 49 H      0.7994     1.0000     0.2006     0.9469     0.9469    -0.0000
 50 H      0.6939     1.0000     0.3061     0.9073     0.9073     0.0000
 51 H      0.7101     1.0000     0.2899     0.9203     0.9203    -0.0000
 52 H      0.8120     1.0000     0.1880     0.9561     0.9561    -0.0000
 53 H      0.8152     1.0000     0.1848     0.9601     0.9601     0.0000
 54 H      0.8172     1.0000     0.1828     0.9593     0.9593    -0.0000
 55 H      0.8150     1.0000     0.1850     0.9594     0.9594    -0.0000
 56 H      0.8279     1.0000     0.1721     0.9484     0.9484    -0.0000
 57 H      0.8280     1.0000     0.1720     0.9529     0.9529    -0.0000
 58 H      0.8288     1.0000     0.1712     0.9487     0.9487    -0.0000

  Mayer bond orders larger than 0.100000
B(  0-C ,  1-C ) :   0.8937 B(  0-C ,  5-C ) :   0.8799 B(  0-C , 34-H ) :   0.9803 
B(  0-C , 35-H ) :   0.9567 B(  1-C ,  2-C ) :   0.9233 B(  1-C , 36-H ) :   0.9401 
B(  1-C , 37-H ) :   0.9561 B(  2-C ,  3-N ) :   1.1735 B(  2-C , 18-O ) :   1.8078 
B(  3-N ,  4-C ) :   0.8753 B(  3-N ,  6-C ) :   0.9429 B(  4-C ,  5-C ) :   0.9407 
B(  4-C , 38-H ) :   0.9336 B(  4-C , 39-H ) :   0.9345 B(  5-C , 40-H ) :   0.9918 
B(  5-C , 41-H ) :   0.9524 B(  6-C ,  7-C ) :   1.3649 B(  6-C ,  9-C ) :   0.1288 
B(  6-C , 11-C ) :   1.3411 B(  7-C ,  8-C ) :   1.3677 B(  7-C , 42-H ) :   0.9431 
B(  8-C ,  9-C ) :   1.3744 B(  8-C , 43-H ) :   0.9428 B(  9-C , 10-C ) :   1.3439 
B(  9-C , 12-N ) :   0.9746 B( 10-C , 11-C ) :   1.2720 B( 10-C , 44-H ) :   0.9579 
B( 11-C , 45-H ) :   0.9503 B( 12-N , 13-C ) :   0.8019 B( 12-N , 17-C ) :   1.1639 
B( 13-C , 14-C ) :   0.9174 B( 13-C , 46-H ) :   0.9365 B( 13-C , 47-H ) :   0.9398 
B( 14-C , 15-C ) :   0.8246 B( 14-C , 48-H ) :   0.9815 B( 14-C , 49-H ) :   0.9928 
B( 15-C , 16-C ) :   1.1995 B( 15-C , 20-C ) :   1.1778 B( 15-C , 21-N ) :  -0.2080 
B( 16-C , 17-C ) :   0.9457 B( 16-C , 19-O ) :  -0.1010 B( 16-C , 21-N ) :   0.3133 
B( 16-C , 22-N ) :   1.2568 B( 17-C , 19-O ) :   1.8990 B( 20-C , 21-N ) :   1.4793 
B( 20-C , 24-C ) :   0.9531 B( 21-N , 22-N ) :   1.1833 B( 21-N , 23-C ) :   0.1292 
B( 22-N , 23-C ) :   0.9086 B( 23-C , 27-C ) :   1.3704 B( 23-C , 31-C ) :   1.3891 
B( 24-C , 25-N ) :   1.1132 B( 24-C , 26-O ) :   1.9494 B( 25-N , 50-H ) :   0.8845 
B( 25-N , 51-H ) :   0.9017 B( 27-C , 28-C ) :   1.3761 B( 27-C , 52-H ) :   0.9248 
B( 28-C , 29-C ) :   1.3546 B( 28-C , 53-H ) :   0.9480 B( 29-C , 30-C ) :   1.3414 
B( 29-C , 32-O ) :   1.0787 B( 30-C , 31-C ) :   1.3187 B( 30-C , 54-H ) :   0.9227 
B( 31-C , 55-H ) :   0.9576 B( 32-O , 33-C ) :   0.8457 B( 33-C , 56-H ) :   0.9554 
B( 33-C , 57-H ) :   0.9618 B( 33-C , 58-H ) :   0.9543 

-------
TIMINGS
-------

Total SCF time: 0 days 0 hours 3 min 50 sec 

Total time                  ....     230.161 sec
Sum of individual times     ....     218.362 sec  ( 94.9%)

SCF preparation             ....       2.393 sec  (  1.0%)
Fock matrix formation       ....     208.690 sec  ( 90.7%)
  Startup                   ....       0.118 sec  (  0.1% of F)
  Split-RI-J                ....      42.393 sec  ( 20.3% of F)
  XC integration            ....     108.709 sec  ( 52.1% of F)
    Basis function eval.    ....      17.875 sec  ( 16.4% of XC)
    Density eval.           ....      39.824 sec  ( 36.6% of XC)
    XC-Functional eval.     ....       3.943 sec  (  3.6% of XC)
    XC-Potential eval.      ....      41.678 sec  ( 38.3% of XC)
  CPCM terms                ....      67.952 sec  ( 32.6% of F)
Diagonalization             ....       0.000 sec  (  0.0%)
Density matrix formation    ....       0.775 sec  (  0.3%)
Total Energy calculation    ....       0.320 sec  (  0.1%)
Population analysis         ....       0.462 sec  (  0.2%)
Orbital Transformation      ....       0.615 sec  (  0.3%)
Orbital Orthonormalization  ....       0.000 sec  (  0.0%)
DIIS solution               ....       2.588 sec  (  1.1%)
SOSCF solution              ....       2.519 sec  (  1.1%)
Finished LeanSCF after 230.7 sec

Maximum memory used throughout the entire LEANSCF-calculation: 122.9 MB


           ************************************************************
           *        Program running with 4 parallel MPI-processes     *
           *              working on a common directory               *
           ************************************************************

------------------------------------------------------------------------------
                         ORCA PROPERTY INTEGRAL CALCULATIONS
------------------------------------------------------------------------------

GBWName                                   ... Apixaban_SMD_chloroform_Opt_Freq_KeepDens.gbw
Number of atoms                           ...     59
Number of basis functions                 ...    816
Max core memory                           ...   2000 MB

Dipole integrals                          ... YES
Quadrupole integrals                      ...  NO
Linear momentum integrals                 ...  NO
Angular momentum integrals                ...  NO
Higher moments length integrals           ...  NO
Higher moments velocity integrals         ...  NO
Kinetic energy integrals                  ...  NO
GIAO right hand sides                     ...  NO
GIAO dipole derivative integrals          ...  NO
SOC integrals                             ...  NO
EPR diamagnetic integrals (GIAO)          ...  NO
EPR gauge integrals                       ...  NO
Field gradient integrals                  ...  NO (   0 nuclei)
Spin-dipole/Fermi contact integrals       ...  NO (   0 nuclei)
Contact density integrals                 ...  NO (   0 nuclei)
Nucleus-orbit integrals                   ...  NO (   0 nuclei)
Geometric perturbations                   ...  NO (  59 nuclei)

Choice of electric origin   ... Center of mass
Position of electric origin ... ( 60.3242,-38.2010, -0.0660) 
Choice of magnetic origin   ... GIAO
Position of magnetic origin ... (  0.0000,  0.0000,  0.0000) 

Calculating integrals                     ... Electric Dipole (Length)     done (  0.1 sec)

Property integrals calculated in   0.1 sec

Maximum memory used throughout the entire PROPINT-calculation: 64.1 MB


-------------------------------------------------------------------------------
                          DFT DISPERSION CORRECTION                            
                                                                               
                                DFTD4 V3.4.0                                   
-------------------------------------------------------------------------------
The R2SCAN3C composite method is recognized
Using three-body term ABC
Active option DFTDOPT                   ...         5   

-------------------------   ----------------
Dispersion correction           -0.029160330
-------------------------   ----------------

------------------   -----------------
gCP correction             0.037883019
------------------   -----------------

-------------------------   --------------------
FINAL SINGLE POINT ENERGY     -1542.150684957548
-------------------------   --------------------



           ************************************************************
           *        Program running with 4 parallel MPI-processes     *
           *              working on a common directory               *
           ************************************************************
------------------------------------------------------------------------------
                         ORCA SCF GRADIENT CALCULATION
------------------------------------------------------------------------------

Nuc. rep. gradient        (SHARK) ... done (  0.0 sec)
HCore & Overlap gradient  (SHARK) ... done (  3.1 sec)
Split-RIJ-J gradient      (SHARK) ... done ( 11.0 sec)
XC gradient                       ... done ( 30.9 sec)
CPCM gradient                     ... done ( 13.4 sec)
SMD gradient                      ... done (  0.0 sec)
Dispersion correction             ... done (  0.1 sec)

-------------------
DISPERSION GRADIENT
-------------------

   1   C   :   -0.000097478    0.000042961   -0.000006992
   2   C   :   -0.000114781    0.000014063    0.000061624
   3   C   :   -0.000089580   -0.000035993    0.000077489
   4   N   :   -0.000049366    0.000027980    0.000002517
   5   C   :   -0.000035603    0.000087194   -0.000079463
   6   C   :   -0.000059452    0.000114383   -0.000023512
   7   C   :    0.000005134   -0.000008981   -0.000004922
   8   C   :    0.000005183    0.000003316    0.000122097
   9   C   :   -0.000011479    0.000009405    0.000121135
  10   C   :   -0.000042784    0.000004751   -0.000009131
  11   C   :   -0.000029603   -0.000008799   -0.000129114
  12   C   :   -0.000027643    0.000000283   -0.000118038
  13   N   :   -0.000045155   -0.000029258   -0.000031840
  14   C   :   -0.000050813   -0.000087623   -0.000106447
  15   C   :   -0.000054171   -0.000135186   -0.000045454
  16   C   :    0.000022379   -0.000096397   -0.000027926
  17   C   :    0.000103896   -0.000110494   -0.000026211
  18   C   :   -0.000034401    0.000028941    0.000008762
  19   O   :   -0.000070460   -0.000091789    0.000112853
  20   O   :   -0.000037646    0.000105938    0.000055054
  21   C   :    0.000035838   -0.000013608    0.000010553
  22   N   :    0.000055139   -0.000061737   -0.000014203
  23   N   :    0.000067862   -0.000055994   -0.000006977
  24   C   :    0.000073016    0.000037448    0.000032495
  25   C   :    0.000087662   -0.000128160   -0.000032027
  26   N   :    0.000124606   -0.000081876   -0.000022567
  27   O   :    0.000029486   -0.000123212   -0.000033276
  28   C   :    0.000032430    0.000037786    0.000138438
  29   C   :    0.000010948    0.000051521    0.000131851
  30   C   :    0.000048296    0.000078957    0.000039660
  31   C   :    0.000078210    0.000076215   -0.000038236
  32   C   :    0.000101467    0.000061959   -0.000071370
  33   O   :    0.000034236    0.000079831    0.000043318
  34   C   :    0.000060594    0.000084667   -0.000007031
  35   H   :   -0.000045213    0.000011298   -0.000011506
  36   H   :   -0.000039307    0.000023104    0.000004620
  37   H   :   -0.000034979    0.000006096    0.000036855
  38   H   :   -0.000041231   -0.000019008    0.000024584
  39   H   :    0.000000088    0.000059373   -0.000033460
  40   H   :   -0.000017537    0.000025853   -0.000044053
  41   H   :   -0.000016056    0.000051732   -0.000001105
  42   H   :   -0.000013438    0.000043773   -0.000022366
  43   H   :    0.000013329   -0.000000225    0.000066462
  44   H   :   -0.000011449    0.000004948    0.000070056
  45   H   :   -0.000017120    0.000002380   -0.000068803
  46   H   :   -0.000004230   -0.000007832   -0.000068965
  47   H   :   -0.000018714   -0.000051379   -0.000034564
  48   H   :   -0.000015374   -0.000018483   -0.000060372
  49   H   :   -0.000029969   -0.000065787    0.000007932
  50   H   :   -0.000024052   -0.000051454   -0.000032977
  51   H   :    0.000039718   -0.000042616   -0.000012089
  52   H   :    0.000022449   -0.000020921   -0.000006057
  53   H   :    0.000004406    0.000005138    0.000077235
  54   H   :   -0.000009644    0.000013747    0.000054981
  55   H   :    0.000027533    0.000023641   -0.000032452
  56   H   :    0.000041944    0.000025341   -0.000054201
  57   H   :    0.000020360    0.000040151    0.000002496
  58   H   :    0.000014806    0.000029313    0.000008425
  59   H   :    0.000027714    0.000033324    0.000006217

Difference to translation invariance:
           :   -0.0000000000   -0.0000000000   -0.0000000000

Difference to rotation invariance:
           :    0.0000000000    0.0000000000   -0.0000000000

Norm of the Dispersion gradient    ...    0.0007427731
RMS gradient                       ...    0.0000558302
MAX gradient                       ...    0.0001384377
gCP correction                   ... done

------------------
CARTESIAN GRADIENT
------------------

   1   C   :    0.000123422   -0.000043511    0.000018437
   2   C   :    0.000221726    0.000157157   -0.000373824
   3   C   :   -0.000064748    0.000375187    0.000114882
   4   N   :    0.000317039   -0.000286331    0.000296702
   5   C   :   -0.000249792    0.000311554   -0.000741938
   6   C   :    0.000075853   -0.000248300    0.000171552
   7   C   :   -0.000973061    0.000432802    0.000006926
   8   C   :   -0.000085714    0.000001219    0.000206831
   9   C   :    0.000179496   -0.000024848    0.000181585
  10   C   :    0.000575030   -0.000328156   -0.000188718
  11   C   :    0.000212684   -0.000142046   -0.000156552
  12   C   :   -0.000128397    0.000094449   -0.000096669
  13   N   :    0.000311591    0.000166039    0.000367154
  14   C   :   -0.000094220   -0.000244841   -0.000646791
  15   C   :   -0.000003444    0.000327411    0.000145825
  16   C   :   -0.000189855   -0.000110230   -0.000024632
  17   C   :    0.000270582   -0.000053667   -0.000041058
  18   C   :   -0.000681401    0.000014888    0.000069215
  19   O   :    0.000082461   -0.000857781    0.000332794
  20   O   :    0.000100588    0.000602819   -0.000093406
  21   C   :   -0.000068302    0.000071738    0.000060498
  22   N   :    0.000095978    0.000197175    0.000237275
  23   N   :   -0.000506375    0.000388161    0.000132163
  24   C   :   -0.000116774   -0.000308266    0.000053108
  25   C   :    0.000487833   -0.000777376   -0.000387263
  26   N   :   -0.001114799    0.000210105    0.000019100
  27   O   :   -0.000294032   -0.000063191    0.000128983
  28   C   :   -0.000284252   -0.000300660    0.000068511
  29   C   :   -0.000140285   -0.000059258    0.000083687
  30   C   :    0.000848026    0.001624296    0.000653547
  31   C   :    0.000201150    0.000142858   -0.000282782
  32   C   :    0.000060479   -0.000093456   -0.000040784
  33   O   :   -0.001484553   -0.001703568    0.000289518
  34   C   :    0.000616537    0.000295871   -0.000690099
  35   H   :    0.000091547   -0.000007703    0.000006782
  36   H   :    0.000063076    0.000004887    0.000079039
  37   H   :    0.000024248    0.000126565   -0.000059454
  38   H   :   -0.000148983    0.000089435   -0.000119857
  39   H   :   -0.000045401    0.000046942    0.000007646
  40   H   :    0.000098998   -0.000013972    0.000176439
  41   H   :   -0.000047791    0.000018890    0.000071821
  42   H   :    0.000037521   -0.000147075   -0.000001188
  43   H   :    0.000101620    0.000149121    0.000023458
  44   H   :   -0.000032005   -0.000126018    0.000116815
  45   H   :   -0.000001223   -0.000088350   -0.000059848
  46   H   :   -0.000024864    0.000089709   -0.000074062
  47   H   :    0.000125188   -0.000057242   -0.000057331
  48   H   :   -0.000111825   -0.000001474    0.000207361
  49   H   :    0.000019169   -0.000009617    0.000046712
  50   H   :   -0.000182637    0.000244686    0.000038825
  51   H   :    0.000571285   -0.000102312   -0.000068945
  52   H   :    0.000741126   -0.000016173    0.000013795
  53   H   :    0.000117334   -0.000060464    0.000139604
  54   H   :   -0.000116258   -0.000203281    0.000154038
  55   H   :    0.000103338    0.000025976   -0.000099683
  56   H   :    0.000092361    0.000165057   -0.000178356
  57   H   :    0.000187554   -0.000045938    0.000031223
  58   H   :    0.000123315    0.000016151   -0.000167173
  59   H   :   -0.000087164    0.000133961   -0.000101440

Difference to translation invariance:
           :   -0.0000000005    0.0000000002    0.0000000000

Difference to rotation invariance:
           :   -0.0003333184    0.0000426782   -0.0006420087

Norm of the Cartesian gradient     ...    0.0045802815
RMS gradient                       ...    0.0003442750
MAX gradient                       ...    0.0017035683

-------
TIMINGS
-------

Total SCF gradient time     ....       58.641 sec

Densities                   ....       0.019 sec  (  0.0%)
One electron gradient       ....       3.087 sec  (  5.3%)
RI-J Coulomb gradient       ....      10.983 sec  ( 18.7%)
XC gradient                 ....      30.924 sec  ( 52.7%)
CPCM gradient               ....      13.384 sec  ( 22.8%)
   A-Matrix (El+Nuc)        ....       0.601 sec  (  1.0%)
   Potential                ....      12.783 sec  ( 21.8%)
SMD gradient                ....       0.032 sec  (  0.1%)

Maximum memory used throughout the entire SCFGRAD-calculation: 84.0 MB
------------------------------------------------------------------------------
                         ORCA GEOMETRY RELAXATION STEP
------------------------------------------------------------------------------

Reading the OPT-File                    .... done
Getting information on internals        .... done
Copying old internal coords+grads       .... done
Making the new internal coordinates     .... (2022 redundants) done
Validating the new internal coordinates .... (2022 redundants) done
Calculating the B-matrix                .... done
Calculating the G,G- and P matrices     .... done
Transforming gradient to internals      .... done
Projecting the internal gradient        .... done
Number of atoms                         ....  59
Number of internal coordinates          .... 319
Current Energy                          .... -1542.150684958 Eh
Current gradient norm                   ....     0.004580281 Eh/bohr
Maximum allowed component of the step   ....  0.300
Current trust radius                    ....  0.300
Evaluating the initial hessian          ....  (Almloef) done
Projecting the Hessian                  .... done
Forming the augmented Hessian           .... done
Diagonalizing the augmented Hessian     .... done
Last element of RFO vector              ....  0.998993983
Lowest eigenvalues of augmented Hessian:
 -0.000073797  0.013512901  0.013881724  0.017116731  0.017570592
Length of the computed step             ....  0.044889568
The final length of the internal step   ....  0.044889568
Converting the step to Cartesian space:
 Initial RMS(Int)=    0.0025133333
Transforming coordinates:
 Iter   0:  RMS(Cart)=    0.0175297458 RMS(Int)=    0.3515788021
done
Storing new coordinates                 .... done

                                .--------------------.
          ----------------------|Geometry convergence|-------------------------
          Item                value                   Tolerance       Converged
          ---------------------------------------------------------------------
          RMS gradient        0.0002341322            0.0001000000      NO
          MAX gradient        0.0015801475            0.0003000000      NO
          RMS step            0.0025133333            0.0020000000      NO
          MAX step            0.0140102285            0.0040000000      NO
          -------------------------------------------------------------------------
          ........................................................
          Max(Bonds)      0.0020      Max(Angles)    0.18
          Max(Dihed)        0.80      Max(Improp)    0.00
          ---------------------------------------------------------------------

The optimization has not yet converged - more geometry cycles are needed


    ---------------------------------------------------------------------------
                         Redundant Internal Coordinates
                            (Angstroem and degrees)

        Definition                    Value    dE/dq     Step     New-Value
    ----------------------------------------------------------------------------
     1. B(C   1,C   0)                1.5242 -0.000304  0.0004    1.5246   
     2. B(C   2,C   1)                1.5168 -0.000011 -0.0000    1.5168   
     3. B(N   3,C   2)                1.3749  0.000162 -0.0002    1.3748   
     4. B(C   4,N   3)                1.4824  0.000350 -0.0005    1.4819   
     5. B(C   5,C   4)                1.5161 -0.000364  0.0005    1.5166   
     6. B(C   5,C   0)                1.5209 -0.000379  0.0005    1.5214   
     7. B(C   6,N   3)                1.4258 -0.000733  0.0008    1.4265   
     8. B(C   7,C   6)                1.3984  0.000372 -0.0003    1.3980   
     9. B(C   8,C   7)                1.3854  0.000340 -0.0003    1.3851   
    10. B(C   9,C   8)                1.3987  0.000322 -0.0003    1.3984   
    11. B(C  10,C   9)                1.3943  0.000125 -0.0001    1.3942   
    12. B(C  11,C  10)                1.3918  0.000263 -0.0002    1.3916   
    13. B(C  11,C   6)                1.3940  0.000207 -0.0002    1.3938   
    14. B(N  12,C   9)                1.4229 -0.000558  0.0006    1.4235   
    15. B(C  13,N  12)                1.4845  0.000107 -0.0001    1.4844   
    16. B(C  14,C  13)                1.5250 -0.000409  0.0006    1.5257   
    17. B(C  15,C  14)                1.4878 -0.000239  0.0003    1.4880   
    18. B(C  16,C  15)                1.3833  0.000316 -0.0003    1.3830   
    19. B(C  17,C  16)                1.4700  0.000464 -0.0006    1.4695   
    20. B(C  17,N  12)                1.3829 -0.000163  0.0002    1.3830   
    21. B(O  18,C   2)                1.2318  0.000897 -0.0005    1.2314   
    22. B(O  19,C  17)                1.2293  0.000490 -0.0003    1.2290   
    23. B(C  20,C  15)                1.4046  0.000286 -0.0003    1.4044   
    24. B(N  21,C  20)                1.3460  0.000173 -0.0002    1.3458   
    25. B(N  22,N  21)                1.3369  0.000191 -0.0002    1.3368   
    26. B(N  22,C  16)                1.3709 -0.000138  0.0001    1.3711   
    27. B(C  23,N  22)                1.4297 -0.000292  0.0003    1.4300   
    28. B(C  24,C  20)                1.4821  0.000810 -0.0010    1.4811   
    29. B(N  25,C  24)                1.3514  0.000132 -0.0001    1.3513   
    30. B(O  26,C  24)                1.2336  0.000187 -0.0001    1.2335   
    31. B(C  27,C  23)                1.3937  0.000107 -0.0001    1.3936   
    32. B(C  28,C  27)                1.3825  0.000193 -0.0002    1.3823   
    33. B(C  29,C  28)                1.4030  0.000646 -0.0006    1.4024   
    34. B(C  30,C  29)                1.3986  0.000293 -0.0003    1.3983   
    35. B(C  31,C  30)                1.3927  0.000060 -0.0000    1.3926   
    36. B(C  31,C  23)                1.3876  0.000396 -0.0003    1.3872   
    37. B(O  32,C  29)                1.3557 -0.001580  0.0013    1.3571   
    38. B(C  33,O  32)                1.4348  0.001248 -0.0014    1.4334   
    39. B(H  34,C   0)                1.0983 -0.000032  0.0000    1.0984   
    40. B(H  35,C   0)                1.0957 -0.000020  0.0000    1.0958   
    41. B(H  36,C   1)                1.0999  0.000018 -0.0000    1.0999   
    42. B(H  37,C   1)                1.0945  0.000023 -0.0000    1.0945   
    43. B(H  38,C   4)                1.0953 -0.000018  0.0000    1.0953   
    44. B(H  39,C   4)                1.0997 -0.000176  0.0003    1.1000   
    45. B(H  40,C   5)                1.0984  0.000048 -0.0001    1.0983   
    46. B(H  41,C   5)                1.0959 -0.000104  0.0002    1.0960   
    47. B(H  42,C   7)                1.0844  0.000032 -0.0000    1.0844   
    48. B(H  43,C   8)                1.0847  0.000095 -0.0001    1.0846   
    49. B(H  44,C  10)                1.0857  0.000078 -0.0001    1.0856   
    50. B(H  45,C  11)                1.0856  0.000087 -0.0001    1.0855   
    51. B(H  46,C  13)                1.0923 -0.000087  0.0001    1.0924   
    52. B(H  47,C  13)                1.0996 -0.000213  0.0003    1.0999   
    53. B(H  48,C  14)                1.0989  0.000033 -0.0000    1.0988   
    54. B(H  49,C  14)                1.0928 -0.000209  0.0003    1.0931   
    55. B(H  50,N  25)                1.0089  0.000232 -0.0003    1.0086   
    56. B(H  50,N  21)                2.4050  0.000088 -0.0020    2.4030   
    57. B(H  51,N  25)                1.0089  0.000349 -0.0004    1.0084   
    58. B(H  52,C  27)                1.0848  0.000034 -0.0000    1.0847   
    59. B(H  53,C  28)                1.0860  0.000105 -0.0002    1.0858   
    60. B(H  54,C  30)                1.0837  0.000136 -0.0002    1.0835   
    61. B(H  55,C  31)                1.0863  0.000133 -0.0002    1.0861   
    62. B(H  56,C  33)                1.0968 -0.000120  0.0002    1.0970   
    63. B(H  57,C  33)                1.0913 -0.000055  0.0001    1.0914   
    64. B(H  58,C  33)                1.0969 -0.000122  0.0002    1.0971   
    65. A(C   5,C   0,H  34)          109.39 -0.000038    0.01    109.40   
    66. A(H  34,C   0,H  35)          107.23  0.000075   -0.03    107.21   
    67. A(C   1,C   0,H  35)          109.88 -0.000084    0.02    109.90   
    68. A(C   1,C   0,C   5)          108.94  0.000111   -0.00    108.94   
    69. A(C   5,C   0,H  35)          111.35 -0.000050    0.01    111.36   
    70. A(C   1,C   0,H  34)          110.02 -0.000015   -0.00    110.02   
    71. A(C   0,C   1,H  36)          109.73 -0.000158    0.03    109.76   
    72. A(C   0,C   1,C   2)          116.16  0.000277   -0.04    116.12   
    73. A(C   2,C   1,H  37)          106.62  0.000161   -0.03    106.59   
    74. A(C   2,C   1,H  36)          105.17 -0.000020   -0.00    105.17   
    75. A(H  36,C   1,H  37)          106.39  0.000008   -0.01    106.38   
    76. A(C   0,C   1,H  37)          112.12 -0.000266    0.05    112.17   
    77. A(N   3,C   2,O  18)          122.05  0.000253   -0.04    122.00   
    78. A(C   1,C   2,O  18)          119.97  0.000279   -0.05    119.92   
    79. A(C   1,C   2,N   3)          117.93 -0.000526    0.07    118.01   
    80. A(C   2,N   3,C   6)          119.65  0.000233   -0.03    119.62   
    81. A(C   2,N   3,C   4)          123.40  0.000246   -0.02    123.38   
    82. A(C   4,N   3,C   6)          116.35 -0.000489    0.08    116.43   
    83. A(N   3,C   4,C   5)          112.02 -0.000143    0.04    112.05   
    84. A(C   5,C   4,H  38)          110.91 -0.000055    0.01    110.92   
    85. A(N   3,C   4,H  38)          107.18  0.000087   -0.01    107.17   
    86. A(N   3,C   4,H  39)          109.55 -0.000040    0.01    109.55   
    87. A(C   5,C   4,H  39)          109.39  0.000164   -0.03    109.36   
    88. A(H  38,C   4,H  39)          107.68 -0.000011   -0.01    107.67   
    89. A(C   0,C   5,H  41)          111.49 -0.000028    0.01    111.50   
    90. A(C   4,C   5,H  40)          110.00  0.000076   -0.03    109.96   
    91. A(C   0,C   5,C   4)          109.36 -0.000004    0.02    109.38   
    92. A(H  40,C   5,H  41)          107.66  0.000126   -0.02    107.64   
    93. A(C   0,C   5,H  40)          110.08 -0.000028   -0.01    110.08   
    94. A(C   4,C   5,H  41)          108.21 -0.000141    0.03    108.24   
    95. A(C   7,C   6,C  11)          119.24 -0.000032    0.00    119.24   
    96. A(N   3,C   6,C  11)          120.30 -0.000216    0.03    120.33   
    97. A(N   3,C   6,C   7)          120.43  0.000247   -0.03    120.40   
    98. A(C   6,C   7,C   8)          120.43 -0.000006   -0.00    120.43   
    99. A(C   6,C   7,H  42)          119.76  0.000049   -0.01    119.76   
   100. A(C   8,C   7,H  42)          119.80 -0.000043    0.01    119.81   
   101. A(C   7,C   8,C   9)          120.33 -0.000066    0.01    120.33   
   102. A(C   7,C   8,H  43)          119.87 -0.000007    0.00    119.87   
   103. A(C   9,C   8,H  43)          119.81  0.000073   -0.01    119.80   
   104. A(C   8,C   9,C  10)          119.33  0.000060   -0.01    119.33   
   105. A(C  10,C   9,N  12)          120.50 -0.000297    0.04    120.54   
   106. A(C   8,C   9,N  12)          120.15  0.000236   -0.03    120.12   
   107. A(C   9,C  10,C  11)          120.26  0.000003    0.00    120.27   
   108. A(C  11,C  10,H  44)          119.26  0.000006   -0.00    119.25   
   109. A(C   9,C  10,H  44)          120.48 -0.000008    0.00    120.48   
   110. A(C   6,C  11,H  45)          120.40 -0.000031    0.00    120.41   
   111. A(C  10,C  11,H  45)          119.20 -0.000009    0.00    119.20   
   112. A(C   6,C  11,C  10)          120.40  0.000040   -0.01    120.39   
   113. A(C  13,N  12,C  17)          120.93  0.000355   -0.02    120.92   
   114. A(C   9,N  12,C  17)          119.20  0.000241   -0.03    119.17   
   115. A(C   9,N  12,C  13)          117.74 -0.000614    0.10    117.84   
   116. A(C  14,C  13,H  47)          109.54  0.000161   -0.03    109.50   
   117. A(C  14,C  13,H  46)          110.08 -0.000091    0.01    110.09   
   118. A(N  12,C  13,H  47)          109.42 -0.000034    0.00    109.42   
   119. A(H  46,C  13,H  47)          108.27 -0.000029   -0.00    108.26   
   120. A(N  12,C  13,C  14)          112.13 -0.000151    0.05    112.19   
   121. A(N  12,C  13,H  46)          107.32  0.000145   -0.03    107.28   
   122. A(C  13,C  14,H  49)          109.23 -0.000316    0.07    109.30   
   123. A(H  48,C  14,H  49)          107.22  0.000034   -0.01    107.21   
   124. A(C  15,C  14,H  49)          111.47  0.000110   -0.01    111.46   
   125. A(C  15,C  14,H  48)          110.04 -0.000077   -0.01    110.04   
   126. A(C  13,C  14,C  15)          108.27  0.000209   -0.02    108.26   
   127. A(C  13,C  14,H  48)          110.61  0.000034   -0.02    110.59   
   128. A(C  14,C  15,C  20)          135.10 -0.000084    0.01    135.11   
   129. A(C  14,C  15,C  16)          120.18 -0.000112    0.02    120.20   
   130. A(C  16,C  15,C  20)          104.72  0.000195   -0.03    104.69   
   131. A(C  15,C  16,C  17)          125.15  0.000025   -0.00    125.15   
   132. A(C  17,C  16,N  22)          127.69  0.000099   -0.02    127.68   
   133. A(C  15,C  16,N  22)          107.15 -0.000124    0.02    107.17   
   134. A(C  16,C  17,O  19)          123.63  0.000136   -0.03    123.60   
   135. A(N  12,C  17,O  19)          123.75  0.000236   -0.04    123.71   
   136. A(N  12,C  17,C  16)          112.60 -0.000369    0.06    112.66   
   137. A(N  21,C  20,C  24)          121.59  0.000032   -0.01    121.58   
   138. A(C  15,C  20,C  24)          127.66  0.000287   -0.03    127.63   
   139. A(C  15,C  20,N  21)          110.75 -0.000319    0.04    110.80   
   140. A(C  20,N  21,N  22)          106.17  0.000168   -0.02    106.14   
   141. A(N  21,N  22,C  23)          118.83 -0.000483    0.07    118.90   
   142. A(C  16,N  22,C  23)          129.96  0.000406   -0.06    129.90   
   143. A(C  16,N  22,N  21)          111.20  0.000078   -0.01    111.20   
   144. A(N  22,C  23,C  31)          119.05  0.000006    0.00    119.05   
   145. A(C  27,C  23,C  31)          120.74  0.000126   -0.01    120.73   
   146. A(N  22,C  23,C  27)          120.15 -0.000135    0.02    120.17   
   147. A(N  25,C  24,O  26)          123.75  0.000425   -0.05    123.71   
   148. A(C  20,C  24,O  26)          120.63 -0.000101    0.02    120.64   
   149. A(C  20,C  24,N  25)          115.62 -0.000324    0.03    115.65   
   150. A(H  50,N  25,H  51)          119.13 -0.000706    0.13    119.25   
   151. A(C  24,N  25,H  51)          119.48  0.000546   -0.09    119.39   
   152. A(C  24,N  25,H  50)          121.19  0.000168   -0.05    121.14   
   153. A(C  28,C  27,H  52)          120.40 -0.000029    0.01    120.40   
   154. A(C  23,C  27,H  52)          120.12  0.000126   -0.02    120.10   
   155. A(C  23,C  27,C  28)          119.48 -0.000098    0.01    119.49   
   156. A(C  29,C  28,H  53)          119.13  0.000252   -0.04    119.09   
   157. A(C  27,C  28,H  53)          120.60 -0.000259    0.04    120.64   
   158. A(C  27,C  28,C  29)          120.26  0.000007   -0.00    120.26   
   159. A(C  30,C  29,O  32)          124.40 -0.000532    0.07    124.48   
   160. A(C  28,C  29,O  32)          115.60  0.000550   -0.07    115.52   
   161. A(C  28,C  29,C  30)          120.00 -0.000018    0.00    120.00   
   162. A(C  29,C  30,C  31)          119.38 -0.000061    0.01    119.39   
   163. A(C  31,C  30,H  54)          119.10 -0.000013    0.00    119.10   
   164. A(C  29,C  30,H  54)          121.52  0.000073   -0.01    121.50   
   165. A(C  23,C  31,C  30)          120.13  0.000043   -0.01    120.12   
   166. A(C  30,C  31,H  55)          119.98 -0.000234    0.04    120.01   
   167. A(C  23,C  31,H  55)          119.89  0.000190   -0.03    119.86   
   168. A(C  29,O  32,C  33)          117.64 -0.001306    0.18    117.82   
   169. A(H  57,C  33,H  58)          109.39 -0.000124    0.02    109.41   
   170. A(H  56,C  33,H  58)          109.86 -0.000221    0.05    109.91   
   171. A(O  32,C  33,H  58)          111.18  0.000071   -0.01    111.16   
   172. A(H  56,C  33,H  57)          109.38 -0.000111    0.01    109.39   
   173. A(O  32,C  33,H  57)          105.74  0.000290   -0.06    105.68   
   174. A(O  32,C  33,H  56)          111.20  0.000106   -0.02    111.18   
   175. D(H  36,C   1,C   0,H  34)   -166.04 -0.000008    0.02   -166.02   
   176. D(C   2,C   1,C   0,C   5)    -45.02 -0.000062    0.01    -45.01   
   177. D(C   2,C   1,C   0,H  34)     74.89 -0.000050    0.02     74.91   
   178. D(C   2,C   1,C   0,H  35)   -167.26 -0.000019   -0.00   -167.26   
   179. D(H  36,C   1,C   0,H  35)    -48.19  0.000024   -0.00    -48.19   
   180. D(H  36,C   1,C   0,C   5)     74.05 -0.000020    0.01     74.06   
   181. D(N   3,C   2,C   1,H  37)    146.09 -0.000068    0.02    146.10   
   182. D(N   3,C   2,C   1,C   0)     20.33 -0.000047    0.00     20.33   
   183. D(O  18,C   2,C   1,C   0)   -162.29  0.000093   -0.35   -162.63   
   184. D(N   3,C   2,C   1,H  36)   -101.20 -0.000001   -0.01   -101.21   
   185. D(O  18,C   2,C   1,H  36)     76.19  0.000138   -0.36     75.82   
   186. D(C   6,N   3,C   2,O  18)     -0.50 -0.000044    0.19     -0.30   
   187. D(C   6,N   3,C   2,C   1)    176.83  0.000099   -0.17    176.66   
   188. D(C   4,N   3,C   2,O  18)    170.30 -0.000166    0.40    170.70   
   189. D(C   4,N   3,C   2,C   1)    -12.37 -0.000023    0.04    -12.33   
   190. D(H  38,C   4,N   3,C   2)    151.57  0.000012   -0.06    151.51   
   191. D(H  39,C   4,N   3,C   2)    -91.87  0.000026   -0.08    -91.95   
   192. D(H  38,C   4,N   3,C   6)    -37.35 -0.000048    0.13    -37.23   
   193. D(C   5,C   4,N   3,C   2)     29.70  0.000110   -0.09     29.60   
   194. D(C   5,C   4,N   3,C   6)   -159.23  0.000051    0.10   -159.13   
   195. D(H  40,C   5,C   4,N   3)     67.18 -0.000003    0.06     67.25   
   196. D(C   0,C   5,C   4,H  39)     67.83 -0.000047    0.09     67.92   
   197. D(C   0,C   5,C   4,H  38)   -173.54  0.000010    0.06   -173.48   
   198. D(C   0,C   5,C   4,N   3)    -53.83 -0.000014    0.08    -53.75   
   199. D(H  40,C   5,C   0,H  35)     62.01 -0.000065    0.00     62.01   
   200. D(H  40,C   5,C   0,C   1)    -59.34 -0.000002   -0.02    -59.36   
   201. D(H  40,C   5,C   0,H  34)   -179.65 -0.000027   -0.02   -179.67   
   202. D(C   4,C   5,C   0,H  34)    -58.68  0.000047   -0.05    -58.74   
   203. D(C   4,C   5,C   0,H  35)   -177.03  0.000010   -0.03   -177.06   
   204. D(H  40,C   5,C   4,H  38)    -52.53  0.000021    0.04    -52.48   
   205. D(C   4,C   5,C   0,C   1)     61.62  0.000073   -0.05     61.57   
   206. D(H  40,C   5,C   4,H  39)   -171.16 -0.000035    0.07   -171.08   
   207. D(C  11,C   6,N   3,C   4)    -43.79  0.000005   -0.02    -43.81   
   208. D(C   7,C   6,N   3,C   4)    134.07 -0.000034    0.07    134.14   
   209. D(C   7,C   6,N   3,C   2)    -54.50 -0.000087    0.26    -54.25   
   210. D(C  11,C   6,N   3,C   2)    127.63 -0.000047    0.17    127.81   
   211. D(H  42,C   7,C   6,C  11)    179.68 -0.000083    0.18    179.86   
   212. D(H  42,C   7,C   6,N   3)      1.80 -0.000041    0.09      1.89   
   213. D(C   8,C   7,C   6,C  11)     -0.72 -0.000039    0.09     -0.63   
   214. D(C   8,C   7,C   6,N   3)   -178.60  0.000003   -0.00   -178.60   
   215. D(H  43,C   8,C   7,H  42)      0.48  0.000111   -0.23      0.25   
   216. D(H  43,C   8,C   7,C   6)   -179.12  0.000067   -0.14   -179.26   
   217. D(C   9,C   8,C   7,H  42)   -179.57  0.000071   -0.15   -179.71   
   218. D(C   9,C   8,C   7,C   6)      0.83  0.000026   -0.06      0.77   
   219. D(N  12,C   9,C   8,H  43)      1.27 -0.000014    0.03      1.30   
   220. D(N  12,C   9,C   8,C   7)   -178.68  0.000026   -0.05   -178.73   
   221. D(C  10,C   9,C   8,H  43)    179.77 -0.000061    0.13    179.90   
   222. D(C  10,C   9,C   8,C   7)     -0.18 -0.000020    0.04     -0.14   
   223. D(H  44,C  10,C   9,N  12)     -2.09 -0.000003    0.02     -2.07   
   224. D(H  44,C  10,C   9,C   8)    179.42  0.000036   -0.08    179.34   
   225. D(C  11,C  10,C   9,N  12)    177.92 -0.000011    0.03    177.95   
   226. D(C  11,C  10,C   9,C   8)     -0.57  0.000027   -0.06     -0.64   
   227. D(H  45,C  11,C  10,H  44)      0.71 -0.000047    0.11      0.81   
   228. D(C   6,C  11,C  10,H  44)   -179.31 -0.000049    0.11   -179.20   
   229. D(C   6,C  11,C  10,C   9)      0.68 -0.000041    0.10      0.78   
   230. D(H  45,C  11,C   6,C   7)    179.95  0.000045   -0.10    179.84   
   231. D(H  45,C  11,C   6,N   3)     -2.17  0.000012   -0.01     -2.18   
   232. D(H  45,C  11,C  10,C   9)   -179.30 -0.000039    0.09   -179.21   
   233. D(C  10,C  11,C   6,C   7)     -0.04  0.000047   -0.11     -0.15   
   234. D(C  10,C  11,C   6,N   3)    177.85  0.000014   -0.02    177.83   
   235. D(C  17,N  12,C   9,C   8)    -54.71 -0.000080    0.30    -54.41   
   236. D(C  13,N  12,C   9,C  10)    -36.78 -0.000025    0.01    -36.77   
   237. D(C  13,N  12,C   9,C   8)    141.70 -0.000067    0.11    141.81   
   238. D(C  17,N  12,C   9,C  10)    126.81 -0.000038    0.20    127.01   
   239. D(H  47,C  13,N  12,C   9)     90.47  0.000002    0.03     90.49   
   240. D(H  46,C  13,N  12,C  17)    169.92  0.000010   -0.15    169.77   
   241. D(H  46,C  13,N  12,C   9)    -26.79 -0.000026    0.05    -26.74   
   242. D(C  14,C  13,N  12,C  17)     48.92  0.000118   -0.17     48.75   
   243. D(C  14,C  13,N  12,C   9)   -147.79  0.000082    0.02   -147.76   
   244. D(H  48,C  14,C  13,H  47)   -167.17 -0.000002    0.06   -167.11   
   245. D(H  48,C  14,C  13,H  46)    -48.24  0.000006    0.04    -48.19   
   246. D(H  48,C  14,C  13,N  12)     71.16  0.000030    0.04     71.20   
   247. D(C  15,C  14,C  13,H  47)     72.18 -0.000061    0.09     72.27   
   248. D(C  15,C  14,C  13,H  46)   -168.89 -0.000052    0.08   -168.81   
   249. D(C  15,C  14,C  13,N  12)    -49.49 -0.000029    0.07    -49.42   
   250. D(C  20,C  15,C  14,H  48)     87.04  0.000033   -0.17     86.87   
   251. D(C  20,C  15,C  14,C  13)   -151.96  0.000158   -0.21   -152.17   
   252. D(C  16,C  15,C  14,H  49)    147.85 -0.000085    0.02    147.88   
   253. D(C  16,C  15,C  14,H  48)    -93.32 -0.000022   -0.00    -93.32   
   254. D(C  16,C  15,C  14,C  13)     27.68  0.000103   -0.04     27.64   
   255. D(N  22,C  16,C  15,C  20)     -0.16 -0.000031    0.10     -0.06   
   256. D(N  22,C  16,C  15,C  14)   -179.90  0.000010   -0.02   -179.91   
   257. D(C  17,C  16,C  15,C  20)   -179.58 -0.000067    0.19   -179.39   
   258. D(C  17,C  16,C  15,C  14)      0.68 -0.000026    0.06      0.75   
   259. D(O  19,C  17,C  16,N  22)     -7.57  0.000168   -0.45     -8.03   
   260. D(O  19,C  17,C  16,C  15)    171.73  0.000210   -0.55    171.17   
   261. D(N  12,C  17,C  16,N  22)    173.87  0.000025   -0.04    173.83   
   262. D(N  12,C  17,C  16,C  15)     -6.83  0.000067   -0.14     -6.97   
   263. D(O  19,C  17,N  12,C  13)    162.53 -0.000260    0.60    163.13   
   264. D(O  19,C  17,N  12,C   9)     -0.52 -0.000083    0.38     -0.14   
   265. D(C  16,C  17,N  12,C  13)    -18.91 -0.000118    0.19    -18.72   
   266. D(C  16,C  17,N  12,C   9)    178.04  0.000059   -0.03    178.01   
   267. D(C  24,C  20,C  15,C  16)    179.63  0.000021   -0.08    179.55   
   268. D(C  24,C  20,C  15,C  14)     -0.70 -0.000029    0.08     -0.62   
   269. D(N  21,C  20,C  15,C  16)     -0.28 -0.000006   -0.04     -0.32   
   270. D(N  21,C  20,C  15,C  14)    179.40 -0.000056    0.11    179.51   
   271. D(N  22,N  21,C  20,C  24)   -179.30  0.000016   -0.01   -179.31   
   272. D(N  22,N  21,C  20,C  15)      0.61  0.000040   -0.04      0.56   
   273. D(C  23,N  22,N  21,C  20)    179.76 -0.000112    0.19    179.95   
   274. D(C  16,N  22,N  21,C  20)     -0.72 -0.000064    0.11     -0.60   
   275. D(C  23,N  22,C  16,C  17)     -0.59  0.000144   -0.31     -0.91   
   276. D(C  23,N  22,C  16,C  15)   -179.99  0.000107   -0.23   -180.22   
   277. D(N  21,N  22,C  16,C  17)    179.96  0.000095   -0.23    179.73   
   278. D(N  21,N  22,C  16,C  15)      0.55  0.000059   -0.14      0.41   
   279. D(C  31,C  23,N  22,N  21)     60.16  0.000202   -0.61     59.55   
   280. D(C  31,C  23,N  22,C  16)   -119.26  0.000147   -0.52   -119.77   
   281. D(C  27,C  23,N  22,N  21)   -117.12  0.000280   -0.80   -117.92   
   282. D(C  27,C  23,N  22,C  16)     63.47  0.000225   -0.71     62.76   
   283. D(O  26,C  24,C  20,N  21)    174.52 -0.000138    0.61    175.13   
   284. D(O  26,C  24,C  20,C  15)     -5.38 -0.000167    0.65     -4.73   
   285. D(N  25,C  24,C  20,N  21)     -5.76 -0.000119    0.57     -5.18   
   286. D(N  25,C  24,C  20,C  15)    174.35 -0.000148    0.61    174.96   
   287. D(H  51,N  25,C  24,O  26)     -2.97  0.000023   -0.04     -3.01   
   288. D(H  51,N  25,C  24,C  20)    177.31  0.000005   -0.00    177.31   
   289. D(H  50,N  25,C  24,O  26)   -177.74 -0.000044    0.07   -177.67   
   290. D(H  50,N  25,C  24,C  20)      2.55 -0.000061    0.11      2.65   
   291. D(H  52,C  27,C  23,C  31)   -179.06  0.000122   -0.27   -179.32   
   292. D(H  52,C  27,C  23,N  22)     -1.83  0.000039   -0.07     -1.89   
   293. D(C  28,C  27,C  23,C  31)      0.74  0.000011   -0.03      0.71   
   294. D(C  28,C  27,C  23,N  22)    177.97 -0.000073    0.16    178.13   
   295. D(H  53,C  28,C  27,H  52)      0.01 -0.000043    0.09      0.10   
   296. D(H  53,C  28,C  27,C  23)   -179.78  0.000068   -0.15   -179.93   
   297. D(C  29,C  28,C  27,H  52)    179.45 -0.000103    0.22    179.67   
   298. D(C  29,C  28,C  27,C  23)     -0.35  0.000008   -0.01     -0.36   
   299. D(O  32,C  29,C  28,C  27)    180.00  0.000022   -0.04    179.95   
   300. D(C  30,C  29,C  28,H  53)    179.22 -0.000074    0.16    179.39   
   301. D(C  30,C  29,C  28,C  27)     -0.22 -0.000012    0.03     -0.19   
   302. D(O  32,C  29,C  28,H  53)     -0.56 -0.000040    0.09     -0.47   
   303. D(H  54,C  30,C  29,O  32)     -0.12 -0.000014    0.03     -0.09   
   304. D(H  54,C  30,C  29,C  28)   -179.89  0.000021   -0.05   -179.94   
   305. D(C  31,C  30,C  29,O  32)   -179.84 -0.000037    0.08   -179.76   
   306. D(C  31,C  30,C  29,C  28)      0.40 -0.000002   -0.00      0.40   
   307. D(H  55,C  31,C  30,H  54)     -0.14 -0.000036    0.08     -0.06   
   308. D(H  55,C  31,C  30,C  29)    179.58 -0.000013    0.03    179.61   
   309. D(C  23,C  31,C  30,H  54)   -179.73 -0.000003    0.00   -179.73   
   310. D(C  23,C  31,C  30,C  29)     -0.01  0.000020   -0.05     -0.06   
   311. D(H  55,C  31,C  23,C  27)    179.84  0.000009   -0.01    179.83   
   312. D(H  55,C  31,C  23,N  22)      2.58  0.000096   -0.21      2.38   
   313. D(C  30,C  31,C  23,C  27)     -0.56 -0.000026    0.06     -0.50   
   314. D(C  30,C  31,C  23,N  22)   -177.82  0.000061   -0.13   -177.95   
   315. D(C  33,O  32,C  29,C  30)     -0.61 -0.000049    0.09     -0.52   
   316. D(C  33,O  32,C  29,C  28)    179.17 -0.000083    0.17    179.33   
   317. D(H  58,C  33,O  32,C  29)    -60.82  0.000090   -0.08    -60.90   
   318. D(H  57,C  33,O  32,C  29)   -179.45  0.000028   -0.06   -179.50   
   319. D(H  56,C  33,O  32,C  29)     61.93 -0.000068   -0.03     61.91   
    ----------------------------------------------------------------------------

Geometry step timings:
Preparation and reading OPT file:      0.000 s ( 0.000 %)
Internal coordinates            :      0.000 s ( 0.000 %)
B/P matrices and projection     :      0.018 s (36.735 %)
Hessian update/contruction      :      0.010 s (20.408 %)
Making the step                 :      0.014 s (28.571 %)
Converting the step to Cartesian:      0.001 s ( 2.041 %)
Storing new data                :      0.001 s ( 2.041 %)
Checking convergence            :      0.000 s ( 0.000 %)
Final printing                  :      0.005 s (10.204 %)
Total time                      :      0.049 s

Time for energy+gradient        :    303.794 s
Time for complete geometry iter :    304.237 s

         *************************************************************
         *                GEOMETRY OPTIMIZATION CYCLE   2            *
         *************************************************************
---------------------------------
CARTESIAN COORDINATES (ANGSTROEM)
---------------------------------
  C     23.825998  -17.580250   -0.034193
  C     24.228344  -18.523066    1.094400
  C     25.520841  -19.291280    0.894121
  N     26.426428  -18.804381   -0.018449
  C     26.105624  -17.737684   -0.995869
  C     25.047081  -16.785815   -0.472971
  C     27.683256  -19.458959   -0.182582
  C     28.514216  -19.681381    0.919488
  C     29.747296  -20.290966    0.756701
  C     30.182108  -20.676519   -0.515227
  C     29.360677  -20.443685   -1.617367
  C     28.115257  -19.845721   -1.450042
  N     31.438363  -21.326968   -0.673956
  C     31.531768  -22.419720   -1.674286
  C     32.528450  -23.497521   -1.258773
  C     33.799588  -22.830731   -0.866616
  C     33.783931  -21.539446   -0.371668
  C     32.577322  -20.725220   -0.170471
  O     25.755955  -20.287057    1.579244
  O     32.576110  -19.644032    0.413945
  C     35.155642  -23.195945   -0.865886
  N     35.921448  -22.189095   -0.406440
  N     35.082961  -21.193490   -0.102024
  C     35.618336  -19.973986    0.418704
  C     35.744708  -24.486638   -1.291034
  N     37.094840  -24.542122   -1.289349
  O     35.021301  -25.428365   -1.624700
  C     35.266169  -19.543687    1.696597
  C     35.821982  -18.382904    2.201063
  C     36.739034  -17.647849    1.435855
  C     37.097497  -18.090543    0.158818
  C     36.529808  -19.258550   -0.344039
  O     37.223490  -16.524729    2.023641
  C     38.175890  -15.743576    1.290582
  H     23.440257  -18.156426   -0.886053
  H     23.019379  -16.919051    0.301808
  H     24.374333  -17.951211    2.022506
  H     23.453318  -19.265748    1.308132
  H     27.038337  -17.205333   -1.211281
  H     25.755881  -18.191702   -1.934720
  H     25.445813  -16.209510    0.372726
  H     24.799336  -16.076439   -1.270899
  H     28.187477  -19.381684    1.909087
  H     30.379507  -20.469903    1.619624
  H     29.684107  -20.725638   -2.614540
  H     27.484368  -19.684354   -2.318539
  H     30.533591  -22.851412   -1.777517
  H     31.828334  -22.000680   -2.647042
  H     32.135164  -24.083390   -0.416439
  H     32.680182  -24.189533   -2.091175
  H     37.648692  -23.759676   -0.975733
  H     37.554906  -25.406730   -1.529612
  H     34.560713  -20.116886    2.288548
  H     35.561713  -18.031063    3.194779
  H     37.804188  -17.542432   -0.452769
  H     36.796233  -19.608199   -1.337197
  H     37.740985  -15.359914    0.359391
  H     38.434439  -14.906535    1.941532
  H     39.079027  -16.325675    1.069164

----------------------------
CARTESIAN COORDINATES (A.U.)
----------------------------
  NO LB      ZA    FRAG     MASS         X           Y           Z
   0 C     6.0000    0    12.011   45.024612  -33.221858   -0.064615
   1 C     6.0000    0    12.011   45.784935  -35.003523    2.068117
   2 C     6.0000    0    12.011   48.227400  -36.455237    1.689643
   3 N     7.0000    0    14.007   49.938712  -35.535130   -0.034863
   4 C     6.0000    0    12.011   49.332479  -33.519366   -1.881919
   5 C     6.0000    0    12.011   47.332123  -31.720594   -0.893785
   6 C     6.0000    0    12.011   52.313772  -36.772103   -0.345030
   7 C     6.0000    0    12.011   53.884060  -37.192420    1.737581
   8 C     6.0000    0    12.011   56.214243  -38.344368    1.429958
   9 C     6.0000    0    12.011   57.035919  -39.072958   -0.973639
  10 C     6.0000    0    12.011   55.483638  -38.632965   -3.056381
  11 C     6.0000    0    12.011   53.130136  -37.502978   -2.740183
  12 N     7.0000    0    14.007   59.409895  -40.302128   -1.273592
  13 C     6.0000    0    12.011   59.586406  -42.367132   -3.163942
  14 C     6.0000    0    12.011   61.469863  -44.403880   -2.378737
  15 C     6.0000    0    12.011   63.871964  -43.143829   -1.637668
  16 C     6.0000    0    12.011   63.842378  -40.703654   -0.702350
  17 C     6.0000    0    12.011   61.562216  -39.164989   -0.322143
  18 O     8.0000    0    15.999   48.671701  -38.336982    2.984340
  19 O     8.0000    0    15.999   61.559925  -37.121840    0.782243
  20 C     6.0000    0    12.011   66.434536  -43.833983   -1.636287
  21 N     7.0000    0    14.007   67.881699  -41.931312   -0.768060
  22 N     7.0000    0    14.007   66.297189  -40.049892   -0.192797
  23 C     6.0000    0    12.011   67.308901  -37.745364    0.791237
  24 C     6.0000    0    12.011   67.547708  -46.273039   -2.439701
  25 N     7.0000    0    14.007   70.099088  -46.377889   -2.436517
  26 O     8.0000    0    15.999   66.180668  -48.052646   -3.070237
  27 C     6.0000    0    12.011   66.643401  -36.932215    3.206105
  28 C     6.0000    0    12.011   67.693736  -34.738654    4.159405
  29 C     6.0000    0    12.011   69.426713  -33.349601    2.713373
  30 C     6.0000    0    12.011   70.104110  -34.186172    0.300122
  31 C     6.0000    0    12.011   69.031334  -36.393385   -0.650140
  32 O     8.0000    0    15.999   70.342201  -31.227212    3.824128
  33 C     6.0000    0    12.011   72.141978  -29.751047    2.438846
  34 H     1.0000    0     1.008   44.295666  -34.310672   -1.674397
  35 H     1.0000    0     1.008   43.500323  -31.972372    0.570335
  36 H     1.0000    0     1.008   46.060814  -33.922872    3.821982
  37 H     1.0000    0     1.008   44.320348  -36.406988    2.472010
  38 H     1.0000    0     1.008   51.095053  -32.513368   -2.288989
  39 H     1.0000    0     1.008   48.671561  -34.377334   -3.656091
  40 H     1.0000    0     1.008   48.085618  -30.631535    0.704350
  41 H     1.0000    0     1.008   46.863953  -30.380067   -2.401651
  42 H     1.0000    0     1.008   53.266613  -36.626074    3.607652
  43 H     1.0000    0     1.008   57.408949  -38.682511    3.060646
  44 H     1.0000    0     1.008   56.094832  -39.165781   -4.940764
  45 H     1.0000    0     1.008   51.937929  -37.198039   -4.381404
  46 H     1.0000    0     1.008   57.700125  -43.182910   -3.359020
  47 H     1.0000    0     1.008   60.146834  -41.575260   -5.002185
  48 H     1.0000    0     1.008   60.726659  -45.511012   -0.786955
  49 H     1.0000    0     1.008   61.756594  -45.711593   -3.951748
  50 H     1.0000    0     1.008   71.145717  -44.899280   -1.843868
  51 H     1.0000    0     1.008   70.968487  -48.011761   -2.890548
  52 H     1.0000    0     1.008   65.310283  -38.015404    4.324729
  53 H     1.0000    0     1.008   67.201899  -34.073772    6.037258
  54 H     1.0000    0     1.008   71.439563  -33.150391   -0.855609
  55 H     1.0000    0     1.008   69.534803  -37.054126   -2.526936
  56 H     1.0000    0     1.008   71.320125  -29.026030    0.679150
  57 H     1.0000    0     1.008   72.630564  -28.169270    3.668963
  58 H     1.0000    0     1.008   73.848659  -30.851054    2.020428

--------------------------------
INTERNAL COORDINATES (ANGSTROEM)
--------------------------------
 C      0   0   0     0.000000000000     0.00000000     0.00000000
 C      1   0   0     1.524633283941     0.00000000     0.00000000
 C      2   1   0     1.516842839365   116.12386340     0.00000000
 N      3   2   1     1.374751852552   118.00666542    20.33114040
 C      4   3   2     1.481926773724   123.37764543   347.66866799
 C      5   4   3     1.516571725379   112.05338223    29.60468179
 C      4   3   2     1.426543672936   119.61833806   176.66476045
 C      7   4   3     1.398043220201   120.39540130   305.75466905
 C      8   7   4     1.385127679301   120.43105894   181.39739420
 C      9   8   7     1.398397697445   120.33389114     0.77317942
 C     10   9   8     1.394156904145   119.32735259   359.86475821
 C     11  10   9     1.391627781561   120.26513171   359.36081956
 N     10   9   8     1.423535498294   120.11887265   181.26759686
 C     13  10   9     1.484416664939   117.84202451   141.80600672
 C     14  13  10     1.525674140148   112.18650077   212.23540599
 C     15  14  13     1.488014309295   108.25655165   310.57948610
 C     16  15  14     1.382980655811   120.20163318    27.63581871
 C     13  10   9     1.383049353517   119.16634412   305.58867478
 O      3   2   1     1.231358826404   119.92027945   197.36607276
 O     18  13  10     1.229028504853   123.71372269   359.85999671
 C     16  15  14     1.404373938038   135.11005743   207.82853059
 N     21  16  15     1.345843921205   110.79734276   179.51144917
 N     22  21  16     1.336771441477   106.14165416     0.56432834
 C     23  22  21     1.430025818195   118.89676615   179.95388744
 C     21  16  15     1.481093303236   127.62663947   359.37971579
 N     25  21  16     1.351272580011   115.64614472   174.95959339
 O     25  21  16     1.233491366123   120.64478411   355.27115202
 C     24  23  22     1.393624960164   120.17229180   242.07943677
 C     28  24  23     1.382327956345   119.49213133   178.13453252
 C     29  28  24     1.402437941758   120.26019075   359.64025133
 C     30  29  28     1.398319815228   119.99980109   359.80957424
 C     24  23  22     1.387230403034   119.05025319    59.54905386
 O     30  29  28     1.357050941291   115.52360046   179.95118418
 C     33  30  29     1.433402846194   117.82084956   179.33214360
 H      1   2   3     1.098380885093   110.02258444    74.91207499
 H      1   2   3     1.095771676639   109.90241001   192.73810958
 H      2   1   3     1.099868875907   109.76396964   119.06871022
 H      2   1   3     1.094496622710   112.16641728   237.10079779
 H      5   4   3     1.095333097729   107.17013487   151.50576023
 H      5   4   3     1.099951731919   109.55338341   268.04706611
 H      6   5   4     1.098324751540   109.96361353    67.24521730
 H      6   5   4     1.096029831758   108.23923702   184.57757805
 H      8   7   4     1.084381573921   119.75742001     1.88528886
 H      9   8   7     1.084594662690   119.86890205   180.73675703
 H     11  10   9     1.085567990874   120.48086000   179.33803248
 H     12  11  10     1.085516837118   119.19626254   180.79143465
 H     14  13  10     1.092415162056   107.28292542   333.25843940
 H     14  13  10     1.099909461077   109.42020355    90.49413025
 H     15  14  13     1.098837911231   110.58602720    71.19754067
 H     15  14  13     1.093066700130   109.30069674   189.00122740
 H     26  25  21     1.008627296141   121.14367118     2.65272437
 H     26  25  21     1.008431425078   119.38935472   177.30763344
 H     28  24  23     1.084726025367   120.10466711   358.10570807
 H     29  28  24     1.085819914791   120.64409820   180.06956777
 H     31  30  29     1.083455938662   121.50447376   180.06473447
 H     32  24  23     1.086093337391   119.86311356     2.37620323
 H     34  33  30     1.097021441773   111.17921375    61.90573100
 H     34  33  30     1.091430362654   105.68364089   180.49726682
 H     34  33  30     1.097050830468   111.16451886   299.10494522

---------------------------
INTERNAL COORDINATES (A.U.)
---------------------------
 C      0   0   0     0.000000000000     0.00000000     0.00000000
 C      1   0   0     2.881139361309     0.00000000     0.00000000
 C      2   1   0     2.866417554599   116.12386340     0.00000000
 N      3   2   1     2.597904503424   118.00666542    20.33114040
 C      4   3   2     2.800435752865   123.37764543   347.66866799
 C      5   4   3     2.865905223416   112.05338223    29.60468179
 C      4   3   2     2.695776859928   119.61833806   176.66476045
 C      7   4   3     2.641918809565   120.39540130   305.75466905
 C      8   7   4     2.617511974393   120.43105894   181.39739420
 C      9   8   7     2.642588674477   120.33389114     0.77317942
 C     10   9   8     2.634574736550   119.32735259   359.86475821
 C     11  10   9     2.629795387506   120.26513171   359.36081956
 N     10   9   8     2.690092233690   120.11887265   181.26759686
 C     13  10   9     2.805140965363   117.84202451   141.80600672
 C     14  13  10     2.883106294486   112.18650077   212.23540599
 C     15  14  13     2.811939527923   108.25655165   310.57948610
 C     16  15  14     2.613454687994   120.20163318    27.63581871
 C     13  10   9     2.613584507845   119.16634412   305.58867478
 O      3   2   1     2.326930954491   119.92027945   197.36607276
 O     18  13  10     2.322527284956   123.71372269   359.85999671
 C     16  15  14     2.653882132509   135.11005743   207.82853059
 N     21  16  15     2.543276430079   110.79734276   179.51144917
 N     22  21  16     2.526131928039   106.14165416     0.56432834
 C     23  22  21     2.702357160826   118.89676615   179.95388744
 C     21  16  15     2.798860721901   127.62663947   359.37971579
 N     25  21  16     2.553535108499   115.64614472   174.95959339
 O     25  21  16     2.330960870529   120.64478411   355.27115202
 C     24  23  22     2.633569508107   120.17229180   242.07943677
 C     28  24  23     2.612221264754   119.49213133   178.13453252
 C     29  28  24     2.650223629743   120.26019075   359.64025133
 C     30  29  28     2.642441498417   119.99980109   359.80957424
 C     24  23  22     2.621485546384   119.05025319    59.54905386
 O     30  29  28     2.564454628820   115.52360046   179.95118418
 C     33  30  29     2.708738818890   117.82084956   179.33214360
 H      1   2   3     2.075639063560   110.02258444    74.91207499
 H      1   2   3     2.070708374155   109.90241001   192.73810958
 H      2   1   3     2.078450958689   109.76396964   119.06871022
 H      2   1   3     2.068298871423   112.16641728   237.10079779
 H      5   4   3     2.069879580128   107.17013487   151.50576023
 H      5   4   3     2.078607533859   109.55338341   268.04706611
 H      6   5   4     2.075532986517   109.96361353    67.24521730
 H      6   5   4     2.071196216631   108.23923702   184.57757805
 H      8   7   4     2.049184199381   119.75742001     1.88528886
 H      9   8   7     2.049586878796   119.86890205   180.73675703
 H     11  10   9     2.051426202504   120.48086000   179.33803248
 H     12  11  10     2.051329535913   119.19626254   180.79143465
 H     14  13  10     2.064365480828   107.28292542   333.25843940
 H     14  13  10     2.078527653545   109.42020355    90.49413025
 H     15  14  13     2.076502717797   110.58602720    71.19754067
 H     15  14  13     2.065596709355   109.30069674   189.00122740
 H     26  25  21     1.906029360904   121.14367118     2.65272437
 H     26  25  21     1.905659218238   119.38935472   177.30763344
 H     28  24  23     2.049835118280   120.10466711   358.10570807
 H     29  28  24     2.051902269712   120.64409820   180.06956777
 H     31  30  29     2.047435002241   121.50447376   180.06473447
 H     32  24  23     2.052418963546   119.86311356     2.37620323
 H     34  33  30     2.073070087990   111.17921375    61.90573100
 H     34  33  30     2.062504479662   105.68364089   180.49726682
 H     34  33  30     2.073125624575   111.16451886   299.10494522



           ************************************************************
           *        Program running with 4 parallel MPI-processes     *
           *              working on a common directory               *
           ************************************************************
------------------------------------------------------------------------------
                   ___                                                        
                  /   \      - P O W E R E D   B Y -                         
                 /     \                                                     
                 |  |  |   _    _      __       _____    __    __             
                 |  |  |  | |  | |    /  \     |  _  \  |  |  /  |          
                  \  \/   | |  | |   /    \    | | | |  |  | /  /          
                 / \  \   | |__| |  /  /\  \   | |_| |  |  |/  /          
                |  |  |   |  __  | /  /__\  \  |    /   |      \           
                |  |  |   | |  | | |   __   |  |    \   |  |\   \          
                \     /   | |  | | |  |  |  |  | |\  \  |  | \   \       
                 \___/    |_|  |_| |__|  |__|  |_| \__\ |__|  \__/        
                                                                              
                      - O R C A' S   B I G   F R I E N D -                    
                                      &                                       
                       - I N T E G R A L  F E E D E R -                       
                                                                              
 v1 FN, 2020, v2 2021, v3 2022-2024                                           
------------------------------------------------------------------------------


----------------------
SHARK INTEGRAL PACKAGE
----------------------

Number of atoms                             ...     59
Number of basis functions                   ...    816
Number of shells                            ...    390
Maximum angular momentum                    ...      2
Integral batch strategy                     ... SHARK/LIBINT Hybrid
RI-J (if used) integral strategy            ... SPLIT-RIJ (Revised 2003 algorithm where possible)
Printlevel                                  ...      1
Contraction scheme used                     ... SEGMENTED contraction
Prescreening option                         ... SCHWARTZ
   Thresh                                   ... 2.500e-11
   Tcut                                     ... 2.500e-12
   Tpresel                                  ... 2.500e-12 
Coulomb Range Separation                    ... NOT USED
Exchange Range Separation                   ... NOT USED
Multipole approximations                    ... NOT USED
Finite Nucleus Model                        ... NOT USED
CABS basis                                  ... NOT available
Auxiliary Coulomb fitting basis             ... AVAILABLE
   # of basis functions in Aux-J            ...   1295
   # of shells in Aux-J                     ...    533
   Maximum angular momentum in Aux-J        ...      2
Auxiliary J/K fitting basis                 ... NOT available
Auxiliary Correlation fitting basis         ... NOT available
Auxiliary 'external' fitting basis          ... NOT available

Checking pre-screening integrals            ... done (  0.0 sec) Dimension = 390
   => SHARK Basis and OBASIS are compatible. Storing Pre-screening
Shell pair information
Shell pair cut-off parameter TPreSel        ...   2.5e-12
Total number of shell pairs                 ...     76245
Shell pairs after pre-screening             ...     38819
Total number of primitive shell pairs       ...    279454
Primitive shell pairs kept                  ...     86858
          la=0 lb=0:  11491 shell pairs
          la=1 lb=0:  14755 shell pairs
          la=1 lb=1:   4719 shell pairs
          la=2 lb=0:   4493 shell pairs
          la=2 lb=1:   2891 shell pairs
          la=2 lb=2:    470 shell pairs

Checking whether 4 symmetric matrices of dimension 816 fit in memory
:Max Core in MB      =   2000.00
 MB in use           =     43.25
 MB left             =   1956.75
 MB needed           =     10.17
 Data fit in memory  = YES
Calculating RI/J V-Matrix + Cholesky decomp.... done (  0.2 sec)
Calculating Nuclear repulsion               ... done (  0.0 sec) ENN=   3309.245048151684 Eh

Diagonalization of the overlap matrix:
Smallest eigenvalue                        ... 1.841e-05
Time for diagonalization                   ...    0.134 sec
Threshold for overlap eigenvalues          ... 1.000e-07
Number of eigenvalues below threshold      ... 0
Time for construction of square roots      ...    0.084 sec
Total time needed                          ...    0.226 sec

-------------------
DFT GRID GENERATION
-------------------

General Integration Accuracy     IntAcc      ... 4.388
Radial Grid Type                 RadialGrid  ... OptM3 with GC (2021)
Angular Grid (max. ang.)         AngularGrid ... 4 (Lebedev-302)
Angular grid pruning method      GridPruning ... 4 (adaptive)
Weight generation scheme         WeightScheme... mBecke (2022)
Basis function cutoff            BFCut       ... 1.0000e-11
Integration weight cutoff        WCut        ... 1.0000e-14
Partially contracted basis set               ... off
Rotationally invariant grid construction     ... off
Angular grids for H and He will be reduced by one unit
Diffuse basis detected: some atoms will have their outermost
                        angular grid increased by 1.

Total number of grid points                  ...   283827
Total number of batches                      ...     4459
Average number of points per batch           ...       63
Average number of grid points per atom       ...     4811
Grids setup in   4.2 sec
Initializing property integral containers    ... done (  0.0 sec)

SHARK setup successfully completed in   6.2 seconds

Maximum memory used throughout the entire STARTUP-calculation: 106.0 MB


           ************************************************************
           *        Program running with 4 parallel MPI-processes     *
           *              working on a common directory               *
           ************************************************************
Occupation numbers will be reassigned to an Aufbau configuration
             **** ENERGY FILE WAS UPDATED (Apixaban_SMD_chloroform_Opt_Freq_KeepDens.en.tmp) ****
Finished Guess after   1.0 sec
Maximum memory used throughout the entire GUESS-calculation: 72.7 MB


           ************************************************************
           *        Program running with 4 parallel MPI-processes     *
           *              working on a common directory               *
           ************************************************************
--------------------
CPCM SOLVATION MODEL
--------------------
CPCM parameters:
  Epsilon                                         ...       4.7113
  Refrac                                          ...       1.4459
  Rsolv                                           ...       1.3000
  Surface type                                    ... GAUSSIAN VDW
  Discretization scheme                           ... Constant charge density
    Threshold for H atoms                         ...       5.0000 (charges/Ang^2)
    Threshold for non-H atoms                     ...       5.0000 (charges/Ang^2)
  Epsilon function type                           ...         CPCM
Solvent:                                          ... CHLOROFORM
SMD-CDS solvent descriptors:
  Soln                                            ...       1.4459
  Soln25                                          ...       1.4431
  Sola                                            ...       0.1500
  Solb                                            ...       0.0200
  Solg                                            ...      38.3900
  Solc                                            ...       0.0000
  Solh                                            ...       0.7500
Radii:
  Scheme                                          ... Element-dependent radii
  Radius for C  used is    3.4960 Bohr (=   1.8500 Ang.)
  Radius for N  used is    3.5716 Bohr (=   1.8900 Ang.)
  Radius for O  used is    3.8248 Bohr (=   2.0240 Ang.)
  Radius for H  used is    2.2677 Bohr (=   1.2000 Ang.)
Calculating surface                               ...        done! (  0.0s)
Cavity surface points                             ...         4510
Cavity Volume                                     ...    3250.4606
Cavity Surface-area                               ...    1732.7642
Calculating surface distance matrix               ...        done! (  0.3s)
Performing Cholesky decomposition & store         ...        done! (  1.7s)
Overall time for CPCM initialization              ...                 2.0s

----------------------------------------D-I-I-S--------------------------------------------
Iteration    Energy (Eh)           Delta-E    RMSDP     MaxDP     DIISErr   Damp  Time(sec)
-------------------------------------------------------------------------------------------
               ***  Starting incremental Fock matrix formation  ***
    1    -1542.1461317296734705     0.00e+00  7.74e-05  2.53e-03  7.74e-03  0.700  18.8
    2    -1542.1463943604258020    -2.63e-04  6.93e-05  2.31e-03  5.96e-03  0.700  13.1
                               ***Turning on AO-DIIS***
    3    -1542.1465976726021836    -2.03e-04  5.26e-05  1.76e-03  4.32e-03  0.700  12.5
                              *** Initializing SOSCF ***
---------------------------------------S-O-S-C-F--------------------------------------
Iteration    Energy (Eh)           Delta-E    RMSDP     MaxDP     MaxGrad    Time(sec)
--------------------------------------------------------------------------------------
    4    -1542.1467422739069661    -1.45e-04  1.28e-04  4.18e-03  3.08e-03    12.8
               *** Restarting incremental Fock matrix formation ***
    5    -1542.1470821227840133    -3.40e-04  1.05e-05  3.17e-04  3.90e-05    22.4
    6    -1542.1470823708659736    -2.48e-07  7.22e-06  3.06e-04  2.67e-05    12.4
    7    -1542.1470823211220704     4.97e-08  4.91e-06  2.13e-04  3.82e-05    11.2
    8    -1542.1470824454854665    -1.24e-07  3.19e-06  1.66e-04  6.02e-06    11.3
    9    -1542.1470824408916087     4.59e-09  2.16e-06  1.41e-04  1.09e-05    10.5
                 **** Energy Check signals convergence ****

               *****************************************************
               *                     SUCCESS                       *
               *           SCF CONVERGED AFTER   9 CYCLES          *
               *****************************************************


SMD CDS free energy correction energy :                -7.77339     Kcal/mol
Total Energy after SMD CDS correction =             -1542.159470151 Eh
             **** ENERGY FILE WAS UPDATED (Apixaban_SMD_chloroform_Opt_Freq_KeepDens.en.tmp) ****

----------------
TOTAL SCF ENERGY
----------------

Total Energy       :      -1542.15947015138499 Eh          -41964.29261 eV

Components:
Nuclear Repulsion  :       3309.24504815168439 Eh           90049.13577 eV
Electronic Energy  :      -4851.35196321682270 Eh         -132011.99828 eV
One Electron Energy:      -8680.10622771368617 Eh         -236197.69852 eV
Two Electron Energy:       3828.75426449686393 Eh          104185.70024 eV
CPCM Dielectric    :         -0.04016739519814 Eh              -1.09301 eV
SMD CDS (Gcds)     :         -0.01238769104929 Eh              -0.33709 eV

Virial components:
Potential Energy   :      -3077.47752831113667 Eh          -83742.42093 eV
Kinetic Energy     :       1535.31805815975167 Eh           41778.12832 eV
Virial Ratio       :          2.00445602261712

DFT components:
N(Alpha)           :      120.999973635905 electrons
N(Beta)            :      120.999973635905 electrons
N(Total)           :      241.999947271811 electrons
E(X)               :     -205.555399768879 Eh       
E(C)               :       -7.985328636943 Eh       
E(XC)              :     -213.540728405821 Eh       

CPCM Solvation Model Properties:
Surface-charge          :         -0.05712001829235
Corrected charge        :          0.00000000000000
Outlying charge corr.   :          0.00011314795939 Eh               0.00308 eV
Free-energy (cav+disp)  :         -0.01238769104929 Eh              -0.33709 eV

---------------
SCF CONVERGENCE
---------------

  Last Energy change         ...   -4.5939e-09  Tolerance :   1.0000e-08
  Last MAX-Density change    ...    1.4133e-04  Tolerance :   1.0000e-07
  Last RMS-Density change    ...    2.1593e-06  Tolerance :   5.0000e-09
  Last DIIS Error            ...    3.0754e-03  Tolerance :   5.0000e-07
  Last Orbital Gradient      ...    1.0940e-05  Tolerance :   1.0000e-05
  Last Orbital Rotation      ...    2.2957e-05  Tolerance :   1.0000e-05


Total SCF time: 0 days 0 hours 2 min 18 sec 
Finished LeanSCF after 138.6 sec

Maximum memory used throughout the entire LEANSCF-calculation: 122.8 MB


           ************************************************************
           *        Program running with 4 parallel MPI-processes     *
           *              working on a common directory               *
           ************************************************************

------------------------------------------------------------------------------
                         ORCA PROPERTY INTEGRAL CALCULATIONS
------------------------------------------------------------------------------

GBWName                                   ... Apixaban_SMD_chloroform_Opt_Freq_KeepDens.gbw
Number of atoms                           ...     59
Number of basis functions                 ...    816
Max core memory                           ...   2000 MB

Dipole integrals                          ... YES
Quadrupole integrals                      ...  NO
Linear momentum integrals                 ...  NO
Angular momentum integrals                ...  NO
Higher moments length integrals           ...  NO
Higher moments velocity integrals         ...  NO
Kinetic energy integrals                  ...  NO
GIAO right hand sides                     ...  NO
GIAO dipole derivative integrals          ...  NO
SOC integrals                             ...  NO
EPR diamagnetic integrals (GIAO)          ...  NO
EPR gauge integrals                       ...  NO
Field gradient integrals                  ...  NO (   0 nuclei)
Spin-dipole/Fermi contact integrals       ...  NO (   0 nuclei)
Contact density integrals                 ...  NO (   0 nuclei)
Nucleus-orbit integrals                   ...  NO (   0 nuclei)
Geometric perturbations                   ...  NO (  59 nuclei)

Choice of electric origin   ... Center of mass
Position of electric origin ... ( 60.3243,-38.2020, -0.0686) 
Choice of magnetic origin   ... GIAO
Position of magnetic origin ... (  0.0000,  0.0000,  0.0000) 

Calculating integrals                     ... Electric Dipole (Length)     done (  0.1 sec)

Property integrals calculated in   0.1 sec

Maximum memory used throughout the entire PROPINT-calculation: 64.1 MB


-------------------------------------------------------------------------------
                          DFT DISPERSION CORRECTION                            
                                                                               
                                DFTD4 V3.4.0                                   
-------------------------------------------------------------------------------
-------------------------   ----------------
Dispersion correction           -0.029164519
-------------------------   ----------------

------------------   -----------------
gCP correction             0.037908095
------------------   -----------------

-------------------------   --------------------
FINAL SINGLE POINT ENERGY     -1542.150726575422
-------------------------   --------------------



           ************************************************************
           *        Program running with 4 parallel MPI-processes     *
           *              working on a common directory               *
           ************************************************************
------------------------------------------------------------------------------
                         ORCA SCF GRADIENT CALCULATION
------------------------------------------------------------------------------

Nuc. rep. gradient        (SHARK) ... done (  0.0 sec)
HCore & Overlap gradient  (SHARK) ... done (  2.9 sec)
Split-RIJ-J gradient      (SHARK) ... done ( 11.6 sec)
XC gradient                       ... done ( 32.8 sec)
CPCM gradient                     ... done ( 13.9 sec)
SMD gradient                      ... done (  0.0 sec)
Dispersion correction             ... done (  0.1 sec)

-------------------
DISPERSION GRADIENT
-------------------

   1   C   :   -0.000097462    0.000043083   -0.000006582
   2   C   :   -0.000114502    0.000014250    0.000062129
   3   C   :   -0.000089280   -0.000035752    0.000077629
   4   N   :   -0.000049389    0.000027913    0.000002370
   5   C   :   -0.000035843    0.000087232   -0.000079499
   6   C   :   -0.000059342    0.000114371   -0.000023414
   7   C   :    0.000005002   -0.000009125   -0.000005360
   8   C   :    0.000005038    0.000003025    0.000121632
   9   C   :   -0.000011787    0.000009077    0.000120555
  10   C   :   -0.000043158    0.000004588   -0.000009654
  11   C   :   -0.000029912   -0.000008732   -0.000129326
  12   C   :   -0.000027853    0.000000194   -0.000118202
  13   N   :   -0.000045298   -0.000029463   -0.000032462
  14   C   :   -0.000050724   -0.000087567   -0.000106922
  15   C   :   -0.000054070   -0.000135043   -0.000046006
  16   C   :    0.000022405   -0.000096475   -0.000028351
  17   C   :    0.000105833   -0.000112467   -0.000026686
  18   C   :   -0.000034203    0.000028346    0.000008667
  19   O   :   -0.000069976   -0.000091368    0.000113289
  20   O   :   -0.000037333    0.000104573    0.000056309
  21   C   :    0.000034392   -0.000010429    0.000011683
  22   N   :    0.000055245   -0.000061702   -0.000013946
  23   N   :    0.000068153   -0.000057477   -0.000007391
  24   C   :    0.000073108    0.000037525    0.000032569
  25   C   :    0.000087685   -0.000128100   -0.000031864
  26   N   :    0.000124469   -0.000082142   -0.000021269
  27   O   :    0.000029600   -0.000122956   -0.000033960
  28   C   :    0.000031744    0.000038822    0.000137927
  29   C   :    0.000010041    0.000052514    0.000131357
  30   C   :    0.000048073    0.000079124    0.000039437
  31   C   :    0.000078680    0.000075577   -0.000038019
  32   C   :    0.000102513    0.000061484   -0.000070743
  33   O   :    0.000033672    0.000080038    0.000043296
  34   C   :    0.000060865    0.000085099   -0.000006869
  35   H   :   -0.000045205    0.000011314   -0.000011314
  36   H   :   -0.000039236    0.000023160    0.000004802
  37   H   :   -0.000034836    0.000006152    0.000037013
  38   H   :   -0.000041154   -0.000018947    0.000024800
  39   H   :    0.000000014    0.000059311   -0.000033576
  40   H   :   -0.000017651    0.000025813   -0.000044032
  41   H   :   -0.000016006    0.000051784   -0.000001094
  42   H   :   -0.000013450    0.000043755   -0.000022334
  43   H   :    0.000013225   -0.000000404    0.000066347
  44   H   :   -0.000011546    0.000004833    0.000069874
  45   H   :   -0.000017152    0.000002453   -0.000068757
  46   H   :   -0.000004417   -0.000007835   -0.000068928
  47   H   :   -0.000018709   -0.000051295   -0.000034704
  48   H   :   -0.000015286   -0.000018402   -0.000060461
  49   H   :   -0.000030025   -0.000065807    0.000007700
  50   H   :   -0.000023936   -0.000051343   -0.000033166
  51   H   :    0.000039705   -0.000042746   -0.000011614
  52   H   :    0.000022440   -0.000021003   -0.000005858
  53   H   :    0.000003938    0.000005720    0.000076883
  54   H   :   -0.000009998    0.000014324    0.000054837
  55   H   :    0.000027961    0.000023343   -0.000032320
  56   H   :    0.000042467    0.000024976   -0.000053727
  57   H   :    0.000020301    0.000040138    0.000002554
  58   H   :    0.000014636    0.000029331    0.000008389
  59   H   :    0.000027534    0.000033337    0.000006364

Difference to translation invariance:
           :    0.0000000000    0.0000000000    0.0000000000

Difference to rotation invariance:
           :   -0.0000000000   -0.0000000000    0.0000000000

Norm of the Dispersion gradient    ...    0.0007431121
RMS gradient                       ...    0.0000558557
MAX gradient                       ...    0.0001379270
gCP correction                   ... done

------------------
CARTESIAN GRADIENT
------------------

   1   C   :    0.000022419   -0.000001629   -0.000013520
   2   C   :    0.000226946    0.000053533    0.000098061
   3   C   :   -0.000379875   -0.000396996   -0.000362057
   4   N   :    0.000167289   -0.000080258    0.000376318
   5   C   :   -0.000096861    0.000287464   -0.000311661
   6   C   :    0.000079335   -0.000060895    0.000080004
   7   C   :   -0.000322827    0.000233060   -0.000001199
   8   C   :   -0.000045100   -0.000036937   -0.000016386
   9   C   :    0.000076598    0.000000524   -0.000015803
  10   C   :    0.000105633   -0.000131897   -0.000047982
  11   C   :    0.000002935    0.000060859   -0.000070544
  12   C   :    0.000030288   -0.000088514   -0.000056185
  13   N   :    0.000172037    0.000006917    0.000432467
  14   C   :   -0.000008845   -0.000254212   -0.000266829
  15   C   :    0.000019012    0.000098872    0.000137852
  16   C   :   -0.000008727    0.000002697   -0.000069073
  17   C   :    0.000170099   -0.000286139    0.000287940
  18   C   :   -0.000112399    0.000515941   -0.000519987
  19   O   :    0.000249272    0.000040398    0.000121636
  20   O   :    0.000110090   -0.000084894    0.000201811
  21   C   :   -0.000086705    0.000165063   -0.000001154
  22   N   :    0.000106581   -0.000049811    0.000368186
  23   N   :   -0.000443444    0.000135562   -0.000264871
  24   C   :    0.000117481    0.000013633    0.000029807
  25   C   :    0.000262106   -0.000486623   -0.000177864
  26   N   :   -0.000793253    0.000060205   -0.000035009
  27   O   :   -0.000052454    0.000160321    0.000120287
  28   C   :   -0.000048432   -0.000168667   -0.000107641
  29   C   :    0.000000350    0.000030332   -0.000016427
  30   C   :    0.000383392    0.000654149    0.000410844
  31   C   :    0.000038041   -0.000074559   -0.000261100
  32   C   :   -0.000178627   -0.000051715   -0.000014198
  33   O   :   -0.000582262   -0.000569353    0.000067631
  34   C   :    0.000399443    0.000334481   -0.000241907
  35   H   :    0.000031625   -0.000006977   -0.000011313
  36   H   :    0.000011438   -0.000011787    0.000059385
  37   H   :   -0.000019646    0.000113893   -0.000024281
  38   H   :   -0.000055774    0.000053529   -0.000059090
  39   H   :   -0.000002091   -0.000001563    0.000022902
  40   H   :    0.000020553   -0.000056378    0.000081375
  41   H   :   -0.000029671    0.000000584    0.000009196
  42   H   :   -0.000001352   -0.000017152   -0.000039357
  43   H   :   -0.000005920    0.000042657    0.000037317
  44   H   :    0.000029599   -0.000024318    0.000043455
  45   H   :   -0.000013366    0.000004501    0.000014680
  46   H   :    0.000020021    0.000003124    0.000006823
  47   H   :    0.000037972   -0.000030373   -0.000016599
  48   H   :   -0.000032313    0.000065855    0.000040456
  49   H   :   -0.000001806    0.000017681    0.000008793
  50   H   :   -0.000077196    0.000019595   -0.000071116
  51   H   :    0.000296084   -0.000184012   -0.000094874
  52   H   :    0.000393796    0.000201014    0.000086317
  53   H   :   -0.000071305   -0.000036243    0.000060761
  54   H   :   -0.000087173   -0.000115666    0.000023268
  55   H   :   -0.000052133   -0.000118148   -0.000022384
  56   H   :    0.000046845    0.000093940   -0.000030308
  57   H   :    0.000019736   -0.000034024    0.000048883
  58   H   :    0.000019843   -0.000012672   -0.000036723
  59   H   :   -0.000057301    0.000002030    0.000000984

Difference to translation invariance:
           :   -0.0000000005    0.0000000003   -0.0000000000

Difference to rotation invariance:
           :   -0.0004105001   -0.0000067860   -0.0006249028

Norm of the Cartesian gradient     ...    0.0024969329
RMS gradient                       ...    0.0001876810
MAX gradient                       ...    0.0007932534

-------
TIMINGS
-------

Total SCF gradient time     ....       61.365 sec

Densities                   ....       0.016 sec  (  0.0%)
One electron gradient       ....       2.850 sec  (  4.6%)
RI-J Coulomb gradient       ....      11.625 sec  ( 18.9%)
XC gradient                 ....      32.766 sec  ( 53.4%)
CPCM gradient               ....      13.890 sec  ( 22.6%)
   A-Matrix (El+Nuc)        ....       0.568 sec  (  0.9%)
   Potential                ....      13.322 sec  ( 21.7%)
SMD gradient                ....       0.008 sec  (  0.0%)

Maximum memory used throughout the entire SCFGRAD-calculation: 83.7 MB
------------------------------------------------------------------------------
                         ORCA GEOMETRY RELAXATION STEP
------------------------------------------------------------------------------

Reading the OPT-File                    .... done
Getting information on internals        .... done
Copying old internal coords+grads       .... done
Making the new internal coordinates     .... (2022 redundants) done
Validating the new internal coordinates .... (2022 redundants) done
Calculating the B-matrix                .... done
Calculating the G,G- and P matrices     .... done
Transforming gradient to internals      .... done
Projecting the internal gradient        .... done
Number of atoms                         ....  59
Number of internal coordinates          .... 319
Current Energy                          .... -1542.150726575 Eh
Current gradient norm                   ....     0.002496933 Eh/bohr
Maximum allowed component of the step   ....  0.300
Current trust radius                    ....  0.300
Updating the Hessian (BFGS)             .... done
Forming the augmented Hessian           .... done
Diagonalizing the augmented Hessian     .... done
Last element of RFO vector              ....  0.999255634
Lowest eigenvalues of augmented Hessian:
 -0.000028072  0.010931104  0.013873733  0.016521880  0.017144127
Length of the computed step             ....  0.038605648
The final length of the internal step   ....  0.038605648
Converting the step to Cartesian space:
 Initial RMS(Int)=    0.0021615013
Transforming coordinates:
 Iter   0:  RMS(Cart)=    0.0077130264 RMS(Int)=    0.3517149846
done
Storing new coordinates                 .... done
The predicted energy change is          ....    -0.000014057
Previously predicted energy change      ....    -0.000036973
Actually observed energy change         ....    -0.000041618
Ratio of predicted to observed change   ....     1.125634966
New trust radius                        ....     0.450000000

                                .--------------------.
          ----------------------|Geometry convergence|-------------------------
          Item                value                   Tolerance       Converged
          ---------------------------------------------------------------------
          Energy change      -0.0000416179            0.0000050000      NO
          RMS gradient        0.0001010797            0.0001000000      NO
          MAX gradient        0.0005235210            0.0003000000      NO
          RMS step            0.0021615013            0.0020000000      NO
          MAX step            0.0129130390            0.0040000000      NO
          -------------------------------------------------------------------------
          ........................................................
          Max(Bonds)      0.0017      Max(Angles)    0.15
          Max(Dihed)        0.74      Max(Improp)    0.00
          ---------------------------------------------------------------------

The optimization has not yet converged - more geometry cycles are needed


    ---------------------------------------------------------------------------
                         Redundant Internal Coordinates
                            (Angstroem and degrees)

        Definition                    Value    dE/dq     Step     New-Value
    ----------------------------------------------------------------------------
     1. B(C   1,C   0)                1.5246 -0.000048  0.0002    1.5249   
     2. B(C   2,C   1)                1.5168 -0.000025  0.0001    1.5169   
     3. B(N   3,C   2)                1.3748 -0.000070  0.0000    1.3748   
     4. B(C   4,N   3)                1.4819  0.000206 -0.0005    1.4814   
     5. B(C   5,C   4)                1.5166 -0.000109  0.0003    1.5169   
     6. B(C   5,C   0)                1.5214 -0.000060  0.0002    1.5217   
     7. B(C   6,N   3)                1.4265 -0.000236  0.0006    1.4271   
     8. B(C   7,C   6)                1.3980  0.000033 -0.0002    1.3979   
     9. B(C   8,C   7)                1.3851  0.000063 -0.0002    1.3850   
    10. B(C   9,C   8)                1.3984  0.000001 -0.0001    1.3983   
    11. B(C  10,C   9)                1.3942  0.000079 -0.0001    1.3940   
    12. B(C  11,C  10)                1.3916  0.000053 -0.0001    1.3915   
    13. B(C  11,C   6)                1.3938  0.000120 -0.0002    1.3936   
    14. B(N  12,C   9)                1.4235 -0.000113  0.0004    1.4239   
    15. B(C  13,N  12)                1.4844  0.000241 -0.0003    1.4841   
    16. B(C  14,C  13)                1.5257 -0.000046  0.0003    1.5260   
    17. B(C  15,C  14)                1.4880 -0.000021  0.0001    1.4881   
    18. B(C  16,C  15)                1.3830 -0.000086 -0.0001    1.3829   
    19. B(C  17,C  16)                1.4695 -0.000079 -0.0001    1.4694   
    20. B(C  17,N  12)                1.3830 -0.000168  0.0003    1.3833   
    21. B(O  18,C   2)                1.2314  0.000084 -0.0002    1.2311   
    22. B(O  19,C  17)                1.2290  0.000021 -0.0001    1.2289   
    23. B(C  20,C  15)                1.4044  0.000087 -0.0002    1.4042   
    24. B(N  21,C  20)                1.3458  0.000155 -0.0002    1.3456   
    25. B(N  22,N  21)                1.3368  0.000079 -0.0001    1.3366   
    26. B(N  22,C  16)                1.3711 -0.000475  0.0006    1.3716   
    27. B(C  23,N  22)                1.4300 -0.000087  0.0002    1.4302   
    28. B(C  24,C  20)                1.4811  0.000267 -0.0007    1.4804   
    29. B(N  25,C  24)                1.3513 -0.000120  0.0001    1.3513   
    30. B(O  26,C  24)                1.2335 -0.000125  0.0000    1.2335   
    31. B(C  27,C  23)                1.3936 -0.000106  0.0001    1.3937   
    32. B(C  28,C  27)                1.3823  0.000084 -0.0001    1.3822   
    33. B(C  29,C  28)                1.4024  0.000221 -0.0004    1.4020   
    34. B(C  30,C  29)                1.3983  0.000345 -0.0004    1.3979   
    35. B(C  31,C  30)                1.3926  0.000027 -0.0000    1.3926   
    36. B(C  31,C  23)                1.3872 -0.000045 -0.0001    1.3872   
    37. B(O  32,C  29)                1.3571 -0.000367  0.0008    1.3579   
    38. B(C  33,O  32)                1.4334  0.000524 -0.0012    1.4322   
    39. B(H  34,C   0)                1.0984  0.000002  0.0000    1.0984   
    40. B(H  35,C   0)                1.0958  0.000002  0.0000    1.0958   
    41. B(H  36,C   1)                1.0999  0.000035 -0.0001    1.0998   
    42. B(H  37,C   1)                1.0945 -0.000007 -0.0000    1.0945   
    43. B(H  38,C   4)                1.0953 -0.000008  0.0000    1.0954   
    44. B(H  39,C   4)                1.1000 -0.000053  0.0002    1.1001   
    45. B(H  40,C   5)                1.0983 -0.000003 -0.0000    1.0983   
    46. B(H  41,C   5)                1.0960  0.000016  0.0000    1.0961   
    47. B(H  42,C   7)                1.0844  0.000047 -0.0001    1.0843   
    48. B(H  43,C   8)                1.0846  0.000056 -0.0001    1.0845   
    49. B(H  44,C  10)                1.0856 -0.000018 -0.0000    1.0856   
    50. B(H  45,C  11)                1.0855 -0.000017 -0.0000    1.0855   
    51. B(H  46,C  13)                1.0924 -0.000022  0.0001    1.0925   
    52. B(H  47,C  13)                1.0999 -0.000018  0.0001    1.1001   
    53. B(H  48,C  14)                1.0988 -0.000004 -0.0000    1.0988   
    54. B(H  49,C  14)                1.0931  0.000032  0.0001    1.0931   
    55. B(H  50,N  25)                1.0086 -0.000005 -0.0001    1.0085   
    56. B(H  50,N  21)                2.4030  0.000021 -0.0017    2.4012   
    57. B(H  51,N  25)                1.0084 -0.000014 -0.0001    1.0083   
    58. B(H  52,C  27)                1.0847  0.000099 -0.0002    1.0845   
    59. B(H  53,C  28)                1.0858  0.000005 -0.0001    1.0858   
    60. B(H  54,C  30)                1.0835 -0.000081  0.0001    1.0835   
    61. B(H  55,C  31)                1.0861  0.000008 -0.0001    1.0860   
    62. B(H  56,C  33)                1.0970 -0.000062  0.0002    1.0972   
    63. B(H  57,C  33)                1.0914 -0.000025  0.0001    1.0915   
    64. B(H  58,C  33)                1.0971 -0.000050  0.0002    1.0972   
    65. A(C   5,C   0,H  34)          109.40 -0.000007    0.00    109.40   
    66. A(H  34,C   0,H  35)          107.21  0.000032   -0.02    107.19   
    67. A(C   1,C   0,H  35)          109.90 -0.000057    0.03    109.93   
    68. A(C   1,C   0,C   5)          108.94  0.000047   -0.01    108.93   
    69. A(C   5,C   0,H  35)          111.36 -0.000010    0.01    111.36   
    70. A(C   1,C   0,H  34)          110.02 -0.000005   -0.00    110.02   
    71. A(C   0,C   1,H  36)          109.76 -0.000110    0.03    109.80   
    72. A(C   0,C   1,C   2)          116.12  0.000039   -0.00    116.12   
    73. A(C   2,C   1,H  37)          106.59  0.000086   -0.03    106.56   
    74. A(C   2,C   1,H  36)          105.17  0.000082   -0.03    105.14   
    75. A(H  36,C   1,H  37)          106.38  0.000047   -0.02    106.36   
    76. A(C   0,C   1,H  37)          112.17 -0.000126    0.04    112.21   
    77. A(N   3,C   2,O  18)          122.00 -0.000129    0.00    122.01   
    78. A(C   1,C   2,O  18)          119.92  0.000248   -0.05    119.87   
    79. A(C   1,C   2,N   3)          118.01 -0.000129    0.07    118.08   
    80. A(C   2,N   3,C   6)          119.62 -0.000137    0.01    119.63   
    81. A(C   2,N   3,C   4)          123.38  0.000110   -0.02    123.36   
    82. A(C   4,N   3,C   6)          116.43  0.000026    0.02    116.45   
    83. A(N   3,C   4,C   5)          112.05 -0.000085    0.03    112.08   
    84. A(C   5,C   4,H  38)          110.92 -0.000007    0.01    110.93   
    85. A(N   3,C   4,H  38)          107.17  0.000045   -0.01    107.16   
    86. A(N   3,C   4,H  39)          109.55 -0.000061    0.02    109.58   
    87. A(C   5,C   4,H  39)          109.36  0.000093   -0.03    109.32   
    88. A(H  38,C   4,H  39)          107.67  0.000016   -0.02    107.65   
    89. A(C   0,C   5,H  41)          111.50 -0.000008    0.01    111.51   
    90. A(C   4,C   5,H  40)          109.96  0.000027   -0.02    109.95   
    91. A(C   0,C   5,C   4)          109.38  0.000001   -0.00    109.38   
    92. A(H  40,C   5,H  41)          107.64  0.000051   -0.02    107.62   
    93. A(C   0,C   5,H  40)          110.08 -0.000029    0.01    110.08   
    94. A(C   4,C   5,H  41)          108.24 -0.000040    0.02    108.26   
    95. A(C   7,C   6,C  11)          119.24 -0.000053    0.01    119.25   
    96. A(N   3,C   6,C  11)          120.33  0.000177   -0.02    120.32   
    97. A(N   3,C   6,C   7)          120.40 -0.000123    0.01    120.40   
    98. A(C   6,C   7,C   8)          120.43  0.000038   -0.01    120.43   
    99. A(C   6,C   7,H  42)          119.76 -0.000024    0.00    119.76   
   100. A(C   8,C   7,H  42)          119.81 -0.000014    0.00    119.81   
   101. A(C   7,C   8,C   9)          120.33  0.000006    0.00    120.34   
   102. A(C   7,C   8,H  43)          119.87  0.000002   -0.00    119.87   
   103. A(C   9,C   8,H  43)          119.80 -0.000009   -0.00    119.79   
   104. A(C   8,C   9,C  10)          119.33 -0.000004   -0.00    119.33   
   105. A(C  10,C   9,N  12)          120.54  0.000145   -0.01    120.53   
   106. A(C   8,C   9,N  12)          120.12 -0.000141    0.01    120.13   
   107. A(C   9,C  10,C  11)          120.27 -0.000003    0.00    120.27   
   108. A(C  11,C  10,H  44)          119.25 -0.000006    0.00    119.25   
   109. A(C   9,C  10,H  44)          120.48  0.000010   -0.00    120.48   
   110. A(C   6,C  11,H  45)          120.41  0.000001    0.00    120.41   
   111. A(C  10,C  11,H  45)          119.20 -0.000017    0.00    119.20   
   112. A(C   6,C  11,C  10)          120.39  0.000015   -0.00    120.39   
   113. A(C  13,N  12,C  17)          120.92  0.000049    0.01    120.93   
   114. A(C   9,N  12,C  17)          119.17 -0.000132    0.01    119.18   
   115. A(C   9,N  12,C  13)          117.84  0.000075    0.02    117.86   
   116. A(C  14,C  13,H  47)          109.50  0.000091   -0.04    109.47   
   117. A(C  14,C  13,H  46)          110.09 -0.000037    0.01    110.10   
   118. A(N  12,C  13,H  47)          109.42 -0.000064    0.02    109.44   
   119. A(H  46,C  13,H  47)          108.26 -0.000002   -0.01    108.25   
   120. A(N  12,C  13,C  14)          112.19 -0.000068    0.04    112.23   
   121. A(N  12,C  13,H  46)          107.28  0.000081   -0.03    107.25   
   122. A(C  13,C  14,H  49)          109.30 -0.000106    0.05    109.35   
   123. A(H  48,C  14,H  49)          107.21  0.000011   -0.01    107.20   
   124. A(C  15,C  14,H  49)          111.46  0.000094   -0.02    111.43   
   125. A(C  15,C  14,H  48)          110.04 -0.000021    0.01    110.05   
   126. A(C  13,C  14,C  15)          108.26  0.000045   -0.03    108.23   
   127. A(C  13,C  14,H  48)          110.59 -0.000025    0.01    110.59   
   128. A(C  14,C  15,C  20)          135.11  0.000179   -0.01    135.10   
   129. A(C  14,C  15,C  16)          120.20 -0.000123    0.01    120.21   
   130. A(C  16,C  15,C  20)          104.69 -0.000057    0.00    104.69   
   131. A(C  15,C  16,C  17)          125.15  0.000231   -0.05    125.10   
   132. A(C  17,C  16,N  22)          127.68 -0.000372    0.06    127.73   
   133. A(C  15,C  16,N  22)          107.17  0.000142   -0.01    107.16   
   134. A(C  16,C  17,O  19)          123.60 -0.000101    0.00    123.60   
   135. A(N  12,C  17,O  19)          123.71  0.000231   -0.05    123.66   
   136. A(N  12,C  17,C  16)          112.66 -0.000137    0.06    112.72   
   137. A(N  21,C  20,C  24)          121.58  0.000030   -0.01    121.57   
   138. A(C  15,C  20,C  24)          127.63  0.000036   -0.01    127.61   
   139. A(C  15,C  20,N  21)          110.80 -0.000067    0.02    110.82   
   140. A(C  20,N  21,N  22)          106.14 -0.000113    0.00    106.15   
   141. A(N  21,N  22,C  23)          118.90  0.000172   -0.01    118.89   
   142. A(C  16,N  22,C  23)          129.90 -0.000267    0.02    129.92   
   143. A(C  16,N  22,N  21)          111.20  0.000096   -0.02    111.18   
   144. A(N  22,C  23,C  31)          119.05  0.000203   -0.04    119.01   
   145. A(C  27,C  23,C  31)          120.73  0.000060   -0.01    120.72   
   146. A(N  22,C  23,C  27)          120.17 -0.000261    0.05    120.22   
   147. A(N  25,C  24,O  26)          123.71  0.000252   -0.05    123.66   
   148. A(C  20,C  24,O  26)          120.64 -0.000104    0.02    120.67   
   149. A(C  20,C  24,N  25)          115.65 -0.000148    0.03    115.68   
   150. A(H  50,N  25,H  51)          119.25 -0.000502    0.15    119.40   
   151. A(C  24,N  25,H  51)          119.39  0.000360   -0.10    119.28   
   152. A(C  24,N  25,H  50)          121.14  0.000147   -0.05    121.09   
   153. A(C  28,C  27,H  52)          120.40 -0.000024    0.01    120.41   
   154. A(C  23,C  27,H  52)          120.10  0.000006   -0.01    120.10   
   155. A(C  23,C  27,C  28)          119.49  0.000018    0.00    119.50   
   156. A(C  29,C  28,H  53)          119.09  0.000116   -0.04    119.06   
   157. A(C  27,C  28,H  53)          120.64 -0.000187    0.05    120.69   
   158. A(C  27,C  28,C  29)          120.26  0.000071   -0.01    120.25   
   159. A(C  30,C  29,O  32)          124.48  0.000167    0.00    124.48   
   160. A(C  28,C  29,O  32)          115.52  0.000057   -0.03    115.49   
   161. A(C  28,C  29,C  30)          120.00 -0.000225    0.03    120.03   
   162. A(C  29,C  30,C  31)          119.39  0.000059   -0.01    119.39   
   163. A(C  31,C  30,H  54)          119.10 -0.000132    0.03    119.13   
   164. A(C  29,C  30,H  54)          121.50  0.000073   -0.02    121.49   
   165. A(C  23,C  31,C  30)          120.12  0.000017   -0.00    120.12   
   166. A(C  30,C  31,H  55)          120.01 -0.000118    0.03    120.05   
   167. A(C  23,C  31,H  55)          119.86  0.000101   -0.03    119.83   
   168. A(C  29,O  32,C  33)          117.82  0.000000    0.07    117.89   
   169. A(H  57,C  33,H  58)          109.41  0.000003    0.00    109.41   
   170. A(H  56,C  33,H  58)          109.91 -0.000002    0.02    109.94   
   171. A(O  32,C  33,H  58)          111.16 -0.000045    0.01    111.17   
   172. A(H  56,C  33,H  57)          109.39  0.000001    0.00    109.39   
   173. A(O  32,C  33,H  57)          105.68  0.000067   -0.04    105.65   
   174. A(O  32,C  33,H  56)          111.18 -0.000021   -0.00    111.18   
   175. D(H  36,C   1,C   0,H  34)   -166.02  0.000007    0.11   -165.91   
   176. D(C   2,C   1,C   0,C   5)    -45.01 -0.000060    0.13    -44.88   
   177. D(C   2,C   1,C   0,H  34)     74.91 -0.000043    0.12     75.03   
   178. D(C   2,C   1,C   0,H  35)   -167.26 -0.000042    0.11   -167.15   
   179. D(H  36,C   1,C   0,H  35)    -48.19  0.000008    0.10    -48.10   
   180. D(H  36,C   1,C   0,C   5)     74.06 -0.000011    0.11     74.18   
   181. D(N   3,C   2,C   1,H  37)    146.10  0.000008   -0.24    145.86   
   182. D(N   3,C   2,C   1,C   0)     20.33  0.000077   -0.28     20.05   
   183. D(O  18,C   2,C   1,C   0)   -162.63 -0.000133    0.23   -162.40   
   184. D(N   3,C   2,C   1,H  36)   -101.21  0.000133   -0.30   -101.51   
   185. D(O  18,C   2,C   1,H  36)     75.82 -0.000077    0.21     76.04   
   186. D(C   6,N   3,C   2,O  18)     -0.30  0.000110   -0.28     -0.59   
   187. D(C   6,N   3,C   2,C   1)    176.66 -0.000093    0.24    176.90   
   188. D(C   4,N   3,C   2,O  18)    170.70  0.000107   -0.20    170.50   
   189. D(C   4,N   3,C   2,C   1)    -12.33 -0.000097    0.32    -12.01   
   190. D(H  38,C   4,N   3,C   2)    151.51  0.000023   -0.16    151.35   
   191. D(H  39,C   4,N   3,C   2)    -91.95  0.000036   -0.18    -92.13   
   192. D(H  38,C   4,N   3,C   6)    -37.23  0.000006   -0.08    -37.31   
   193. D(C   5,C   4,N   3,C   2)     29.60  0.000054   -0.18     29.42   
   194. D(C   5,C   4,N   3,C   6)   -159.13  0.000037   -0.10   -159.23   
   195. D(H  40,C   5,C   4,N   3)     67.25  0.000025   -0.01     67.23   
   196. D(C   0,C   5,C   4,H  39)     67.92 -0.000025    0.02     67.94   
   197. D(C   0,C   5,C   4,H  38)   -173.48  0.000049   -0.03   -173.51   
   198. D(C   0,C   5,C   4,N   3)    -53.75  0.000044   -0.01    -53.76   
   199. D(H  40,C   5,C   0,H  35)     62.01 -0.000039    0.06     62.07   
   200. D(H  40,C   5,C   0,C   1)    -59.36  0.000008    0.03    -59.33   
   201. D(H  40,C   5,C   0,H  34)   -179.67 -0.000010    0.04   -179.63   
   202. D(C   4,C   5,C   0,H  34)    -58.74  0.000005    0.01    -58.72   
   203. D(C   4,C   5,C   0,H  35)   -177.06 -0.000024    0.04   -177.02   
   204. D(H  40,C   5,C   4,H  38)    -52.48  0.000030   -0.03    -52.51   
   205. D(C   4,C   5,C   0,C   1)     61.57  0.000023    0.01     61.57   
   206. D(H  40,C   5,C   4,H  39)   -171.08 -0.000044    0.01   -171.07   
   207. D(C  11,C   6,N   3,C   4)    -43.81 -0.000009    0.01    -43.80   
   208. D(C   7,C   6,N   3,C   4)    134.14  0.000010   -0.01    134.13   
   209. D(C   7,C   6,N   3,C   2)    -54.25  0.000016    0.06    -54.19   
   210. D(C  11,C   6,N   3,C   2)    127.81 -0.000003    0.08    127.89   
   211. D(H  42,C   7,C   6,C  11)    179.86 -0.000005    0.08    179.94   
   212. D(H  42,C   7,C   6,N   3)      1.89 -0.000029    0.10      1.99   
   213. D(C   8,C   7,C   6,C  11)     -0.63  0.000006    0.02     -0.61   
   214. D(C   8,C   7,C   6,N   3)   -178.60 -0.000018    0.04   -178.56   
   215. D(H  43,C   8,C   7,H  42)      0.25  0.000009   -0.11      0.14   
   216. D(H  43,C   8,C   7,C   6)   -179.26 -0.000002   -0.05   -179.31   
   217. D(C   9,C   8,C   7,H  42)   -179.71  0.000009   -0.08   -179.79   
   218. D(C   9,C   8,C   7,C   6)      0.77 -0.000001   -0.02      0.76   
   219. D(N  12,C   9,C   8,H  43)      1.30 -0.000026    0.08      1.38   
   220. D(N  12,C   9,C   8,C   7)   -178.73 -0.000026    0.05   -178.69   
   221. D(C  10,C   9,C   8,H  43)    179.90  0.000006    0.03    179.93   
   222. D(C  10,C   9,C   8,C   7)     -0.14  0.000006   -0.00     -0.14   
   223. D(H  44,C  10,C   9,N  12)     -2.07  0.000021   -0.05     -2.12   
   224. D(H  44,C  10,C   9,C   8)    179.34 -0.000008   -0.01    179.33   
   225. D(C  11,C  10,C   9,N  12)    177.95  0.000014   -0.03    177.92   
   226. D(C  11,C  10,C   9,C   8)     -0.64 -0.000014    0.02     -0.62   
   227. D(H  45,C  11,C  10,H  44)      0.81 -0.000003    0.04      0.86   
   228. D(C   6,C  11,C  10,H  44)   -179.20  0.000012    0.01   -179.19   
   229. D(C   6,C  11,C  10,C   9)      0.78  0.000018   -0.01      0.77   
   230. D(H  45,C  11,C   6,C   7)    179.84  0.000001   -0.04    179.81   
   231. D(H  45,C  11,C   6,N   3)     -2.18  0.000018   -0.06     -2.24   
   232. D(H  45,C  11,C  10,C   9)   -179.21  0.000004    0.02   -179.19   
   233. D(C  10,C  11,C   6,C   7)     -0.15 -0.000014   -0.00     -0.15   
   234. D(C  10,C  11,C   6,N   3)    177.83  0.000004   -0.02    177.80   
   235. D(C  17,N  12,C   9,C   8)    -54.41  0.000001    0.13    -54.28   
   236. D(C  13,N  12,C   9,C  10)    -36.77 -0.000009    0.01    -36.77   
   237. D(C  13,N  12,C   9,C   8)    141.81  0.000022   -0.04    141.77   
   238. D(C  17,N  12,C   9,C  10)    127.01 -0.000030    0.18    127.19   
   239. D(H  47,C  13,N  12,C   9)     90.49 -0.000015   -0.07     90.42   
   240. D(H  46,C  13,N  12,C  17)    169.77  0.000029   -0.23    169.54   
   241. D(H  46,C  13,N  12,C   9)    -26.74 -0.000023   -0.05    -26.80   
   242. D(C  14,C  13,N  12,C  17)     48.75  0.000063   -0.25     48.50   
   243. D(C  14,C  13,N  12,C   9)   -147.76  0.000011   -0.08   -147.84   
   244. D(H  48,C  14,C  13,H  47)   -167.11 -0.000032   -0.01   -167.12   
   245. D(H  48,C  14,C  13,H  46)    -48.19 -0.000002   -0.03    -48.23   
   246. D(H  48,C  14,C  13,N  12)     71.20  0.000031   -0.04     71.16   
   247. D(C  15,C  14,C  13,H  47)     72.27 -0.000019   -0.00     72.27   
   248. D(C  15,C  14,C  13,H  46)   -168.81  0.000011   -0.03   -168.84   
   249. D(C  15,C  14,C  13,N  12)    -49.42  0.000044   -0.03    -49.45   
   250. D(C  20,C  15,C  14,H  48)     86.87 -0.000004    0.05     86.92   
   251. D(C  20,C  15,C  14,C  13)   -152.17 -0.000020    0.05   -152.13   
   252. D(C  16,C  15,C  14,H  49)    147.88 -0.000053    0.10    147.97   
   253. D(C  16,C  15,C  14,H  48)    -93.32  0.000007    0.08    -93.25   
   254. D(C  16,C  15,C  14,C  13)     27.64 -0.000009    0.07     27.71   
   255. D(N  22,C  16,C  15,C  20)     -0.06  0.000019   -0.01     -0.06   
   256. D(N  22,C  16,C  15,C  14)   -179.91  0.000011   -0.03   -179.94   
   257. D(C  17,C  16,C  15,C  20)   -179.39 -0.000010    0.13   -179.26   
   258. D(C  17,C  16,C  15,C  14)      0.75 -0.000018    0.11      0.86   
   259. D(O  19,C  17,C  16,N  22)     -8.03 -0.000133    0.24     -7.79   
   260. D(O  19,C  17,C  16,C  15)    171.17 -0.000092    0.08    171.25   
   261. D(N  12,C  17,C  16,N  22)    173.83  0.000072   -0.20    173.63   
   262. D(N  12,C  17,C  16,C  15)     -6.97  0.000112   -0.36     -7.34   
   263. D(O  19,C  17,N  12,C  13)    163.13  0.000071   -0.02    163.11   
   264. D(O  19,C  17,N  12,C   9)     -0.14  0.000090   -0.20     -0.34   
   265. D(C  16,C  17,N  12,C  13)    -18.72 -0.000141    0.42    -18.30   
   266. D(C  16,C  17,N  12,C   9)    178.01 -0.000123    0.24    178.25   
   267. D(C  24,C  20,C  15,C  16)    179.55  0.000000   -0.01    179.54   
   268. D(C  24,C  20,C  15,C  14)     -0.62  0.000010    0.01     -0.61   
   269. D(N  21,C  20,C  15,C  16)     -0.32  0.000023   -0.07     -0.39   
   270. D(N  21,C  20,C  15,C  14)    179.51  0.000033   -0.05    179.46   
   271. D(N  22,N  21,C  20,C  24)   -179.31 -0.000037    0.07   -179.25   
   272. D(N  22,N  21,C  20,C  15)      0.56 -0.000058    0.12      0.68   
   273. D(C  23,N  22,N  21,C  20)    179.95 -0.000001    0.08    180.04   
   274. D(C  16,N  22,N  21,C  20)     -0.60  0.000070   -0.12     -0.73   
   275. D(C  23,N  22,C  16,C  17)     -0.91  0.000064   -0.30     -1.20   
   276. D(C  23,N  22,C  16,C  15)    179.78  0.000028   -0.16    179.62   
   277. D(N  21,N  22,C  16,C  17)    179.73 -0.000021   -0.06    179.67   
   278. D(N  21,N  22,C  16,C  15)      0.41 -0.000056    0.08      0.50   
   279. D(C  31,C  23,N  22,N  21)     59.55  0.000127   -0.60     58.95   
   280. D(C  31,C  23,N  22,C  16)   -119.77  0.000038   -0.35   -120.12   
   281. D(C  27,C  23,N  22,N  21)   -117.92  0.000078   -0.54   -118.46   
   282. D(C  27,C  23,N  22,C  16)     62.76 -0.000011   -0.29     62.47   
   283. D(O  26,C  24,C  20,N  21)    175.13 -0.000103    0.71    175.84   
   284. D(O  26,C  24,C  20,C  15)     -4.73 -0.000078    0.65     -4.08   
   285. D(N  25,C  24,C  20,N  21)     -5.18 -0.000118    0.74     -4.45   
   286. D(N  25,C  24,C  20,C  15)    174.96 -0.000093    0.68    175.64   
   287. D(H  51,N  25,C  24,O  26)     -3.01 -0.000006    0.00     -3.01   
   288. D(H  51,N  25,C  24,C  20)    177.31  0.000012   -0.03    177.28   
   289. D(H  50,N  25,C  24,O  26)   -177.67 -0.000052    0.13   -177.54   
   290. D(H  50,N  25,C  24,C  20)      2.65 -0.000035    0.10      2.75   
   291. D(H  52,C  27,C  23,C  31)   -179.32 -0.000028   -0.03   -179.35   
   292. D(H  52,C  27,C  23,N  22)     -1.89  0.000025   -0.08     -1.98   
   293. D(C  28,C  27,C  23,C  31)      0.71 -0.000020    0.04      0.75   
   294. D(C  28,C  27,C  23,N  22)    178.13  0.000033   -0.02    178.12   
   295. D(H  53,C  28,C  27,H  52)      0.10  0.000009    0.01      0.11   
   296. D(H  53,C  28,C  27,C  23)   -179.93  0.000001   -0.06   -179.99   
   297. D(C  29,C  28,C  27,H  52)    179.67  0.000007    0.07    179.74   
   298. D(C  29,C  28,C  27,C  23)     -0.36 -0.000001    0.00     -0.36   
   299. D(O  32,C  29,C  28,C  27)    179.95 -0.000007    0.00    179.95   
   300. D(C  30,C  29,C  28,H  53)    179.39  0.000012    0.03    179.41   
   301. D(C  30,C  29,C  28,C  27)     -0.19  0.000016   -0.03     -0.22   
   302. D(O  32,C  29,C  28,H  53)     -0.47 -0.000011    0.06     -0.41   
   303. D(H  54,C  30,C  29,O  32)     -0.09  0.000013   -0.02     -0.11   
   304. D(H  54,C  30,C  29,C  28)   -179.94 -0.000012    0.01   -179.92   
   305. D(C  31,C  30,C  29,O  32)   -179.76  0.000018   -0.02   -179.77   
   306. D(C  31,C  30,C  29,C  28)      0.40 -0.000007    0.02      0.42   
   307. D(H  55,C  31,C  30,H  54)     -0.06 -0.000013    0.06     -0.00   
   308. D(H  55,C  31,C  30,C  29)    179.61 -0.000017    0.06    179.67   
   309. D(C  23,C  31,C  30,H  54)   -179.73 -0.000012    0.03   -179.70   
   310. D(C  23,C  31,C  30,C  29)     -0.06 -0.000016    0.03     -0.03   
   311. D(H  55,C  31,C  23,C  27)    179.83  0.000030   -0.09    179.74   
   312. D(H  55,C  31,C  23,N  22)      2.38 -0.000011   -0.03      2.34   
   313. D(C  30,C  31,C  23,C  27)     -0.50  0.000029   -0.06     -0.56   
   314. D(C  30,C  31,C  23,N  22)   -177.95 -0.000012    0.00   -177.95   
   315. D(C  33,O  32,C  29,C  30)     -0.52 -0.000057    0.16     -0.36   
   316. D(C  33,O  32,C  29,C  28)    179.33 -0.000034    0.13    179.46   
   317. D(H  58,C  33,O  32,C  29)    -60.90  0.000035   -0.08    -60.98   
   318. D(H  57,C  33,O  32,C  29)   -179.50  0.000016   -0.07   -179.57   
   319. D(H  56,C  33,O  32,C  29)     61.91 -0.000014   -0.05     61.86   
    ----------------------------------------------------------------------------

Geometry step timings:
Preparation and reading OPT file:      0.009 s (18.367 %)
Internal coordinates            :      0.000 s ( 0.000 %)
B/P matrices and projection     :      0.017 s (34.694 %)
Hessian update/contruction      :      0.005 s (10.204 %)
Making the step                 :      0.010 s (20.408 %)
Converting the step to Cartesian:      0.001 s ( 2.041 %)
Storing new data                :      0.000 s ( 0.000 %)
Checking convergence            :      0.001 s ( 2.041 %)
Final printing                  :      0.006 s (12.245 %)
Total time                      :      0.049 s

Time for energy+gradient        :    209.115 s
Time for complete geometry iter :    209.419 s

         *************************************************************
         *                GEOMETRY OPTIMIZATION CYCLE   3            *
         *************************************************************
---------------------------------
CARTESIAN COORDINATES (ANGSTROEM)
---------------------------------
  C     23.822497  -17.582153   -0.036727
  C     24.222996  -18.526412    1.091654
  C     25.518378  -19.290826    0.894756
  N     26.424749  -18.804088   -0.017184
  C     26.105058  -17.736257   -0.992973
  C     25.044236  -16.785867   -0.471152
  C     27.682016  -19.459198   -0.180844
  C     28.511812  -19.683195    0.921591
  C     29.744997  -20.292239    0.758962
  C     30.180919  -20.675948   -0.513032
  C     29.360389  -20.441795   -1.615420
  C     28.114960  -19.844088   -1.448350
  N     31.437272  -21.326985   -0.671756
  C     31.531303  -22.418538   -1.672827
  C     32.528781  -23.496779   -1.259301
  C     33.799859  -22.829402   -0.867732
  C     33.783901  -21.539164   -0.370245
  C     32.576135  -20.728136   -0.163821
  O     25.750512  -20.289583    1.576148
  O     32.574396  -19.647504    0.421399
  C     35.155969  -23.193582   -0.869462
  N     35.922040  -22.186979   -0.410558
  N     35.083611  -21.192954   -0.101383
  C     35.619822  -19.973158    0.418413
  C     35.744836  -24.482534   -1.297550
  N     37.094761  -24.542529   -1.284455
  O     35.022133  -25.420482   -1.643315
  C     35.264558  -19.538070    1.693915
  C     35.821765  -18.377441    2.196819
  C     36.743053  -17.647554    1.432567
  C     37.105237  -18.094788    0.158656
  C     36.536429  -19.262800   -0.342800
  O     37.228615  -16.523448    2.019464
  C     38.182776  -15.744708    1.288416
  H     23.439559  -18.157474   -0.890447
  H     23.014159  -16.922240    0.297693
  H     24.364259  -17.956640    2.021686
  H     23.449634  -19.271964    1.301376
  H     27.037841  -17.202863   -1.205606
  H     25.757614  -18.188567   -1.933722
  H     25.440618  -16.210864    0.376505
  H     24.797975  -16.074954   -1.268210
  H     28.183644  -19.386059    1.911387
  H     30.376689  -20.471768    1.621964
  H     29.684746  -20.722219   -2.612711
  H     27.484572  -19.681948   -2.317043
  H     30.533043  -22.850216   -1.776194
  H     31.827533  -21.998716   -2.645517
  H     32.136528  -24.083644   -0.417193
  H     32.680761  -24.188241   -2.092191
  H     37.647537  -23.764103   -0.959428
  H     37.552373  -25.407875   -1.526173
  H     34.554838  -20.107011    2.284544
  H     35.558993  -18.020779    3.188085
  H     37.815735  -17.549999   -0.451597
  H     36.806015  -19.617150   -1.333344
  H     37.750582  -15.362101    0.355327
  H     38.439460  -14.906849    1.939172
  H     39.086518  -16.327577    1.070768

----------------------------
CARTESIAN COORDINATES (A.U.)
----------------------------
  NO LB      ZA    FRAG     MASS         X           Y           Z
   0 C     6.0000    0    12.011   45.017995  -33.225454   -0.069404
   1 C     6.0000    0    12.011   45.774828  -35.009844    2.062926
   2 C     6.0000    0    12.011   48.222746  -36.454377    1.690845
   3 N     7.0000    0    14.007   49.935539  -35.534576   -0.032473
   4 C     6.0000    0    12.011   49.331411  -33.516669   -1.876447
   5 C     6.0000    0    12.011   47.326747  -31.720692   -0.890349
   6 C     6.0000    0    12.011   52.311428  -36.772554   -0.341745
   7 C     6.0000    0    12.011   53.879515  -37.195848    1.741555
   8 C     6.0000    0    12.011   56.209898  -38.346774    1.434231
   9 C     6.0000    0    12.011   57.033672  -39.071880   -0.969491
  10 C     6.0000    0    12.011   55.483095  -38.629395   -3.052701
  11 C     6.0000    0    12.011   53.129576  -37.499893   -2.736985
  12 N     7.0000    0    14.007   59.407834  -40.302160   -1.269434
  13 C     6.0000    0    12.011   59.585527  -42.364896   -3.161185
  14 C     6.0000    0    12.011   61.470488  -44.402477   -2.379735
  15 C     6.0000    0    12.011   63.872476  -43.141318   -1.639777
  16 C     6.0000    0    12.011   63.842320  -40.703121   -0.699661
  17 C     6.0000    0    12.011   61.559974  -39.170500   -0.309577
  18 O     8.0000    0    15.999   48.661416  -38.341755    2.978487
  19 O     8.0000    0    15.999   61.556688  -37.128402    0.796329
  20 C     6.0000    0    12.011   66.435153  -43.829519   -1.643046
  21 N     7.0000    0    14.007   67.882818  -41.927314   -0.775843
  22 N     7.0000    0    14.007   66.298417  -40.048880   -0.191586
  23 C     6.0000    0    12.011   67.311708  -37.743798    0.790687
  24 C     6.0000    0    12.011   67.547951  -46.265284   -2.452015
  25 N     7.0000    0    14.007   70.098940  -46.378658   -2.427268
  26 O     8.0000    0    15.999   66.182241  -48.037749   -3.105415
  27 C     6.0000    0    12.011   66.640358  -36.921601    3.201036
  28 C     6.0000    0    12.011   67.693325  -34.728331    4.151386
  29 C     6.0000    0    12.011   69.434307  -33.349044    2.707160
  30 C     6.0000    0    12.011   70.118735  -34.194193    0.299817
  31 C     6.0000    0    12.011   69.043846  -36.401416   -0.647799
  32 O     8.0000    0    15.999   70.351887  -31.224791    3.816234
  33 C     6.0000    0    12.011   72.154990  -29.753186    2.434753
  34 H     1.0000    0     1.008   44.294347  -34.312652   -1.682701
  35 H     1.0000    0     1.008   43.490459  -31.978399    0.562559
  36 H     1.0000    0     1.008   46.041776  -33.933132    3.820433
  37 H     1.0000    0     1.008   44.313387  -36.418734    2.459245
  38 H     1.0000    0     1.008   51.094114  -32.508699   -2.278265
  39 H     1.0000    0     1.008   48.674836  -34.371411   -3.654205
  40 H     1.0000    0     1.008   48.075800  -30.634093    0.711492
  41 H     1.0000    0     1.008   46.861382  -30.377260   -2.396570
  42 H     1.0000    0     1.008   53.259369  -36.634342    3.611997
  43 H     1.0000    0     1.008   57.403623  -38.686035    3.065069
  44 H     1.0000    0     1.008   56.096041  -39.159320   -4.937308
  45 H     1.0000    0     1.008   51.938314  -37.193492   -4.378577
  46 H     1.0000    0     1.008   57.699090  -43.180650   -3.356520
  47 H     1.0000    0     1.008   60.145320  -41.571549   -4.999303
  48 H     1.0000    0     1.008   60.729238  -45.511491   -0.788380
  49 H     1.0000    0     1.008   61.757689  -45.709150   -3.953668
  50 H     1.0000    0     1.008   71.143535  -44.907646   -1.813056
  51 H     1.0000    0     1.008   70.963701  -48.013925   -2.884048
  52 H     1.0000    0     1.008   65.299181  -37.996744    4.317162
  53 H     1.0000    0     1.008   67.196759  -34.054338    6.024608
  54 H     1.0000    0     1.008   71.461383  -33.164693   -0.853394
  55 H     1.0000    0     1.008   69.553288  -37.071041   -2.519655
  56 H     1.0000    0     1.008   71.338262  -29.030165    0.671470
  57 H     1.0000    0     1.008   72.640053  -28.169862    3.664504
  58 H     1.0000    0     1.008   73.862814  -30.854648    2.023458

--------------------------------
INTERNAL COORDINATES (ANGSTROEM)
--------------------------------
 C      0   0   0     0.000000000000     0.00000000     0.00000000
 C      1   0   0     1.524882578381     0.00000000     0.00000000
 C      2   1   0     1.516941946033   116.12152723     0.00000000
 N      3   2   1     1.374793333520   118.07818218    20.05404081
 C      4   3   2     1.481428092504   123.35674376   347.98568133
 C      5   4   3     1.516865933454   112.08292657    29.42411627
 C      4   3   2     1.427120495108   119.62752682   176.90163371
 C      7   4   3     1.397890866625   120.40254642   305.81251900
 C      8   7   4     1.384965068598   120.42510991   181.43783422
 C      9   8   7     1.398296082544   120.33662249     0.75690581
 C     10   9   8     1.394042353402   119.32531589   359.86422376
 C     11  10   9     1.391495344664   120.26602779   359.37620249
 N     10   9   8     1.423889837733   120.12856446   181.31398930
 C     13  10   9     1.484073367459   117.86507550   141.76591091
 C     14  13  10     1.525965027950   112.23028647   212.15779915
 C     15  14  13     1.488071275083   108.22577088   310.54757668
 C     16  15  14     1.382918211508   120.21405462    27.70589926
 C     13  10   9     1.383339469265   119.17910198   305.71959998
 O      3   2   1     1.231135965716   119.86622137   197.59793105
 O     18  13  10     1.228922683873   123.66609293   359.66371940
 C     16  15  14     1.404159912675   135.09725846   207.87421000
 N     21  16  15     1.345625523928   110.81728740   179.46455717
 N     22  21  16     1.336651536380   106.14599357     0.68322813
 C     23  22  21     1.430249741876   118.89073321   180.03828454
 C     21  16  15     1.480344439496   127.61558398   359.39078984
 N     25  21  16     1.351320926996   115.67300572   175.63592710
 O     25  21  16     1.233531277739   120.66838920   355.91717209
 C     24  23  22     1.393706777929   120.21761111   241.53661946
 C     28  24  23     1.382190271793   119.49607627   178.11813193
 C     29  28  24     1.401993665934   120.24680499   359.64096675
 C     30  29  28     1.397871524720   120.03141223   359.77918857
 C     24  23  22     1.387163981550   119.01494022    58.94914523
 O     30  29  28     1.357878430613   115.48990371   179.95194585
 C     33  30  29     1.432232344449   117.88708586   179.46272202
 H      1   2   3     1.098395751396   110.02103111    75.03444327
 H      1   2   3     1.095778665369   109.92778131   192.84842674
 H      2   1   3     1.099797547076   109.79673138   119.05361930
 H      2   1   3     1.094495432380   112.21124510   237.10592718
 H      5   4   3     1.095356272684   107.16359973   151.34752045
 H      5   4   3     1.100141065483   109.57553154   267.87190230
 H      6   5   4     1.098303950154   109.94559737    67.23062997
 H      6   5   4     1.096058288220   108.26106336   184.54715191
 H      8   7   4     1.084287196427   119.75838691     1.98671312
 H      9   8   7     1.084453136533   119.86884920   180.69008710
 H     11  10   9     1.085557340838   120.47934981   179.33098159
 H     12  11  10     1.085498420115   119.19951496   180.81134327
 H     14  13  10     1.092498818010   107.25045132   333.20402210
 H     14  13  10     1.100058358786   109.43924770    90.42075353
 H     15  14  13     1.098826681009   110.59248976    71.16104373
 H     15  14  13     1.093125343253   109.35157840   188.98624236
 H     26  25  21     1.008538910531   121.09009694     2.74922144
 H     26  25  21     1.008296006705   119.28524778   177.28076640
 H     28  24  23     1.084545335586   120.09534292   358.02198424
 H     29  28  24     1.085755658619   120.69389500   180.01207126
 H     31  30  29     1.083518165880   121.48693800   180.07762946
 H     32  24  23     1.086009740380   119.83182304     2.34496044
 H     34  33  30     1.097194200735   111.17776757    61.85868496
 H     34  33  30     1.091502731402   105.64794606   180.43005093
 H     34  33  30     1.097203391291   111.17062058   299.02415930

---------------------------
INTERNAL COORDINATES (A.U.)
---------------------------
 C      0   0   0     0.000000000000     0.00000000     0.00000000
 C      1   0   0     2.881610459528     0.00000000     0.00000000
 C      2   1   0     2.866604839059   116.12152723     0.00000000
 N      3   2   1     2.597982891093   118.07818218    20.05404081
 C      4   3   2     2.799493381931   123.35674376   347.98568133
 C      5   4   3     2.866461196103   112.08292657    29.42411627
 C      4   3   2     2.696866895859   119.62752682   176.90163371
 C      7   4   3     2.641630903031   120.40254642   305.81251900
 C      8   7   4     2.617204684697   120.42510991   181.43783422
 C      9   8   7     2.642396650143   120.33662249     0.75690581
 C     10   9   8     2.634358267016   119.32531589   359.86422376
 C     11  10   9     2.629545118042   120.26602779   359.37620249
 N     10   9   8     2.690761838189   120.12856446   181.31398930
 C     13  10   9     2.804492227145   117.86507550   141.76591091
 C     14  13  10     2.883655992767   112.23028647   212.15779915
 C     15  14  13     2.812047177662   108.22577088   310.54757668
 C     16  15  14     2.613336685361   120.21405462    27.70589926
 C     13  10   9     2.614132747154   119.17910198   305.71959998
 O      3   2   1     2.326509808824   119.86622137   197.59793105
 O     18  13  10     2.322327312284   123.66609293   359.66371940
 C     16  15  14     2.653477683186   135.09725846   207.87421000
 N     21  16  15     2.542863719039   110.81728740   179.46455717
 N     22  21  16     2.525905340243   106.14599357     0.68322813
 C     23  22  21     2.702780315256   118.89073321   180.03828454
 C     21  16  15     2.797445574520   127.61558398   359.39078984
 N     25  21  16     2.553626471058   115.67300572   175.63592710
 O     25  21  16     2.331036292552   120.66838920   355.91717209
 C     24  23  22     2.633724121276   120.21761111   241.53661946
 C     28  24  23     2.611961078658   119.49607627   178.11813193
 C     29  28  24     2.649384070107   120.24680499   359.64096675
 C     30  29  28     2.641594352127   120.03141223   359.77918857
 C     24  23  22     2.621360027968   119.01494022    58.94914523
 O     30  29  28     2.566018357017   115.48990371   179.95194585
 C     33  30  29     2.706526891152   117.88708586   179.46272202
 H      1   2   3     2.075667156802   110.02103111    75.03444327
 H      1   2   3     2.070721580942   109.92778131   192.84842674
 H      2   1   3     2.078316166732   109.79673138   119.05361930
 H      2   1   3     2.068296622027   112.21124510   237.10592718
 H      5   4   3     2.069923374446   107.16359973   151.34752045
 H      5   4   3     2.078965322442   109.57553154   267.87190230
 H      6   5   4     2.075493677595   109.94559737    67.23062997
 H      6   5   4     2.071249991551   108.26106336   184.54715191
 H      8   7   4     2.049005851764   119.75838691     1.98671312
 H      9   8   7     2.049319433120   119.86884920   180.69008710
 H     11  10   9     2.051406076852   120.47934981   179.33098159
 H     12  11  10     2.051294732821   119.19951496   180.81134327
 H     14  13  10     2.064523567671   107.25045132   333.20402210
 H     14  13  10     2.078809029436   109.43924770    90.42075353
 H     15  14  13     2.076481495752   110.59248976    71.16104373
 H     15  14  13     2.065707528796   109.35157840   188.98624236
 H     26  25  21     1.905862336307   121.09009694     2.74922144
 H     26  25  21     1.905403314600   119.28524778   177.28076640
 H     28  24  23     2.049493664080   120.09534292   358.02198424
 H     29  28  24     2.051780843146   120.69389500   180.01207126
 H     31  30  29     2.047552594642   121.48693800   180.07762946
 H     32  24  23     2.052260988088   119.83182304     2.34496044
 H     34  33  30     2.073396555117   111.17776757    61.85868496
 H     34  33  30     2.062641236777   105.64794606   180.43005093
 H     34  33  30     2.073413922749   111.17062058   299.02415930



           ************************************************************
           *        Program running with 4 parallel MPI-processes     *
           *              working on a common directory               *
           ************************************************************
------------------------------------------------------------------------------
                   ___                                                        
                  /   \      - P O W E R E D   B Y -                         
                 /     \                                                     
                 |  |  |   _    _      __       _____    __    __             
                 |  |  |  | |  | |    /  \     |  _  \  |  |  /  |          
                  \  \/   | |  | |   /    \    | | | |  |  | /  /          
                 / \  \   | |__| |  /  /\  \   | |_| |  |  |/  /          
                |  |  |   |  __  | /  /__\  \  |    /   |      \           
                |  |  |   | |  | | |   __   |  |    \   |  |\   \          
                \     /   | |  | | |  |  |  |  | |\  \  |  | \   \       
                 \___/    |_|  |_| |__|  |__|  |_| \__\ |__|  \__/        
                                                                              
                      - O R C A' S   B I G   F R I E N D -                    
                                      &                                       
                       - I N T E G R A L  F E E D E R -                       
                                                                              
 v1 FN, 2020, v2 2021, v3 2022-2024                                           
------------------------------------------------------------------------------


----------------------
SHARK INTEGRAL PACKAGE
----------------------

Number of atoms                             ...     59
Number of basis functions                   ...    816
Number of shells                            ...    390
Maximum angular momentum                    ...      2
Integral batch strategy                     ... SHARK/LIBINT Hybrid
RI-J (if used) integral strategy            ... SPLIT-RIJ (Revised 2003 algorithm where possible)
Printlevel                                  ...      1
Contraction scheme used                     ... SEGMENTED contraction
Prescreening option                         ... SCHWARTZ
   Thresh                                   ... 2.500e-11
   Tcut                                     ... 2.500e-12
   Tpresel                                  ... 2.500e-12 
Coulomb Range Separation                    ... NOT USED
Exchange Range Separation                   ... NOT USED
Multipole approximations                    ... NOT USED
Finite Nucleus Model                        ... NOT USED
CABS basis                                  ... NOT available
Auxiliary Coulomb fitting basis             ... AVAILABLE
   # of basis functions in Aux-J            ...   1295
   # of shells in Aux-J                     ...    533
   Maximum angular momentum in Aux-J        ...      2
Auxiliary J/K fitting basis                 ... NOT available
Auxiliary Correlation fitting basis         ... NOT available
Auxiliary 'external' fitting basis          ... NOT available

Checking pre-screening integrals            ... done (  0.0 sec) Dimension = 390
   => SHARK Basis and OBASIS are compatible. Storing Pre-screening
Shell pair information
Shell pair cut-off parameter TPreSel        ...   2.5e-12
Total number of shell pairs                 ...     76245
Shell pairs after pre-screening             ...     38815
Total number of primitive shell pairs       ...    279454
Primitive shell pairs kept                  ...     86866
          la=0 lb=0:  11493 shell pairs
          la=1 lb=0:  14749 shell pairs
          la=1 lb=1:   4719 shell pairs
          la=2 lb=0:   4493 shell pairs
          la=2 lb=1:   2891 shell pairs
          la=2 lb=2:    470 shell pairs

Checking whether 4 symmetric matrices of dimension 816 fit in memory
:Max Core in MB      =   2000.00
 MB in use           =     43.24
 MB left             =   1956.76
 MB needed           =     10.17
 Data fit in memory  = YES
Calculating RI/J V-Matrix + Cholesky decomp.... done (  0.1 sec)
Calculating Nuclear repulsion               ... done (  0.0 sec) ENN=   3308.984823607786 Eh

Diagonalization of the overlap matrix:
Smallest eigenvalue                        ... 1.830e-05
Time for diagonalization                   ...    0.155 sec
Threshold for overlap eigenvalues          ... 1.000e-07
Number of eigenvalues below threshold      ... 0
Time for construction of square roots      ...    0.086 sec
Total time needed                          ...    0.247 sec

-------------------
DFT GRID GENERATION
-------------------

General Integration Accuracy     IntAcc      ... 4.388
Radial Grid Type                 RadialGrid  ... OptM3 with GC (2021)
Angular Grid (max. ang.)         AngularGrid ... 4 (Lebedev-302)
Angular grid pruning method      GridPruning ... 4 (adaptive)
Weight generation scheme         WeightScheme... mBecke (2022)
Basis function cutoff            BFCut       ... 1.0000e-11
Integration weight cutoff        WCut        ... 1.0000e-14
Partially contracted basis set               ... off
Rotationally invariant grid construction     ... off
Angular grids for H and He will be reduced by one unit
Diffuse basis detected: some atoms will have their outermost
                        angular grid increased by 1.

Total number of grid points                  ...   283841
Total number of batches                      ...     4459
Average number of points per batch           ...       63
Average number of grid points per atom       ...     4811
Grids setup in   4.3 sec
Initializing property integral containers    ... done (  0.0 sec)

SHARK setup successfully completed in   5.7 seconds

Maximum memory used throughout the entire STARTUP-calculation: 106.0 MB


           ************************************************************
           *        Program running with 4 parallel MPI-processes     *
           *              working on a common directory               *
           ************************************************************
Occupation numbers will be reassigned to an Aufbau configuration
             **** ENERGY FILE WAS UPDATED (Apixaban_SMD_chloroform_Opt_Freq_KeepDens.en.tmp) ****
Finished Guess after   0.9 sec
Maximum memory used throughout the entire GUESS-calculation: 72.7 MB


           ************************************************************
           *        Program running with 4 parallel MPI-processes     *
           *              working on a common directory               *
           ************************************************************
--------------------
CPCM SOLVATION MODEL
--------------------
CPCM parameters:
  Epsilon                                         ...       4.7113
  Refrac                                          ...       1.4459
  Rsolv                                           ...       1.3000
  Surface type                                    ... GAUSSIAN VDW
  Discretization scheme                           ... Constant charge density
    Threshold for H atoms                         ...       5.0000 (charges/Ang^2)
    Threshold for non-H atoms                     ...       5.0000 (charges/Ang^2)
  Epsilon function type                           ...         CPCM
Solvent:                                          ... CHLOROFORM
SMD-CDS solvent descriptors:
  Soln                                            ...       1.4459
  Soln25                                          ...       1.4431
  Sola                                            ...       0.1500
  Solb                                            ...       0.0200
  Solg                                            ...      38.3900
  Solc                                            ...       0.0000
  Solh                                            ...       0.7500
Radii:
  Scheme                                          ... Element-dependent radii
  Radius for C  used is    3.4960 Bohr (=   1.8500 Ang.)
  Radius for N  used is    3.5716 Bohr (=   1.8900 Ang.)
  Radius for O  used is    3.8248 Bohr (=   2.0240 Ang.)
  Radius for H  used is    2.2677 Bohr (=   1.2000 Ang.)
Calculating surface                               ...        done! (  0.0s)
Cavity surface points                             ...         4504
Cavity Volume                                     ...    3250.3648
Cavity Surface-area                               ...    1732.0087
Calculating surface distance matrix               ...        done! (  0.2s)
Performing Cholesky decomposition & store         ...        done! (  1.5s)
Overall time for CPCM initialization              ...                 1.8s

----------------------------------------D-I-I-S--------------------------------------------
Iteration    Energy (Eh)           Delta-E    RMSDP     MaxDP     DIISErr   Damp  Time(sec)
-------------------------------------------------------------------------------------------
               ***  Starting incremental Fock matrix formation  ***
    1    -1542.1468236324276404     0.00e+00  5.86e-05  1.71e-03  5.73e-03  0.700  20.1
    2    -1542.1469020699582870    -7.84e-05  5.20e-05  1.41e-03  4.41e-03  0.700  14.0
                               ***Turning on AO-DIIS***
                              *** Initializing SOSCF ***
---------------------------------------S-O-S-C-F--------------------------------------
Iteration    Energy (Eh)           Delta-E    RMSDP     MaxDP     MaxGrad    Time(sec)
--------------------------------------------------------------------------------------
    3    -1542.1469624909937011    -6.04e-05  1.30e-04  3.26e-03  3.20e-03    13.0
               *** Restarting incremental Fock matrix formation ***
    4    -1542.1471056020714059    -1.43e-04  1.94e-05  7.75e-04  7.84e-05    18.3
    5    -1542.1471048404596331     7.62e-07  1.18e-05  1.01e-03  1.55e-04    11.5
    6    -1542.1471062473906386    -1.41e-06  5.60e-06  3.10e-04  1.73e-05    11.1
    7    -1542.1471062053228707     4.21e-08  2.95e-06  2.05e-04  2.76e-05    11.0
    8    -1542.1471062668028935    -6.15e-08  3.34e-06  1.77e-04  7.77e-06    13.3
    9    -1542.1471062656869435     1.12e-09  2.04e-06  7.23e-05  1.05e-05    13.2
                 **** Energy Check signals convergence ****

               *****************************************************
               *                     SUCCESS                       *
               *           SCF CONVERGED AFTER   9 CYCLES          *
               *****************************************************


SMD CDS free energy correction energy :                -7.77723     Kcal/mol
Total Energy after SMD CDS correction =             -1542.159500101 Eh
             **** ENERGY FILE WAS UPDATED (Apixaban_SMD_chloroform_Opt_Freq_KeepDens.en.tmp) ****

----------------
TOTAL SCF ENERGY
----------------

Total Energy       :      -1542.15950010124789 Eh          -41964.29342 eV

Components:
Nuclear Repulsion  :       3308.98482360778553 Eh           90042.05470 eV
Electronic Energy  :      -4851.09188932150391 Eh         -132004.92131 eV
One Electron Energy:      -8679.57478890290804 Eh         -236183.23733 eV
Two Electron Energy:       3828.48289958140413 Eh          104178.31602 eV
CPCM Dielectric    :         -0.04004058118492 Eh              -1.08956 eV
SMD CDS (Gcds)     :         -0.01239380634438 Eh              -0.33725 eV

Virial components:
Potential Energy   :      -3077.48099649915684 Eh          -83742.51530 eV
Kinetic Energy     :       1535.32149639790896 Eh           41778.22188 eV
Virial Ratio       :          2.00445379271988

DFT components:
N(Alpha)           :      120.999971860398 electrons
N(Beta)            :      120.999971860398 electrons
N(Total)           :      241.999943720795 electrons
E(X)               :     -205.556330688700 Eh       
E(C)               :       -7.985390881516 Eh       
E(XC)              :     -213.541721570216 Eh       

CPCM Solvation Model Properties:
Surface-charge          :         -0.05713518862072
Corrected charge        :         -0.00000000000000
Outlying charge corr.   :          0.00011320407234 Eh               0.00308 eV
Free-energy (cav+disp)  :         -0.01239380634438 Eh              -0.33725 eV

---------------
SCF CONVERGENCE
---------------

  Last Energy change         ...   -1.1159e-09  Tolerance :   1.0000e-08
  Last MAX-Density change    ...    7.2272e-05  Tolerance :   1.0000e-07
  Last RMS-Density change    ...    2.0367e-06  Tolerance :   5.0000e-09
  Last DIIS Error            ...    3.1975e-03  Tolerance :   5.0000e-07
  Last Orbital Gradient      ...    1.0495e-05  Tolerance :   1.0000e-05
  Last Orbital Rotation      ...    2.2973e-05  Tolerance :   1.0000e-05


Total SCF time: 0 days 0 hours 2 min 21 sec 
Finished LeanSCF after 141.7 sec

Maximum memory used throughout the entire LEANSCF-calculation: 122.6 MB


           ************************************************************
           *        Program running with 4 parallel MPI-processes     *
           *              working on a common directory               *
           ************************************************************

------------------------------------------------------------------------------
                         ORCA PROPERTY INTEGRAL CALCULATIONS
------------------------------------------------------------------------------

GBWName                                   ... Apixaban_SMD_chloroform_Opt_Freq_KeepDens.gbw
Number of atoms                           ...     59
Number of basis functions                 ...    816
Max core memory                           ...   2000 MB

Dipole integrals                          ... YES
Quadrupole integrals                      ...  NO
Linear momentum integrals                 ...  NO
Angular momentum integrals                ...  NO
Higher moments length integrals           ...  NO
Higher moments velocity integrals         ...  NO
Kinetic energy integrals                  ...  NO
GIAO right hand sides                     ...  NO
GIAO dipole derivative integrals          ...  NO
SOC integrals                             ...  NO
EPR diamagnetic integrals (GIAO)          ...  NO
EPR gauge integrals                       ...  NO
Field gradient integrals                  ...  NO (   0 nuclei)
Spin-dipole/Fermi contact integrals       ...  NO (   0 nuclei)
Contact density integrals                 ...  NO (   0 nuclei)
Nucleus-orbit integrals                   ...  NO (   0 nuclei)
Geometric perturbations                   ...  NO (  59 nuclei)

Choice of electric origin   ... Center of mass
Position of electric origin ... ( 60.3242,-38.2013, -0.0695) 
Choice of magnetic origin   ... GIAO
Position of magnetic origin ... (  0.0000,  0.0000,  0.0000) 

Calculating integrals                     ... Electric Dipole (Length)     done (  0.1 sec)

Property integrals calculated in   0.2 sec

Maximum memory used throughout the entire PROPINT-calculation: 64.1 MB


-------------------------------------------------------------------------------
                          DFT DISPERSION CORRECTION                            
                                                                               
                                DFTD4 V3.4.0                                   
-------------------------------------------------------------------------------
-------------------------   ----------------
Dispersion correction           -0.029162213
-------------------------   ----------------

------------------   -----------------
gCP correction             0.037923221
------------------   -----------------

-------------------------   --------------------
FINAL SINGLE POINT ENERGY     -1542.150739092863
-------------------------   --------------------



           ************************************************************
           *        Program running with 4 parallel MPI-processes     *
           *              working on a common directory               *
           ************************************************************
------------------------------------------------------------------------------
                         ORCA SCF GRADIENT CALCULATION
------------------------------------------------------------------------------

Nuc. rep. gradient        (SHARK) ... done (  0.0 sec)
HCore & Overlap gradient  (SHARK) ... done (  3.4 sec)
Split-RIJ-J gradient      (SHARK) ... done ( 10.4 sec)
XC gradient                       ... done ( 33.0 sec)
CPCM gradient                     ... done ( 13.3 sec)
SMD gradient                      ... done (  0.0 sec)
Dispersion correction             ... done (  0.1 sec)

-------------------
DISPERSION GRADIENT
-------------------

   1   C   :   -0.000097463    0.000043001   -0.000006715
   2   C   :   -0.000114658    0.000014022    0.000061918
   3   C   :   -0.000089271   -0.000035683    0.000077588
   4   N   :   -0.000049281    0.000027988    0.000002403
   5   C   :   -0.000035681    0.000087400   -0.000079365
   6   C   :   -0.000059331    0.000114376   -0.000023327
   7   C   :    0.000005086   -0.000009063   -0.000005269
   8   C   :    0.000004897    0.000002925    0.000121625
   9   C   :   -0.000011787    0.000008896    0.000120561
  10   C   :   -0.000043146    0.000004615   -0.000009595
  11   C   :   -0.000029796   -0.000008541   -0.000129332
  12   C   :   -0.000027663    0.000000383   -0.000118190
  13   N   :   -0.000045333   -0.000029491   -0.000032309
  14   C   :   -0.000050730   -0.000087491   -0.000106850
  15   C   :   -0.000054040   -0.000135015   -0.000046000
  16   C   :    0.000022355   -0.000096379   -0.000028472
  17   C   :    0.000106077   -0.000112739   -0.000026877
  18   C   :   -0.000034189    0.000027996    0.000009549
  19   O   :   -0.000070144   -0.000091528    0.000113043
  20   O   :   -0.000037147    0.000104191    0.000057168
  21   C   :    0.000033994   -0.000009565    0.000011997
  22   N   :    0.000055247   -0.000061580   -0.000014194
  23   N   :    0.000068071   -0.000057878   -0.000007585
  24   C   :    0.000072988    0.000037594    0.000032583
  25   C   :    0.000087659   -0.000127998   -0.000032274
  26   N   :    0.000124391   -0.000082423   -0.000020668
  27   O   :    0.000029679   -0.000122681   -0.000034928
  28   C   :    0.000031407    0.000039245    0.000137653
  29   C   :    0.000009760    0.000052888    0.000131049
  30   C   :    0.000048048    0.000079081    0.000039240
  31   C   :    0.000078795    0.000075241   -0.000037965
  32   C   :    0.000102687    0.000061200   -0.000070551
  33   O   :    0.000033650    0.000079999    0.000043242
  34   C   :    0.000061115    0.000085148   -0.000006965
  35   H   :   -0.000045217    0.000011309   -0.000011398
  36   H   :   -0.000039280    0.000023113    0.000004727
  37   H   :   -0.000034871    0.000006033    0.000036959
  38   H   :   -0.000041173   -0.000019038    0.000024676
  39   H   :    0.000000076    0.000059390   -0.000033416
  40   H   :   -0.000017562    0.000025933   -0.000043989
  41   H   :   -0.000016006    0.000051737   -0.000001035
  42   H   :   -0.000013424    0.000043778   -0.000022281
  43   H   :    0.000013131   -0.000000497    0.000066350
  44   H   :   -0.000011504    0.000004743    0.000069857
  45   H   :   -0.000017097    0.000002567   -0.000068759
  46   H   :   -0.000004319   -0.000007760   -0.000068937
  47   H   :   -0.000018711   -0.000051268   -0.000034712
  48   H   :   -0.000015331   -0.000018335   -0.000060443
  49   H   :   -0.000030027   -0.000065804    0.000007706
  50   H   :   -0.000023876   -0.000051326   -0.000033175
  51   H   :    0.000039670   -0.000042886   -0.000011403
  52   H   :    0.000022414   -0.000021045   -0.000005788
  53   H   :    0.000003734    0.000005982    0.000076697
  54   H   :   -0.000010096    0.000014538    0.000054729
  55   H   :    0.000028129    0.000023183   -0.000032283
  56   H   :    0.000042561    0.000024789   -0.000053529
  57   H   :    0.000020352    0.000040105    0.000002535
  58   H   :    0.000014653    0.000029323    0.000008354
  59   H   :    0.000027531    0.000033302    0.000006369

Difference to translation invariance:
           :    0.0000000000   -0.0000000000    0.0000000000

Difference to rotation invariance:
           :   -0.0000000000   -0.0000000000   -0.0000000000

Norm of the Dispersion gradient    ...    0.0007429321
RMS gradient                       ...    0.0000558422
MAX gradient                       ...    0.0001376531
gCP correction                   ... done

------------------
CARTESIAN GRADIENT
------------------

   1   C   :   -0.000079598    0.000009082   -0.000058619
   2   C   :   -0.000029498   -0.000237066    0.000017296
   3   C   :    0.000172856    0.000182542    0.000561511
   4   N   :   -0.000000024    0.000005878    0.000021418
   5   C   :   -0.000056290    0.000069855   -0.000068055
   6   C   :    0.000045344    0.000067508    0.000023393
   7   C   :    0.000125136   -0.000025931   -0.000052723
   8   C   :    0.000042563   -0.000023133   -0.000058153
   9   C   :   -0.000010538    0.000010249   -0.000039715
  10   C   :   -0.000184762    0.000070918   -0.000027793
  11   C   :   -0.000101811    0.000103053    0.000040556
  12   C   :    0.000109536   -0.000094457    0.000022046
  13   N   :   -0.000035762    0.000021277    0.000027606
  14   C   :    0.000099070   -0.000069211   -0.000063478
  15   C   :    0.000057688   -0.000035727    0.000092784
  16   C   :    0.000085333   -0.000018131   -0.000105606
  17   C   :    0.000124557   -0.000072916   -0.000126887
  18   C   :   -0.000004761    0.000010218    0.000452429
  19   O   :   -0.000134763    0.000082525   -0.000366767
  20   O   :    0.000108626   -0.000119804   -0.000206645
  21   C   :   -0.000065370    0.000078607    0.000208728
  22   N   :    0.000106001   -0.000098831    0.000027133
  23   N   :   -0.000148047   -0.000094616   -0.000187689
  24   C   :    0.000130294    0.000179869    0.000024114
  25   C   :    0.000048534   -0.000077348   -0.000061945
  26   N   :   -0.000434273   -0.000039681   -0.000038020
  27   O   :    0.000055374    0.000163931    0.000096654
  28   C   :    0.000100765   -0.000028222   -0.000030265
  29   C   :    0.000114534    0.000040005   -0.000069913
  30   C   :    0.000000806   -0.000037061    0.000059360
  31   C   :   -0.000104785   -0.000106247   -0.000017880
  32   C   :   -0.000205406   -0.000049087    0.000030946
  33   O   :    0.000089486    0.000177075   -0.000088168
  34   C   :    0.000125043    0.000160005    0.000036152
  35   H   :   -0.000001879    0.000000063   -0.000017066
  36   H   :   -0.000014705   -0.000012437    0.000023713
  37   H   :    0.000050371   -0.000008635   -0.000038961
  38   H   :   -0.000061994    0.000037531    0.000007991
  39   H   :    0.000023555   -0.000061820    0.000037183
  40   H   :   -0.000018309   -0.000048734   -0.000023886
  41   H   :   -0.000008031   -0.000003821   -0.000025802
  42   H   :   -0.000015731    0.000044282   -0.000027236
  43   H   :   -0.000014500   -0.000032680   -0.000020845
  44   H   :    0.000005256    0.000031301   -0.000040340
  45   H   :   -0.000006655    0.000026491    0.000021270
  46   H   :    0.000009952   -0.000021344    0.000020287
  47   H   :   -0.000023827    0.000022028    0.000022036
  48   H   :   -0.000003767    0.000055260   -0.000036730
  49   H   :    0.000001988    0.000003773   -0.000016475
  50   H   :   -0.000010744   -0.000083554   -0.000072861
  51   H   :    0.000088721   -0.000131891   -0.000067005
  52   H   :    0.000142754    0.000188121    0.000085940
  53   H   :   -0.000051091    0.000024029   -0.000024209
  54   H   :   -0.000043463   -0.000036474   -0.000035998
  55   H   :   -0.000044375   -0.000080886   -0.000014313
  56   H   :    0.000024750    0.000026185    0.000040467
  57   H   :   -0.000089423   -0.000019509    0.000024535
  58   H   :   -0.000055236   -0.000034928    0.000058090
  59   H   :   -0.000029473   -0.000087479    0.000046411

Difference to translation invariance:
           :   -0.0000000004    0.0000000002    0.0000000000

Difference to rotation invariance:
           :   -0.0004656827   -0.0000167380   -0.0005610106

Norm of the Cartesian gradient     ...    0.0013847813
RMS gradient                       ...    0.0001040865
MAX gradient                       ...    0.0005615110

-------
TIMINGS
-------

Total SCF gradient time     ....       60.275 sec

Densities                   ....       0.021 sec  (  0.0%)
One electron gradient       ....       3.382 sec  (  5.6%)
RI-J Coulomb gradient       ....      10.390 sec  ( 17.2%)
XC gradient                 ....      32.982 sec  ( 54.7%)
CPCM gradient               ....      13.302 sec  ( 22.1%)
   A-Matrix (El+Nuc)        ....       0.556 sec  (  0.9%)
   Potential                ....      12.746 sec  ( 21.1%)
SMD gradient                ....       0.008 sec  (  0.0%)

Maximum memory used throughout the entire SCFGRAD-calculation: 83.3 MB
------------------------------------------------------------------------------
                         ORCA GEOMETRY RELAXATION STEP
------------------------------------------------------------------------------

Reading the OPT-File                    .... done
Getting information on internals        .... done
Copying old internal coords+grads       .... done
Making the new internal coordinates     .... (2022 redundants) done
Validating the new internal coordinates .... (2022 redundants) done
Calculating the B-matrix                .... done
Calculating the G,G- and P matrices     .... done
Transforming gradient to internals      .... done
Projecting the internal gradient        .... done
Number of atoms                         ....  59
Number of internal coordinates          .... 319
Current Energy                          .... -1542.150739093 Eh
Current gradient norm                   ....     0.001384781 Eh/bohr
Maximum allowed component of the step   ....  0.300
Current trust radius                    ....  0.450
Updating the Hessian (BFGS)             .... done
Forming the augmented Hessian           .... done
Diagonalizing the augmented Hessian     .... done
Last element of RFO vector              ....  0.999763263
Lowest eigenvalues of augmented Hessian:
 -0.000010573  0.008190208  0.013873003  0.016643405  0.017190175
Length of the computed step             ....  0.021763340
The final length of the internal step   ....  0.021763340
Converting the step to Cartesian space:
 Initial RMS(Int)=    0.0012185131
Transforming coordinates:
 Iter   0:  RMS(Cart)=    0.0079605153 RMS(Int)=    0.3517159711
done
Storing new coordinates                 .... done
The predicted energy change is          ....    -0.000005289
Previously predicted energy change      ....    -0.000014057
Actually observed energy change         ....    -0.000012517
Ratio of predicted to observed change   ....     0.890476612
New trust radius                        ....     0.675000000

                                .--------------------.
          ----------------------|Geometry convergence|-------------------------
          Item                value                   Tolerance       Converged
          ---------------------------------------------------------------------
          Energy change      -0.0000125174            0.0000050000      NO
          RMS gradient        0.0000792227            0.0001000000      YES
          MAX gradient        0.0003964593            0.0003000000      NO
          RMS step            0.0012185131            0.0020000000      YES
          MAX step            0.0075547917            0.0040000000      NO
          -------------------------------------------------------------------------
          ........................................................
          Max(Bonds)      0.0006      Max(Angles)    0.09
          Max(Dihed)        0.43      Max(Improp)    0.00
          ---------------------------------------------------------------------

The optimization has not yet converged - more geometry cycles are needed


    ---------------------------------------------------------------------------
                         Redundant Internal Coordinates
                            (Angstroem and degrees)

        Definition                    Value    dE/dq     Step     New-Value
    ----------------------------------------------------------------------------
     1. B(C   1,C   0)                1.5249  0.000092 -0.0000    1.5248   
     2. B(C   2,C   1)                1.5169 -0.000046  0.0001    1.5170   
     3. B(N   3,C   2)                1.3748  0.000050 -0.0000    1.3748   
     4. B(C   4,N   3)                1.4814  0.000063 -0.0002    1.4812   
     5. B(C   5,C   4)                1.5169  0.000076  0.0000    1.5169   
     6. B(C   5,C   0)                1.5217  0.000100 -0.0000    1.5216   
     7. B(C   6,N   3)                1.4271  0.000176  0.0000    1.4271   
     8. B(C   7,C   6)                1.3979 -0.000079  0.0000    1.3979   
     9. B(C   8,C   7)                1.3850 -0.000088  0.0000    1.3850   
    10. B(C   9,C   8)                1.3983 -0.000107  0.0001    1.3984   
    11. B(C  10,C   9)                1.3940 -0.000007 -0.0000    1.3940   
    12. B(C  11,C  10)                1.3915 -0.000077  0.0000    1.3915   
    13. B(C  11,C   6)                1.3936 -0.000003 -0.0001    1.3936   
    14. B(N  12,C   9)                1.4239  0.000202 -0.0001    1.4238   
    15. B(C  13,N  12)                1.4841  0.000144 -0.0003    1.4837   
    16. B(C  14,C  13)                1.5260  0.000160 -0.0001    1.5258   
    17. B(C  15,C  14)                1.4881  0.000048 -0.0000    1.4881   
    18. B(C  16,C  15)                1.3829 -0.000155  0.0001    1.3831   
    19. B(C  17,C  16)                1.4694 -0.000084  0.0001    1.4695   
    20. B(C  17,N  12)                1.3833  0.000024  0.0001    1.3834   
    21. B(O  18,C   2)                1.2311 -0.000294  0.0001    1.2312   
    22. B(O  19,C  17)                1.2289 -0.000204  0.0001    1.2290   
    23. B(C  20,C  15)                1.4042 -0.000088  0.0000    1.4042   
    24. B(N  21,C  20)                1.3456  0.000023 -0.0001    1.3455   
    25. B(N  22,N  21)                1.3367  0.000028 -0.0001    1.3366   
    26. B(N  22,C  16)                1.3716 -0.000202  0.0004    1.3720   
    27. B(C  23,N  22)                1.4302  0.000117 -0.0000    1.4302   
    28. B(C  24,C  20)                1.4803 -0.000119 -0.0001    1.4802   
    29. B(N  25,C  24)                1.3513 -0.000188  0.0002    1.3515   
    30. B(O  26,C  24)                1.2335 -0.000185  0.0001    1.2336   
    31. B(C  27,C  23)                1.3937 -0.000098  0.0001    1.3938   
    32. B(C  28,C  27)                1.3822 -0.000032 -0.0000    1.3822   
    33. B(C  29,C  28)                1.4020 -0.000102 -0.0001    1.4019   
    34. B(C  30,C  29)                1.3979  0.000099 -0.0002    1.3976   
    35. B(C  31,C  30)                1.3926  0.000001 -0.0000    1.3926   
    36. B(C  31,C  23)                1.3872 -0.000220  0.0002    1.3873   
    37. B(O  32,C  29)                1.3579  0.000215  0.0001    1.3580   
    38. B(C  33,O  32)                1.4322 -0.000113 -0.0003    1.4320   
    39. B(H  34,C   0)                1.0984  0.000014 -0.0000    1.0984   
    40. B(H  35,C   0)                1.0958  0.000010 -0.0000    1.0958   
    41. B(H  36,C   1)                1.0998 -0.000032  0.0000    1.0998   
    42. B(H  37,C   1)                1.0945  0.000021 -0.0000    1.0945   
    43. B(H  38,C   4)                1.0954 -0.000018  0.0000    1.0954   
    44. B(H  39,C   4)                1.1001  0.000046 -0.0000    1.1001   
    45. B(H  40,C   5)                1.0983 -0.000024  0.0000    1.0983   
    46. B(H  41,C   5)                1.0961  0.000051 -0.0001    1.0960   
    47. B(H  42,C   7)                1.0843 -0.000024 -0.0000    1.0843   
    48. B(H  43,C   8)                1.0845 -0.000034 -0.0000    1.0845   
    49. B(H  44,C  10)                1.0856 -0.000028  0.0000    1.0856   
    50. B(H  45,C  11)                1.0855 -0.000025  0.0000    1.0855   
    51. B(H  46,C  13)                1.0925  0.000010  0.0000    1.0925   
    52. B(H  47,C  13)                1.1001  0.000054 -0.0000    1.1000   
    53. B(H  48,C  14)                1.0988 -0.000017  0.0000    1.0988   
    54. B(H  49,C  14)                1.0931  0.000108 -0.0001    1.0930   
    55. B(H  50,N  25)                1.0085 -0.000077  0.0001    1.0086   
    56. B(H  50,N  21)                2.4012 -0.000017 -0.0006    2.4007   
    57. B(H  51,N  25)                1.0083 -0.000118  0.0001    1.0084   
    58. B(H  52,C  27)                1.0845  0.000008 -0.0001    1.0845   
    59. B(H  53,C  28)                1.0858 -0.000034  0.0000    1.0858   
    60. B(H  54,C  30)                1.0835 -0.000062  0.0001    1.0836   
    61. B(H  55,C  31)                1.0860 -0.000040  0.0000    1.0860   
    62. B(H  56,C  33)                1.0972  0.000006  0.0000    1.0972   
    63. B(H  57,C  33)                1.0915 -0.000004  0.0000    1.0915   
    64. B(H  58,C  33)                1.0972  0.000012  0.0000    1.0972   
    65. A(C   5,C   0,H  34)          109.40 -0.000016    0.00    109.40   
    66. A(H  34,C   0,H  35)          107.19  0.000002   -0.01    107.18   
    67. A(C   1,C   0,H  35)          109.93 -0.000022    0.02    109.94   
    68. A(C   1,C   0,C   5)          108.93  0.000011   -0.01    108.92   
    69. A(C   5,C   0,H  35)          111.36  0.000024   -0.00    111.36   
    70. A(C   1,C   0,H  34)          110.02  0.000000   -0.00    110.02   
    71. A(C   0,C   1,H  36)          109.80  0.000021    0.02    109.81   
    72. A(C   0,C   1,C   2)          116.12 -0.000008   -0.00    116.12   
    73. A(C   2,C   1,H  37)          106.56  0.000106   -0.03    106.53   
    74. A(C   2,C   1,H  36)          105.14 -0.000045    0.01    105.15   
    75. A(H  36,C   1,H  37)          106.36 -0.000049   -0.01    106.35   
    76. A(C   0,C   1,H  37)          112.21 -0.000029    0.01    112.23   
    77. A(N   3,C   2,O  18)          122.01 -0.000075    0.01    122.02   
    78. A(C   1,C   2,O  18)          119.87  0.000014   -0.02    119.84   
    79. A(C   1,C   2,N   3)          118.08  0.000069    0.00    118.08   
    80. A(C   2,N   3,C   6)          119.63 -0.000022    0.01    119.64   
    81. A(C   2,N   3,C   4)          123.36 -0.000053    0.00    123.36   
    82. A(C   4,N   3,C   6)          116.45  0.000071   -0.00    116.45   
    83. A(N   3,C   4,C   5)          112.08  0.000029    0.01    112.09   
    84. A(C   5,C   4,H  38)          110.93  0.000048   -0.01    110.92   
    85. A(N   3,C   4,H  38)          107.16 -0.000076    0.01    107.18   
    86. A(N   3,C   4,H  39)          109.58 -0.000021    0.02    109.59   
    87. A(C   5,C   4,H  39)          109.32  0.000006   -0.01    109.31   
    88. A(H  38,C   4,H  39)          107.65  0.000011   -0.01    107.64   
    89. A(C   0,C   5,H  41)          111.51  0.000004    0.00    111.51   
    90. A(C   4,C   5,H  40)          109.95  0.000003   -0.01    109.94   
    91. A(C   0,C   5,C   4)          109.38 -0.000044    0.01    109.39   
    92. A(H  40,C   5,H  41)          107.62 -0.000012   -0.00    107.62   
    93. A(C   0,C   5,H  40)          110.08  0.000022   -0.00    110.08   
    94. A(C   4,C   5,H  41)          108.26  0.000027    0.00    108.26   
    95. A(C   7,C   6,C  11)          119.25 -0.000059    0.01    119.26   
    96. A(N   3,C   6,C  11)          120.32  0.000146   -0.03    120.29   
    97. A(N   3,C   6,C   7)          120.40 -0.000087    0.01    120.42   
    98. A(C   6,C   7,C   8)          120.43  0.000036   -0.01    120.42   
    99. A(C   6,C   7,H  42)          119.76 -0.000027    0.00    119.76   
   100. A(C   8,C   7,H  42)          119.81 -0.000009    0.00    119.82   
   101. A(C   7,C   8,C   9)          120.34  0.000037   -0.00    120.33   
   102. A(C   7,C   8,H  43)          119.87 -0.000003   -0.00    119.87   
   103. A(C   9,C   8,H  43)          119.79 -0.000034    0.00    119.80   
   104. A(C   8,C   9,C  10)          119.33 -0.000042    0.00    119.33   
   105. A(C  10,C   9,N  12)          120.53  0.000220   -0.03    120.50   
   106. A(C   8,C   9,N  12)          120.13 -0.000177    0.03    120.16   
   107. A(C   9,C  10,C  11)          120.27  0.000008   -0.00    120.27   
   108. A(C  11,C  10,H  44)          119.25 -0.000011    0.00    119.26   
   109. A(C   9,C  10,H  44)          120.48  0.000004   -0.00    120.48   
   110. A(C   6,C  11,H  45)          120.41 -0.000007    0.00    120.41   
   111. A(C  10,C  11,H  45)          119.20 -0.000014    0.00    119.20   
   112. A(C   6,C  11,C  10)          120.39  0.000021   -0.00    120.39   
   113. A(C  13,N  12,C  17)          120.93 -0.000140    0.02    120.94   
   114. A(C   9,N  12,C  17)          119.18 -0.000066    0.02    119.20   
   115. A(C   9,N  12,C  13)          117.87  0.000208   -0.02    117.84   
   116. A(C  14,C  13,H  47)          109.47  0.000010   -0.02    109.45   
   117. A(C  14,C  13,H  46)          110.10  0.000029    0.00    110.10   
   118. A(N  12,C  13,H  47)          109.44 -0.000027    0.02    109.45   
   119. A(H  46,C  13,H  47)          108.25 -0.000000   -0.00    108.25   
   120. A(N  12,C  13,C  14)          112.23  0.000047    0.00    112.23   
   121. A(N  12,C  13,H  46)          107.25 -0.000062    0.00    107.25   
   122. A(C  13,C  14,H  49)          109.35  0.000010    0.01    109.37   
   123. A(H  48,C  14,H  49)          107.20 -0.000030   -0.00    107.20   
   124. A(C  15,C  14,H  49)          111.43  0.000047   -0.02    111.42   
   125. A(C  15,C  14,H  48)          110.05  0.000038   -0.00    110.05   
   126. A(C  13,C  14,C  15)          108.23 -0.000059    0.00    108.23   
   127. A(C  13,C  14,H  48)          110.59 -0.000003    0.00    110.60   
   128. A(C  14,C  15,C  20)          135.10  0.000134   -0.03    135.07   
   129. A(C  14,C  15,C  16)          120.21 -0.000033    0.02    120.23   
   130. A(C  16,C  15,C  20)          104.69 -0.000101    0.01    104.70   
   131. A(C  15,C  16,C  17)          125.10  0.000127   -0.03    125.07   
   132. A(C  17,C  16,N  22)          127.73 -0.000241    0.05    127.78   
   133. A(C  15,C  16,N  22)          107.16  0.000114   -0.02    107.14   
   134. A(C  16,C  17,O  19)          123.60 -0.000124    0.02    123.62   
   135. A(N  12,C  17,O  19)          123.67  0.000081   -0.03    123.64   
   136. A(N  12,C  17,C  16)          112.72  0.000045    0.01    112.72   
   137. A(N  21,C  20,C  24)          121.57  0.000031   -0.00    121.56   
   138. A(C  15,C  20,C  24)          127.62 -0.000148    0.01    127.63   
   139. A(C  15,C  20,N  21)          110.82  0.000117   -0.01    110.81   
   140. A(C  20,N  21,N  22)          106.15 -0.000164    0.02    106.17   
   141. A(N  21,N  22,C  23)          118.89  0.000240   -0.04    118.85   
   142. A(C  16,N  22,C  23)          129.92 -0.000273    0.04    129.97   
   143. A(C  16,N  22,N  21)          111.18  0.000034   -0.01    111.17   
   144. A(N  22,C  23,C  31)          119.01  0.000135   -0.03    118.98   
   145. A(C  27,C  23,C  31)          120.72 -0.000035    0.00    120.72   
   146. A(N  22,C  23,C  27)          120.22 -0.000098    0.03    120.24   
   147. A(N  25,C  24,O  26)          123.66  0.000075   -0.03    123.63   
   148. A(C  20,C  24,O  26)          120.67 -0.000072    0.01    120.68   
   149. A(C  20,C  24,N  25)          115.67 -0.000003    0.01    115.69   
   150. A(H  50,N  25,H  51)          119.40 -0.000250    0.09    119.49   
   151. A(C  24,N  25,H  51)          119.29  0.000174   -0.06    119.22   
   152. A(C  24,N  25,H  50)          121.09  0.000078   -0.03    121.06   
   153. A(C  28,C  27,H  52)          120.41 -0.000024    0.00    120.41   
   154. A(C  23,C  27,H  52)          120.10 -0.000038    0.00    120.10   
   155. A(C  23,C  27,C  28)          119.50  0.000063   -0.01    119.49   
   156. A(C  29,C  28,H  53)          119.06  0.000024   -0.02    119.04   
   157. A(C  27,C  28,H  53)          120.69 -0.000083    0.03    120.72   
   158. A(C  27,C  28,C  29)          120.25  0.000059   -0.01    120.23   
   159. A(C  30,C  29,O  32)          124.48  0.000307   -0.04    124.44   
   160. A(C  28,C  29,O  32)          115.49 -0.000130    0.01    115.50   
   161. A(C  28,C  29,C  30)          120.03 -0.000177    0.03    120.06   
   162. A(C  29,C  30,C  31)          119.39  0.000085   -0.01    119.37   
   163. A(C  31,C  30,H  54)          119.13 -0.000112    0.03    119.15   
   164. A(C  29,C  30,H  54)          121.49  0.000027   -0.01    121.48   
   165. A(C  23,C  31,C  30)          120.12  0.000006   -0.00    120.12   
   166. A(C  30,C  31,H  55)          120.05 -0.000036    0.02    120.06   
   167. A(C  23,C  31,H  55)          119.83  0.000030   -0.02    119.82   
   168. A(C  29,O  32,C  33)          117.89  0.000396   -0.03    117.85   
   169. A(H  57,C  33,H  58)          109.41  0.000093   -0.01    109.40   
   170. A(H  56,C  33,H  58)          109.94  0.000119   -0.01    109.92   
   171. A(O  32,C  33,H  58)          111.17 -0.000107    0.02    111.19   
   172. A(H  56,C  33,H  57)          109.39  0.000081   -0.01    109.38   
   173. A(O  32,C  33,H  57)          105.65 -0.000099    0.01    105.65   
   174. A(O  32,C  33,H  56)          111.18 -0.000090    0.02    111.19   
   175. D(H  36,C   1,C   0,H  34)   -165.91 -0.000023    0.02   -165.89   
   176. D(C   2,C   1,C   0,C   5)    -44.88  0.000038   -0.01    -44.88   
   177. D(C   2,C   1,C   0,H  34)     75.03  0.000025   -0.01     75.03   
   178. D(C   2,C   1,C   0,H  35)   -167.15  0.000015   -0.01   -167.16   
   179. D(H  36,C   1,C   0,H  35)    -48.10 -0.000033    0.02    -48.08   
   180. D(H  36,C   1,C   0,C   5)     74.18 -0.000011    0.02     74.19   
   181. D(N   3,C   2,C   1,H  37)    145.86 -0.000025   -0.00    145.86   
   182. D(N   3,C   2,C   1,C   0)     20.05 -0.000068    0.01     20.06   
   183. D(O  18,C   2,C   1,C   0)   -162.40  0.000125   -0.26   -162.67   
   184. D(N   3,C   2,C   1,H  36)   -101.51 -0.000056   -0.02   -101.53   
   185. D(O  18,C   2,C   1,H  36)     76.04  0.000137   -0.29     75.75   
   186. D(C   6,N   3,C   2,O  18)     -0.59 -0.000126    0.20     -0.39   
   187. D(C   6,N   3,C   2,C   1)    176.90  0.000073   -0.08    176.83   
   188. D(C   4,N   3,C   2,O  18)    170.50 -0.000146    0.29    170.79   
   189. D(C   4,N   3,C   2,C   1)    -12.01  0.000054    0.01    -12.00   
   190. D(H  38,C   4,N   3,C   2)    151.35  0.000027   -0.03    151.32   
   191. D(H  39,C   4,N   3,C   2)    -92.13 -0.000013   -0.03    -92.16   
   192. D(H  38,C   4,N   3,C   6)    -37.31  0.000000    0.06    -37.25   
   193. D(C   5,C   4,N   3,C   2)     29.42  0.000000   -0.03     29.40   
   194. D(C   5,C   4,N   3,C   6)   -159.23 -0.000026    0.06   -159.17   
   195. D(H  40,C   5,C   4,N   3)     67.23 -0.000019    0.01     67.24   
   196. D(C   0,C   5,C   4,H  39)     67.94 -0.000023    0.03     67.97   
   197. D(C   0,C   5,C   4,H  38)   -173.51  0.000024    0.00   -173.50   
   198. D(C   0,C   5,C   4,N   3)    -53.76 -0.000021    0.01    -53.75   
   199. D(H  40,C   5,C   0,H  35)     62.07 -0.000007    0.02     62.08   
   200. D(H  40,C   5,C   0,C   1)    -59.33 -0.000002    0.00    -59.33   
   201. D(H  40,C   5,C   0,H  34)   -179.63  0.000000    0.01   -179.62   
   202. D(C   4,C   5,C   0,H  34)    -58.72 -0.000010    0.00    -58.72   
   203. D(C   4,C   5,C   0,H  35)   -177.02 -0.000017    0.01   -177.01   
   204. D(H  40,C   5,C   4,H  38)    -52.51  0.000025    0.00    -52.51   
   205. D(C   4,C   5,C   0,C   1)     61.57 -0.000012   -0.00     61.57   
   206. D(H  40,C   5,C   4,H  39)   -171.07 -0.000022    0.03   -171.04   
   207. D(C  11,C   6,N   3,C   4)    -43.80  0.000002    0.00    -43.80   
   208. D(C   7,C   6,N   3,C   4)    134.13  0.000011   -0.03    134.10   
   209. D(C   7,C   6,N   3,C   2)    -54.19 -0.000018    0.06    -54.13   
   210. D(C  11,C   6,N   3,C   2)    127.89 -0.000026    0.09    127.97   
   211. D(H  42,C   7,C   6,C  11)    179.94  0.000017   -0.01    179.93   
   212. D(H  42,C   7,C   6,N   3)      1.99  0.000004    0.02      2.01   
   213. D(C   8,C   7,C   6,C  11)     -0.61  0.000013   -0.02     -0.63   
   214. D(C   8,C   7,C   6,N   3)   -178.56  0.000000    0.01   -178.55   
   215. D(H  43,C   8,C   7,H  42)      0.14 -0.000023    0.01      0.15   
   216. D(H  43,C   8,C   7,C   6)   -179.31 -0.000019    0.02   -179.29   
   217. D(C   9,C   8,C   7,H  42)   -179.79 -0.000018    0.01   -179.78   
   218. D(C   9,C   8,C   7,C   6)      0.76 -0.000014    0.02      0.78   
   219. D(N  12,C   9,C   8,H  43)      1.38 -0.000002    0.03      1.41   
   220. D(N  12,C   9,C   8,C   7)   -178.69 -0.000007    0.03   -178.66   
   221. D(C  10,C   9,C   8,H  43)    179.93  0.000021   -0.03    179.90   
   222. D(C  10,C   9,C   8,C   7)     -0.14  0.000015   -0.03     -0.17   
   223. D(H  44,C  10,C   9,N  12)     -2.12  0.000002   -0.03     -2.16   
   224. D(H  44,C  10,C   9,C   8)    179.33 -0.000014    0.03    179.36   
   225. D(C  11,C  10,C   9,N  12)    177.92  0.000001   -0.02    177.90   
   226. D(C  11,C  10,C   9,C   8)     -0.62 -0.000015    0.04     -0.58   
   227. D(H  45,C  11,C  10,H  44)      0.86  0.000010   -0.01      0.85   
   228. D(C   6,C  11,C  10,H  44)   -179.19  0.000013   -0.03   -179.22   
   229. D(C   6,C  11,C  10,C   9)      0.77  0.000015   -0.04      0.73   
   230. D(H  45,C  11,C   6,C   7)    179.81 -0.000009    0.01    179.82   
   231. D(H  45,C  11,C   6,N   3)     -2.24 -0.000001   -0.02     -2.26   
   232. D(H  45,C  11,C  10,C   9)   -179.19  0.000011   -0.02   -179.21   
   233. D(C  10,C  11,C   6,C   7)     -0.15 -0.000013    0.03     -0.12   
   234. D(C  10,C  11,C   6,N   3)    177.80 -0.000005   -0.00    177.80   
   235. D(C  17,N  12,C   9,C   8)    -54.28 -0.000001    0.03    -54.25   
   236. D(C  13,N  12,C   9,C  10)    -36.77 -0.000006    0.03    -36.74   
   237. D(C  13,N  12,C   9,C   8)    141.77  0.000013   -0.03    141.73   
   238. D(C  17,N  12,C   9,C  10)    127.19 -0.000019    0.09    127.28   
   239. D(H  47,C  13,N  12,C   9)     90.42 -0.000057    0.04     90.46   
   240. D(H  46,C  13,N  12,C  17)    169.54 -0.000008   -0.02    169.52   
   241. D(H  46,C  13,N  12,C   9)    -26.80 -0.000008    0.04    -26.76   
   242. D(C  14,C  13,N  12,C  17)     48.50 -0.000032   -0.03     48.47   
   243. D(C  14,C  13,N  12,C   9)   -147.84 -0.000032    0.03   -147.81   
   244. D(H  48,C  14,C  13,H  47)   -167.12 -0.000021    0.03   -167.09   
   245. D(H  48,C  14,C  13,H  46)    -48.23  0.000003    0.01    -48.22   
   246. D(H  48,C  14,C  13,N  12)     71.16 -0.000025    0.02     71.18   
   247. D(C  15,C  14,C  13,H  47)     72.27 -0.000028    0.02     72.29   
   248. D(C  15,C  14,C  13,H  46)   -168.84 -0.000004    0.01   -168.83   
   249. D(C  15,C  14,C  13,N  12)    -49.45 -0.000032    0.01    -49.44   
   250. D(C  20,C  15,C  14,H  48)     86.92 -0.000012    0.05     86.98   
   251. D(C  20,C  15,C  14,C  13)   -152.13 -0.000030    0.06   -152.07   
   252. D(C  16,C  15,C  14,H  49)    147.97 -0.000012    0.03    148.01   
   253. D(C  16,C  15,C  14,H  48)    -93.25  0.000004    0.02    -93.23   
   254. D(C  16,C  15,C  14,C  13)     27.71 -0.000014    0.03     27.73   
   255. D(N  22,C  16,C  15,C  20)     -0.06  0.000044   -0.10     -0.17   
   256. D(N  22,C  16,C  15,C  14)   -179.94  0.000032   -0.08   -180.02   
   257. D(C  17,C  16,C  15,C  20)   -179.27  0.000056   -0.08   -179.34   
   258. D(C  17,C  16,C  15,C  14)      0.86  0.000045   -0.05      0.81   
   259. D(O  19,C  17,C  16,N  22)     -7.79  0.000065   -0.07     -7.86   
   260. D(O  19,C  17,C  16,C  15)    171.25  0.000054   -0.11    171.14   
   261. D(N  12,C  17,C  16,N  22)    173.63 -0.000060    0.06    173.69   
   262. D(N  12,C  17,C  16,C  15)     -7.34 -0.000071    0.03     -7.31   
   263. D(O  19,C  17,N  12,C  13)    163.11 -0.000054    0.15    163.26   
   264. D(O  19,C  17,N  12,C   9)     -0.34 -0.000098    0.09     -0.25   
   265. D(C  16,C  17,N  12,C  13)    -18.30  0.000068    0.01    -18.29   
   266. D(C  16,C  17,N  12,C   9)    178.25  0.000024   -0.05    178.20   
   267. D(C  24,C  20,C  15,C  16)    179.54 -0.000021    0.04    179.58   
   268. D(C  24,C  20,C  15,C  14)     -0.61 -0.000007    0.01     -0.60   
   269. D(N  21,C  20,C  15,C  16)     -0.39 -0.000044    0.07     -0.32   
   270. D(N  21,C  20,C  15,C  14)    179.46 -0.000030    0.04    179.50   
   271. D(N  22,N  21,C  20,C  24)   -179.25  0.000003    0.03   -179.22   
   272. D(N  22,N  21,C  20,C  15)      0.68  0.000025   -0.01      0.68   
   273. D(C  23,N  22,N  21,C  20)   -179.96 -0.000037    0.11   -179.85   
   274. D(C  16,N  22,N  21,C  20)     -0.73  0.000005   -0.06     -0.79   
   275. D(C  23,N  22,C  16,C  17)     -1.20  0.000013   -0.12     -1.32   
   276. D(C  23,N  22,C  16,C  15)    179.62  0.000022   -0.09    179.54   
   277. D(N  21,N  22,C  16,C  17)    179.67 -0.000040    0.08    179.75   
   278. D(N  21,N  22,C  16,C  15)      0.50 -0.000031    0.11      0.61   
   279. D(C  31,C  23,N  22,N  21)     58.95  0.000073   -0.38     58.57   
   280. D(C  31,C  23,N  22,C  16)   -120.12  0.000019   -0.17   -120.29   
   281. D(C  27,C  23,N  22,N  21)   -118.46  0.000031   -0.26   -118.72   
   282. D(C  27,C  23,N  22,C  16)     62.47 -0.000024   -0.05     62.42   
   283. D(O  26,C  24,C  20,N  21)    175.84 -0.000036    0.39    176.23   
   284. D(O  26,C  24,C  20,C  15)     -4.08 -0.000062    0.43     -3.65   
   285. D(N  25,C  24,C  20,N  21)     -4.44 -0.000031    0.40     -4.05   
   286. D(N  25,C  24,C  20,C  15)    175.64 -0.000057    0.43    176.07   
   287. D(H  51,N  25,C  24,O  26)     -3.01 -0.000007    0.01     -3.00   
   288. D(H  51,N  25,C  24,C  20)    177.28 -0.000012    0.01    177.29   
   289. D(H  50,N  25,C  24,O  26)   -177.54 -0.000023    0.08   -177.47   
   290. D(H  50,N  25,C  24,C  20)      2.75 -0.000027    0.07      2.82   
   291. D(H  52,C  27,C  23,C  31)   -179.35 -0.000048    0.10   -179.25   
   292. D(H  52,C  27,C  23,N  22)     -1.98 -0.000001   -0.03     -2.01   
   293. D(C  28,C  27,C  23,C  31)      0.75 -0.000009    0.04      0.79   
   294. D(C  28,C  27,C  23,N  22)    178.12  0.000039   -0.09    178.03   
   295. D(H  53,C  28,C  27,H  52)      0.11  0.000016   -0.03      0.08   
   296. D(H  53,C  28,C  27,C  23)   -179.99 -0.000023    0.03   -179.96   
   297. D(C  29,C  28,C  27,H  52)    179.74  0.000041   -0.06    179.68   
   298. D(C  29,C  28,C  27,C  23)     -0.36  0.000002   -0.00     -0.36   
   299. D(O  32,C  29,C  28,C  27)    179.95 -0.000011    0.02    179.97   
   300. D(C  30,C  29,C  28,H  53)    179.41  0.000027   -0.05    179.36   
   301. D(C  30,C  29,C  28,C  27)     -0.22  0.000003   -0.02     -0.24   
   302. D(O  32,C  29,C  28,H  53)     -0.41  0.000013   -0.01     -0.42   
   303. D(H  54,C  30,C  29,O  32)     -0.11  0.000010   -0.03     -0.14   
   304. D(H  54,C  30,C  29,C  28)   -179.92 -0.000004    0.02   -179.91   
   305. D(C  31,C  30,C  29,O  32)   -179.77  0.000014   -0.04   -179.81   
   306. D(C  31,C  30,C  29,C  28)      0.42 -0.000000    0.01      0.42   
   307. D(H  55,C  31,C  30,H  54)     -0.00  0.000003    0.01      0.01   
   308. D(H  55,C  31,C  30,C  29)    179.67  0.000000    0.02    179.69   
   309. D(C  23,C  31,C  30,H  54)   -179.70 -0.000004    0.02   -179.68   
   310. D(C  23,C  31,C  30,C  29)     -0.03 -0.000007    0.03     -0.00   
   311. D(H  55,C  31,C  23,C  27)    179.74  0.000005   -0.05    179.70   
   312. D(H  55,C  31,C  23,N  22)      2.34 -0.000036    0.07      2.42   
   313. D(C  30,C  31,C  23,C  27)     -0.56  0.000012   -0.05     -0.61   
   314. D(C  30,C  31,C  23,N  22)   -177.95 -0.000029    0.07   -177.88   
   315. D(C  33,O  32,C  29,C  30)     -0.36 -0.000027    0.11     -0.25   
   316. D(C  33,O  32,C  29,C  28)    179.46 -0.000013    0.06    179.53   
   317. D(H  58,C  33,O  32,C  29)    -60.98  0.000010   -0.07    -61.05   
   318. D(H  57,C  33,O  32,C  29)   -179.57  0.000013   -0.07   -179.64   
   319. D(H  56,C  33,O  32,C  29)     61.86  0.000023   -0.06     61.79   
    ----------------------------------------------------------------------------

Geometry step timings:
Preparation and reading OPT file:      0.005 s (12.821 %)
Internal coordinates            :      0.000 s ( 0.000 %)
B/P matrices and projection     :      0.015 s (38.462 %)
Hessian update/contruction      :      0.004 s (10.256 %)
Making the step                 :      0.009 s (23.077 %)
Converting the step to Cartesian:      0.001 s ( 2.564 %)
Storing new data                :      0.001 s ( 2.564 %)
Checking convergence            :      0.000 s ( 0.000 %)
Final printing                  :      0.004 s (10.256 %)
Total time                      :      0.039 s

Time for energy+gradient        :    211.077 s
Time for complete geometry iter :    211.338 s

         *************************************************************
         *                GEOMETRY OPTIMIZATION CYCLE   4            *
         *************************************************************
---------------------------------
CARTESIAN COORDINATES (ANGSTROEM)
---------------------------------
  C     23.817589  -17.586379   -0.037280
  C     24.219130  -18.529483    1.091632
  C     25.514813  -19.293481    0.894516
  N     26.420474  -18.807068   -0.018266
  C     26.099968  -17.740087   -0.994360
  C     25.038761  -16.789934   -0.472844
  C     27.678652  -19.460651   -0.181140
  C     28.508705  -19.682945    0.921469
  C     29.742761  -20.290321    0.759055
  C     30.179333  -20.673519   -0.512936
  C     29.358389  -20.441207   -1.615362
  C     28.112180  -19.845019   -1.448538
  N     31.436114  -21.323433   -0.672091
  C     31.530093  -22.414754   -1.672939
  C     32.527818  -23.492703   -1.259735
  C     33.798791  -22.825131   -0.868199
  C     33.782935  -21.535054   -0.369912
  C     32.574782  -20.724395   -0.163779
  O     25.749607  -20.288761    1.580207
  O     32.571768  -19.644901    0.423672
  C     35.154910  -23.189290   -0.871366
  N     35.921011  -22.183451   -0.411135
  N     35.083030  -21.189827   -0.099769
  C     35.620837  -19.970582    0.419549
  C     35.743766  -24.477507   -1.301322
  N     37.093627  -24.540491   -1.280583
  O     35.021501  -25.412856   -1.655332
  C     35.264764  -19.532849    1.694045
  C     35.825226  -18.373672    2.196620
  C     36.750449  -17.648229    1.433015
  C     37.113877  -18.098003    0.160619
  C     36.542036  -19.264648   -0.340527
  O     37.239624  -16.525287    2.019369
  C     38.196636  -15.751075    1.287772
  H     23.434508  -18.162603   -0.890305
  H     23.009099  -16.926478    0.296752
  H     24.360363  -17.959166    2.021356
  H     23.446654  -19.275672    1.302207
  H     27.032283  -17.206074   -1.207653
  H     25.752493  -18.192797   -1.934902
  H     25.435271  -16.214142    0.374256
  H     24.791868  -16.079689   -1.270213
  H     28.180026  -19.386029    1.911158
  H     30.374562  -20.468939    1.622163
  H     29.683103  -20.721746   -2.612545
  H     27.481540  -19.683983   -2.317292
  H     30.531887  -22.846644   -1.776069
  H     31.826111  -21.995203   -2.645776
  H     32.135837  -24.079871   -0.417683
  H     32.680184  -24.183945   -2.092560
  H     37.645713  -23.764727   -0.947921
  H     37.549829  -25.406323   -1.523621
  H     34.552708  -20.099084    2.284323
  H     35.562660  -18.014767    3.187159
  H     37.827769  -17.556175   -0.448507
  H     36.812538  -19.621659   -1.329896
  H     37.766648  -15.368762    0.353485
  H     38.455421  -14.912683    1.937056
  H     39.098967  -16.336852    1.071911

----------------------------
CARTESIAN COORDINATES (A.U.)
----------------------------
  NO LB      ZA    FRAG     MASS         X           Y           Z
   0 C     6.0000    0    12.011   45.008721  -33.233439   -0.070449
   1 C     6.0000    0    12.011   45.767523  -35.015648    2.062885
   2 C     6.0000    0    12.011   48.216009  -36.459396    1.690389
   3 N     7.0000    0    14.007   49.927461  -35.540207   -0.034519
   4 C     6.0000    0    12.011   49.321792  -33.523906   -1.879068
   5 C     6.0000    0    12.011   47.316400  -31.728378   -0.893546
   6 C     6.0000    0    12.011   52.305072  -36.775302   -0.342305
   7 C     6.0000    0    12.011   53.873645  -37.195376    1.741323
   8 C     6.0000    0    12.011   56.205672  -38.343150    1.434405
   9 C     6.0000    0    12.011   57.030674  -39.067289   -0.969309
  10 C     6.0000    0    12.011   55.479315  -38.628282   -3.052592
  11 C     6.0000    0    12.011   53.124321  -37.501651   -2.737341
  12 N     7.0000    0    14.007   59.405646  -40.295449   -1.270067
  13 C     6.0000    0    12.011   59.583241  -42.357746   -3.161397
  14 C     6.0000    0    12.011   61.468668  -44.394775   -2.380554
  15 C     6.0000    0    12.011   63.870459  -43.133247   -1.640658
  16 C     6.0000    0    12.011   63.840495  -40.695354   -0.699032
  17 C     6.0000    0    12.011   61.557417  -39.163432   -0.309498
  18 O     8.0000    0    15.999   48.659705  -38.340202    2.986158
  19 O     8.0000    0    15.999   61.551721  -37.123482    0.800623
  20 C     6.0000    0    12.011   66.433152  -43.821407   -1.646644
  21 N     7.0000    0    14.007   67.880873  -41.920646   -0.776933
  22 N     7.0000    0    14.007   66.297319  -40.042970   -0.188536
  23 C     6.0000    0    12.011   67.313627  -37.738931    0.792832
  24 C     6.0000    0    12.011   67.545928  -46.255784   -2.459142
  25 N     7.0000    0    14.007   70.096797  -46.374806   -2.419952
  26 O     8.0000    0    15.999   66.181046  -48.023337   -3.128124
  27 C     6.0000    0    12.011   66.640745  -36.911735    3.201281
  28 C     6.0000    0    12.011   67.699866  -34.721208    4.151011
  29 C     6.0000    0    12.011   69.448285  -33.350319    2.708005
  30 C     6.0000    0    12.011   70.135063  -34.200269    0.303525
  31 C     6.0000    0    12.011   69.054441  -36.404908   -0.643503
  32 O     8.0000    0    15.999   70.372690  -31.228266    3.816054
  33 C     6.0000    0    12.011   72.181182  -29.765218    2.433536
  34 H     1.0000    0     1.008   44.284802  -34.322346   -1.682433
  35 H     1.0000    0     1.008   43.480896  -31.986408    0.560781
  36 H     1.0000    0     1.008   46.034415  -33.937905    3.819809
  37 H     1.0000    0     1.008   44.307756  -36.425741    2.460814
  38 H     1.0000    0     1.008   51.083612  -32.514767   -2.282134
  39 H     1.0000    0     1.008   48.665159  -34.379405   -3.656434
  40 H     1.0000    0     1.008   48.065697  -30.640288    0.707241
  41 H     1.0000    0     1.008   46.849841  -30.386208   -2.400355
  42 H     1.0000    0     1.008   53.252532  -36.634285    3.611565
  43 H     1.0000    0     1.008   57.399603  -38.680688    3.065444
  44 H     1.0000    0     1.008   56.092935  -39.158426   -4.936995
  45 H     1.0000    0     1.008   51.932584  -37.197337   -4.379048
  46 H     1.0000    0     1.008   57.696904  -43.173900   -3.356285
  47 H     1.0000    0     1.008   60.142633  -41.564910   -4.999791
  48 H     1.0000    0     1.008   60.727931  -45.504361   -0.789306
  49 H     1.0000    0     1.008   61.756598  -45.701032   -3.954365
  50 H     1.0000    0     1.008   71.140089  -44.908827   -1.791311
  51 H     1.0000    0     1.008   70.958893  -48.010993   -2.879226
  52 H     1.0000    0     1.008   65.295155  -37.981765    4.316745
  53 H     1.0000    0     1.008   67.203689  -34.042976    6.022859
  54 H     1.0000    0     1.008   71.484123  -33.176363   -0.847555
  55 H     1.0000    0     1.008   69.565616  -37.079562   -2.513139
  56 H     1.0000    0     1.008   71.368622  -29.042751    0.667991
  57 H     1.0000    0     1.008   72.670213  -28.180886    3.660506
  58 H     1.0000    0     1.008   73.886340  -30.872176    2.025619

--------------------------------
INTERNAL COORDINATES (ANGSTROEM)
--------------------------------
 C      0   0   0     0.000000000000     0.00000000     0.00000000
 C      1   0   0     1.524835227718     0.00000000     0.00000000
 C      2   1   0     1.517017698273   116.11666288     0.00000000
 N      3   2   1     1.374769560909   118.08244581    20.05957113
 C      4   3   2     1.481191912392   123.35759769   347.99786673
 C      5   4   3     1.516881854605   112.08821594    29.39804005
 C      4   3   2     1.427133581033   119.63810757   176.82539605
 C      7   4   3     1.397908828697   120.41723864   305.86767528
 C      8   7   4     1.384982886663   120.41876956   181.44938275
 C      9   8   7     1.398354975267   120.33328249     0.77934473
 C     10   9   8     1.394008735084   119.33002623   359.83191911
 C     11  10   9     1.391512514684   120.26528754   359.41722617
 N     10   9   8     1.423803753184   120.15537720   181.34462985
 C     13  10   9     1.483748923234   117.84269883   141.73428649
 C     14  13  10     1.525833241585   112.23239570   212.19106100
 C     15  14  13     1.488060853987   108.22898591   310.56119829
 C     16  15  14     1.383054875154   120.22943724    27.73113451
 C     13  10   9     1.383398816699   119.19674299   305.74751916
 O      3   2   1     1.231211715673   119.84300246   197.33444289
 O     18  13  10     1.228989887899   123.63910187   359.75448772
 C     16  15  14     1.404165094131   135.06830046   207.93362716
 N     21  16  15     1.345524426862   110.80854147   179.50393779
 N     22  21  16     1.336580548347   106.16717578     0.67714208
 C     23  22  21     1.430204458575   118.85420392   180.14640316
 C     21  16  15     1.480241660829   127.62945996   359.39604292
 N     25  21  16     1.351489496047   115.68555309   176.06878728
 O     25  21  16     1.233639608203   120.68308596   356.34817197
 C     24  23  22     1.393821856563   120.24418674   241.28062137
 C     28  24  23     1.382169367062   119.49050417   178.03270154
 C     29  28  24     1.401927089531   120.23417723   359.63828171
 C     30  29  28     1.397629534510   120.06372861   359.75897307
 C     24  23  22     1.387323452374   118.98268456    58.57262169
 O     30  29  28     1.357976907781   115.49607822   179.97358467
 C     33  30  29     1.431960522477   117.85478576   179.52582729
 H      1   2   3     1.098380072692   110.01971459    75.02943503
 H      1   2   3     1.095766061187   109.94290259   192.84324378
 H      2   1   3     1.099816052457   109.81242343   119.07571461
 H      2   1   3     1.094467085031   112.22605884   237.14123429
 H      5   4   3     1.095388551257   107.17719934   151.31808282
 H      5   4   3     1.100138380584   109.59134422   267.84480207
 H      6   5   4     1.098332679383   109.93658237    67.24305157
 H      6   5   4     1.095993976753   108.26351947   184.55218637
 H      8   7   4     1.084285153909   119.76242321     2.01116086
 H      9   8   7     1.084450487242   119.86845846   180.71397509
 H     11  10   9     1.085594394743   120.47819108   179.36145350
 H     12  11  10     1.085529128130   119.20273306   180.79218107
 H     14  13  10     1.092511452685   107.25147137   333.23940045
 H     14  13  10     1.100027216593   109.45490863    90.46298662
 H     15  14  13     1.098848292711   110.59519459    71.17708822
 H     15  14  13     1.092990078088   109.36592315   189.01052353
 H     26  25  21     1.008598877608   121.06005879     2.82324110
 H     26  25  21     1.008391383823   119.22083633   177.29289279
 H     28  24  23     1.084469336218   120.09689590   357.99372062
 H     29  28  24     1.085781435604   120.72254304   180.04100878
 H     31  30  29     1.083629551472   121.47626849   180.09386999
 H     32  24  23     1.086038473601   119.81626027     2.41907133
 H     34  33  30     1.097243841530   111.19296581    61.79490826
 H     34  33  30     1.091531704068   105.65360254   180.36279608
 H     34  33  30     1.097237669192   111.19079666   298.95351914

---------------------------
INTERNAL COORDINATES (A.U.)
---------------------------
 C      0   0   0     0.000000000000     0.00000000     0.00000000
 C      1   0   0     2.881520979742     0.00000000     0.00000000
 C      2   1   0     2.866747990048   116.11666288     0.00000000
 N      3   2   1     2.597937967369   118.08244581    20.05957113
 C      4   3   2     2.799047066200   123.35759769   347.99786673
 C      5   4   3     2.866491282718   112.08821594    29.39804005
 C      4   3   2     2.696891624674   119.63810757   176.82539605
 C      7   4   3     2.641664846429   120.41723864   305.86767528
 C      8   7   4     2.617238355961   120.41876956   181.44938275
 C      9   8   7     2.642507941261   120.33328249     0.77934473
 C     10   9   8     2.634294737603   119.33002623   359.83191911
 C     11  10   9     2.629577564677   120.26528754   359.41722617
 N     10   9   8     2.690599161966   120.15537720   181.34462985
 C     13  10   9     2.803879116413   117.84269883   141.73428649
 C     14  13  10     2.883406952629   112.23239570   212.19106100
 C     15  14  13     2.812027484644   108.22898591   310.56119829
 C     16  15  14     2.613594942225   120.22943724    27.73113451
 C     13  10   9     2.614244897552   119.19674299   305.74751916
 O      3   2   1     2.326652955496   119.84300246   197.33444289
 O     18  13  10     2.322454309487   123.63910187   359.75448772
 C     16  15  14     2.653487474720   135.06830046   207.93362716
 N     21  16  15     2.542672673270   110.80854147   179.50393779
 N     22  21  16     2.525771192303   106.16717578     0.67714208
 C     23  22  21     2.702694742220   118.85420392   180.14640316
 C     21  16  15     2.797251350987   127.62945996   359.39604292
 N     25  21  16     2.553945020399   115.68555309   176.06878728
 O     25  21  16     2.331241007462   120.68308596   356.34817197
 C     24  23  22     2.633941588377   120.24418674   241.28062137
 C     28  24  23     2.611921574443   119.49050417   178.03270154
 C     29  28  24     2.649258258939   120.23417723   359.63828171
 C     30  29  28     2.641137056904   120.06372861   359.75897307
 C     24  23  22     2.621661384152   118.98268456    58.57262169
 O     30  29  28     2.566204451895   115.49607822   179.97358467
 C     33  30  29     2.706013222069   117.85478576   179.52582729
 H      1   2   3     2.075637528345   110.01971459    75.02943503
 H      1   2   3     2.070697762489   109.94290259   192.84324378
 H      2   1   3     2.078351136834   109.81242343   119.07571461
 H      2   1   3     2.068243053300   112.22605884   237.14123429
 H      5   4   3     2.069984372109   107.17719934   151.31808282
 H      5   4   3     2.078960248718   109.59134422   267.84480207
 H      6   5   4     2.075547967969   109.93658237    67.24305157
 H      6   5   4     2.071128460490   108.26351947   184.55218637
 H      8   7   4     2.049001991964   119.76242321     2.01116086
 H      9   8   7     2.049314426685   119.86845846   180.71397509
 H     11  10   9     2.051476098584   120.47819108   179.36145350
 H     12  11  10     2.051352762560   119.20273306   180.79218107
 H     14  13  10     2.064547443747   107.25147137   333.23940045
 H     14  13  10     2.078750179220   109.45490863    90.46298662
 H     15  14  13     2.076522335951   110.59519459    71.17708822
 H     15  14  13     2.065451914680   109.36592315   189.01052353
 H     26  25  21     1.905975657659   121.06005879     2.82324110
 H     26  25  21     1.905583551231   119.22083633   177.29289279
 H     28  24  23     2.049350046087   120.09689590   357.99372062
 H     29  28  24     2.051829554588   120.72254304   180.04100878
 H     31  30  29     2.047763082906   121.47626849   180.09386999
 H     32  24  23     2.052315286009   119.81626027     2.41907133
 H     34  33  30     2.073490362623   111.19296581    61.79490826
 H     34  33  30     2.062695987181   105.65360254   180.36279608
 H     34  33  30     2.073478698594   111.19079666   298.95351914



           ************************************************************
           *        Program running with 4 parallel MPI-processes     *
           *              working on a common directory               *
           ************************************************************
------------------------------------------------------------------------------
                   ___                                                        
                  /   \      - P O W E R E D   B Y -                         
                 /     \                                                     
                 |  |  |   _    _      __       _____    __    __             
                 |  |  |  | |  | |    /  \     |  _  \  |  |  /  |          
                  \  \/   | |  | |   /    \    | | | |  |  | /  /          
                 / \  \   | |__| |  /  /\  \   | |_| |  |  |/  /          
                |  |  |   |  __  | /  /__\  \  |    /   |      \           
                |  |  |   | |  | | |   __   |  |    \   |  |\   \          
                \     /   | |  | | |  |  |  |  | |\  \  |  | \   \       
                 \___/    |_|  |_| |__|  |__|  |_| \__\ |__|  \__/        
                                                                              
                      - O R C A' S   B I G   F R I E N D -                    
                                      &                                       
                       - I N T E G R A L  F E E D E R -                       
                                                                              
 v1 FN, 2020, v2 2021, v3 2022-2024                                           
------------------------------------------------------------------------------


----------------------
SHARK INTEGRAL PACKAGE
----------------------

Number of atoms                             ...     59
Number of basis functions                   ...    816
Number of shells                            ...    390
Maximum angular momentum                    ...      2
Integral batch strategy                     ... SHARK/LIBINT Hybrid
RI-J (if used) integral strategy            ... SPLIT-RIJ (Revised 2003 algorithm where possible)
Printlevel                                  ...      1
Contraction scheme used                     ... SEGMENTED contraction
Prescreening option                         ... SCHWARTZ
   Thresh                                   ... 2.500e-11
   Tcut                                     ... 2.500e-12
   Tpresel                                  ... 2.500e-12 
Coulomb Range Separation                    ... NOT USED
Exchange Range Separation                   ... NOT USED
Multipole approximations                    ... NOT USED
Finite Nucleus Model                        ... NOT USED
CABS basis                                  ... NOT available
Auxiliary Coulomb fitting basis             ... AVAILABLE
   # of basis functions in Aux-J            ...   1295
   # of shells in Aux-J                     ...    533
   Maximum angular momentum in Aux-J        ...      2
Auxiliary J/K fitting basis                 ... NOT available
Auxiliary Correlation fitting basis         ... NOT available
Auxiliary 'external' fitting basis          ... NOT available

Checking pre-screening integrals            ... done (  0.0 sec) Dimension = 390
   => SHARK Basis and OBASIS are compatible. Storing Pre-screening
Shell pair information
Shell pair cut-off parameter TPreSel        ...   2.5e-12
Total number of shell pairs                 ...     76245
Shell pairs after pre-screening             ...     38804
Total number of primitive shell pairs       ...    279454
Primitive shell pairs kept                  ...     86850
          la=0 lb=0:  11491 shell pairs
          la=1 lb=0:  14744 shell pairs
          la=1 lb=1:   4719 shell pairs
          la=2 lb=0:   4492 shell pairs
          la=2 lb=1:   2889 shell pairs
          la=2 lb=2:    469 shell pairs

Checking whether 4 symmetric matrices of dimension 816 fit in memory
:Max Core in MB      =   2000.00
 MB in use           =     43.24
 MB left             =   1956.76
 MB needed           =     10.17
 Data fit in memory  = YES
Calculating RI/J V-Matrix + Cholesky decomp.... done (  0.1 sec)
Calculating Nuclear repulsion               ... done (  0.0 sec) ENN=   3308.687686342143 Eh

Diagonalization of the overlap matrix:
Smallest eigenvalue                        ... 1.826e-05
Time for diagonalization                   ...    0.127 sec
Threshold for overlap eigenvalues          ... 1.000e-07
Number of eigenvalues below threshold      ... 0
Time for construction of square roots      ...    0.083 sec
Total time needed                          ...    0.217 sec

-------------------
DFT GRID GENERATION
-------------------

General Integration Accuracy     IntAcc      ... 4.388
Radial Grid Type                 RadialGrid  ... OptM3 with GC (2021)
Angular Grid (max. ang.)         AngularGrid ... 4 (Lebedev-302)
Angular grid pruning method      GridPruning ... 4 (adaptive)
Weight generation scheme         WeightScheme... mBecke (2022)
Basis function cutoff            BFCut       ... 1.0000e-11
Integration weight cutoff        WCut        ... 1.0000e-14
Partially contracted basis set               ... off
Rotationally invariant grid construction     ... off
Angular grids for H and He will be reduced by one unit
Diffuse basis detected: some atoms will have their outermost
                        angular grid increased by 1.

Total number of grid points                  ...   283845
Total number of batches                      ...     4460
Average number of points per batch           ...       63
Average number of grid points per atom       ...     4811
Grids setup in   3.9 sec
Initializing property integral containers    ... done (  0.0 sec)

SHARK setup successfully completed in   5.0 seconds

Maximum memory used throughout the entire STARTUP-calculation: 106.0 MB


           ************************************************************
           *        Program running with 4 parallel MPI-processes     *
           *              working on a common directory               *
           ************************************************************
Occupation numbers will be reassigned to an Aufbau configuration
             **** ENERGY FILE WAS UPDATED (Apixaban_SMD_chloroform_Opt_Freq_KeepDens.en.tmp) ****
Finished Guess after   0.9 sec
Maximum memory used throughout the entire GUESS-calculation: 72.7 MB


           ************************************************************
           *        Program running with 4 parallel MPI-processes     *
           *              working on a common directory               *
           ************************************************************
--------------------
CPCM SOLVATION MODEL
--------------------
CPCM parameters:
  Epsilon                                         ...       4.7113
  Refrac                                          ...       1.4459
  Rsolv                                           ...       1.3000
  Surface type                                    ... GAUSSIAN VDW
  Discretization scheme                           ... Constant charge density
    Threshold for H atoms                         ...       5.0000 (charges/Ang^2)
    Threshold for non-H atoms                     ...       5.0000 (charges/Ang^2)
  Epsilon function type                           ...         CPCM
Solvent:                                          ... CHLOROFORM
SMD-CDS solvent descriptors:
  Soln                                            ...       1.4459
  Soln25                                          ...       1.4431
  Sola                                            ...       0.1500
  Solb                                            ...       0.0200
  Solg                                            ...      38.3900
  Solc                                            ...       0.0000
  Solh                                            ...       0.7500
Radii:
  Scheme                                          ... Element-dependent radii
  Radius for C  used is    3.4960 Bohr (=   1.8500 Ang.)
  Radius for N  used is    3.5716 Bohr (=   1.8900 Ang.)
  Radius for O  used is    3.8248 Bohr (=   2.0240 Ang.)
  Radius for H  used is    2.2677 Bohr (=   1.2000 Ang.)
Calculating surface                               ...        done! (  0.0s)
Cavity surface points                             ...         4499
Cavity Volume                                     ...    3249.4912
Cavity Surface-area                               ...    1731.6585
Calculating surface distance matrix               ...        done! (  0.2s)
Performing Cholesky decomposition & store         ...        done! (  1.4s)
Overall time for CPCM initialization              ...                 1.6s

----------------------------------------D-I-I-S--------------------------------------------
Iteration    Energy (Eh)           Delta-E    RMSDP     MaxDP     DIISErr   Damp  Time(sec)
-------------------------------------------------------------------------------------------
               ***  Starting incremental Fock matrix formation  ***
    1    -1542.1469781064547533     0.00e+00  3.35e-05  1.09e-03  3.86e-03  0.700  17.7
                              *** Initializing SOSCF ***
---------------------------------------S-O-S-C-F--------------------------------------
Iteration    Energy (Eh)           Delta-E    RMSDP     MaxDP     MaxGrad    Time(sec)
--------------------------------------------------------------------------------------
    2    -1542.1470173802422323    -3.93e-05  9.86e-05  3.07e-03  2.97e-03    13.1
               *** Restarting incremental Fock matrix formation ***
    3    -1542.1471180632456708    -1.01e-04  1.59e-05  5.13e-04  7.74e-05    19.5
    4    -1542.1471193173324536    -1.25e-06  6.71e-06  1.55e-04  2.44e-05    11.7
    5    -1542.1471190961697175     2.21e-07  4.63e-06  1.07e-04  5.61e-05    11.6
    6    -1542.1471194238870339    -3.28e-07  2.94e-06  1.43e-04  7.14e-06    11.2
    7    -1542.1471194033970278     2.05e-08  1.44e-06  5.05e-05  1.29e-05    10.7
    8    -1542.1471194358296088    -3.24e-08  4.39e-06  2.48e-04  1.47e-06    12.4
                  *** Gradient check signals convergence ***

               *****************************************************
               *                     SUCCESS                       *
               *           SCF CONVERGED AFTER   8 CYCLES          *
               *****************************************************


SMD CDS free energy correction energy :                -7.77952     Kcal/mol
Total Energy after SMD CDS correction =             -1542.159516874 Eh
             **** ENERGY FILE WAS UPDATED (Apixaban_SMD_chloroform_Opt_Freq_KeepDens.en.tmp) ****

----------------
TOTAL SCF ENERGY
----------------

Total Energy       :      -1542.15951687369966 Eh          -41964.29388 eV

Components:
Nuclear Repulsion  :       3308.68768634214257 Eh           90033.96918 eV
Electronic Energy  :      -4850.79481691084857 Eh         -131996.83756 eV
One Electron Energy:      -8678.97483900469706 Eh         -236166.91186 eV
Two Electron Energy:       3828.18002209384849 Eh          104170.07431 eV
CPCM Dielectric    :         -0.03998885378736 Eh              -1.08815 eV
SMD CDS (Gcds)     :         -0.01239745120590 Eh              -0.33735 eV

Virial components:
Potential Energy   :      -3077.48047259450232 Eh          -83742.50105 eV
Kinetic Energy     :       1535.32095572080289 Eh           41778.20717 eV
Virial Ratio       :          2.00445415737173

DFT components:
N(Alpha)           :      120.999969909362 electrons
N(Beta)            :      120.999969909362 electrons
N(Total)           :      241.999939818724 electrons
E(X)               :     -205.556288125384 Eh       
E(C)               :       -7.985440302179 Eh       
E(XC)              :     -213.541728427563 Eh       

CPCM Solvation Model Properties:
Surface-charge          :         -0.05713905304975
Corrected charge        :         -0.00000000000000
Outlying charge corr.   :          0.00011321388213 Eh               0.00308 eV
Free-energy (cav+disp)  :         -0.01239745120590 Eh              -0.33735 eV

---------------
SCF CONVERGENCE
---------------

  Last Energy change         ...    3.2433e-08  Tolerance :   1.0000e-08
  Last MAX-Density change    ...    2.4811e-04  Tolerance :   1.0000e-07
  Last RMS-Density change    ...    4.3852e-06  Tolerance :   5.0000e-09
  Last DIIS Error            ...    2.9734e-03  Tolerance :   5.0000e-07
  Last Orbital Gradient      ...    1.4679e-06  Tolerance :   1.0000e-05
  Last Orbital Rotation      ...    6.9662e-06  Tolerance :   1.0000e-05


Total SCF time: 0 days 0 hours 2 min 0 sec 
Finished LeanSCF after 121.0 sec

Maximum memory used throughout the entire LEANSCF-calculation: 122.3 MB


           ************************************************************
           *        Program running with 4 parallel MPI-processes     *
           *              working on a common directory               *
           ************************************************************

------------------------------------------------------------------------------
                         ORCA PROPERTY INTEGRAL CALCULATIONS
------------------------------------------------------------------------------

GBWName                                   ... Apixaban_SMD_chloroform_Opt_Freq_KeepDens.gbw
Number of atoms                           ...     59
Number of basis functions                 ...    816
Max core memory                           ...   2000 MB

Dipole integrals                          ... YES
Quadrupole integrals                      ...  NO
Linear momentum integrals                 ...  NO
Angular momentum integrals                ...  NO
Higher moments length integrals           ...  NO
Higher moments velocity integrals         ...  NO
Kinetic energy integrals                  ...  NO
GIAO right hand sides                     ...  NO
GIAO dipole derivative integrals          ...  NO
SOC integrals                             ...  NO
EPR diamagnetic integrals (GIAO)          ...  NO
EPR gauge integrals                       ...  NO
Field gradient integrals                  ...  NO (   0 nuclei)
Spin-dipole/Fermi contact integrals       ...  NO (   0 nuclei)
Contact density integrals                 ...  NO (   0 nuclei)
Nucleus-orbit integrals                   ...  NO (   0 nuclei)
Geometric perturbations                   ...  NO (  59 nuclei)

Choice of electric origin   ... Center of mass
Position of electric origin ... ( 60.3240,-38.1996, -0.0700) 
Choice of magnetic origin   ... GIAO
Position of magnetic origin ... (  0.0000,  0.0000,  0.0000) 

Calculating integrals                     ... Electric Dipole (Length)     done (  0.1 sec)

Property integrals calculated in   0.1 sec

Maximum memory used throughout the entire PROPINT-calculation: 64.1 MB


-------------------------------------------------------------------------------
                          DFT DISPERSION CORRECTION                            
                                                                               
                                DFTD4 V3.4.0                                   
-------------------------------------------------------------------------------
-------------------------   ----------------
Dispersion correction           -0.029161422
-------------------------   ----------------

------------------   -----------------
gCP correction             0.037933481
------------------   -----------------

-------------------------   --------------------
FINAL SINGLE POINT ENERGY     -1542.150744814899
-------------------------   --------------------



           ************************************************************
           *        Program running with 4 parallel MPI-processes     *
           *              working on a common directory               *
           ************************************************************
------------------------------------------------------------------------------
                         ORCA SCF GRADIENT CALCULATION
------------------------------------------------------------------------------

Nuc. rep. gradient        (SHARK) ... done (  0.0 sec)
HCore & Overlap gradient  (SHARK) ... done (  3.1 sec)
Split-RIJ-J gradient      (SHARK) ... done ( 11.5 sec)
XC gradient                       ... done ( 33.6 sec)
CPCM gradient                     ... done ( 13.9 sec)
SMD gradient                      ... done (  0.0 sec)
Dispersion correction             ... done (  0.1 sec)

-------------------
DISPERSION GRADIENT
-------------------

   1   C   :   -0.000097511    0.000042917   -0.000006726
   2   C   :   -0.000114647    0.000013961    0.000061922
   3   C   :   -0.000089233   -0.000035731    0.000077599
   4   N   :   -0.000049371    0.000027834    0.000002350
   5   C   :   -0.000035806    0.000087276   -0.000079458
   6   C   :   -0.000059451    0.000114299   -0.000023409
   7   C   :    0.000005051   -0.000009102   -0.000005256
   8   C   :    0.000004888    0.000002976    0.000121636
   9   C   :   -0.000011640    0.000009005    0.000120565
  10   C   :   -0.000042981    0.000004727   -0.000009549
  11   C   :   -0.000029728   -0.000008563   -0.000129313
  12   C   :   -0.000027721    0.000000326   -0.000118170
  13   N   :   -0.000045191   -0.000029292   -0.000032302
  14   C   :   -0.000050651   -0.000087378   -0.000106807
  15   C   :   -0.000053969   -0.000135023   -0.000045973
  16   C   :    0.000022385   -0.000096251   -0.000028464
  17   C   :    0.000105335   -0.000111869   -0.000026727
  18   C   :   -0.000034123    0.000028325    0.000009590
  19   O   :   -0.000069910   -0.000091360    0.000113273
  20   O   :   -0.000037083    0.000104390    0.000057386
  21   C   :    0.000034412   -0.000010589    0.000011681
  22   N   :    0.000055148   -0.000061551   -0.000014262
  23   N   :    0.000067857   -0.000057399   -0.000007385
  24   C   :    0.000072742    0.000037573    0.000032656
  25   C   :    0.000087613   -0.000127994   -0.000032523
  26   N   :    0.000124391   -0.000082713   -0.000020290
  27   O   :    0.000029723   -0.000122525   -0.000035561
  28   C   :    0.000031072    0.000039455    0.000137554
  29   C   :    0.000009503    0.000053081    0.000130929
  30   C   :    0.000048121    0.000079030    0.000039173
  31   C   :    0.000078904    0.000075049   -0.000037825
  32   C   :    0.000102679    0.000060955   -0.000070401
  33   O   :    0.000033832    0.000079905    0.000043205
  34   C   :    0.000061398    0.000084896   -0.000007036
  35   H   :   -0.000045224    0.000011254   -0.000011391
  36   H   :   -0.000039292    0.000023095    0.000004719
  37   H   :   -0.000034860    0.000006022    0.000036963
  38   H   :   -0.000041155   -0.000019049    0.000024703
  39   H   :   -0.000000006    0.000059340   -0.000033470
  40   H   :   -0.000017611    0.000025856   -0.000044013
  41   H   :   -0.000016062    0.000051741   -0.000001072
  42   H   :   -0.000013474    0.000043760   -0.000022313
  43   H   :    0.000013107   -0.000000489    0.000066346
  44   H   :   -0.000011431    0.000004794    0.000069854
  45   H   :   -0.000017083    0.000002548   -0.000068745
  46   H   :   -0.000004352   -0.000007795   -0.000068920
  47   H   :   -0.000018673   -0.000051256   -0.000034709
  48   H   :   -0.000015302   -0.000018263   -0.000060432
  49   H   :   -0.000030003   -0.000065828    0.000007740
  50   H   :   -0.000023810   -0.000051344   -0.000033174
  51   H   :    0.000039638   -0.000043018   -0.000011275
  52   H   :    0.000022392   -0.000021068   -0.000005745
  53   H   :    0.000003582    0.000006112    0.000076632
  54   H   :   -0.000010175    0.000014631    0.000054651
  55   H   :    0.000028276    0.000023085   -0.000032228
  56   H   :    0.000042606    0.000024658   -0.000053421
  57   H   :    0.000020475    0.000040053    0.000002505
  58   H   :    0.000014755    0.000029299    0.000008343
  59   H   :    0.000027641    0.000033219    0.000006371

Difference to translation invariance:
           :   -0.0000000000    0.0000000000   -0.0000000000

Difference to rotation invariance:
           :    0.0000000000    0.0000000000   -0.0000000000

Norm of the Dispersion gradient    ...    0.0007425097
RMS gradient                       ...    0.0000558104
MAX gradient                       ...    0.0001375545
gCP correction                   ... done

------------------
CARTESIAN GRADIENT
------------------

   1   C   :   -0.000050176    0.000026568   -0.000053705
   2   C   :    0.000010300   -0.000106944    0.000156092
   3   C   :   -0.000106586   -0.000184668   -0.000013066
   4   N   :    0.000043051    0.000145735   -0.000001646
   5   C   :    0.000013934   -0.000000227    0.000074272
   6   C   :    0.000007802    0.000056405   -0.000032143
   7   C   :    0.000143880   -0.000099266   -0.000055784
   8   C   :    0.000046477    0.000004947   -0.000050713
   9   C   :   -0.000042671   -0.000008176   -0.000002534
  10   C   :   -0.000134072    0.000106741   -0.000053822
  11   C   :   -0.000052330    0.000019888    0.000077133
  12   C   :    0.000065721   -0.000014487    0.000058474
  13   N   :   -0.000126941   -0.000059579   -0.000022535
  14   C   :    0.000081098    0.000028658    0.000048333
  15   C   :    0.000031304   -0.000050052    0.000036164
  16   C   :    0.000078619   -0.000130830    0.000035321
  17   C   :    0.000009015    0.000054991   -0.000192110
  18   C   :    0.000078446    0.000082366    0.000074310
  19   O   :   -0.000013141    0.000188327   -0.000091094
  20   O   :   -0.000008973   -0.000122867   -0.000058463
  21   C   :    0.000014657    0.000065101    0.000092247
  22   N   :    0.000019140   -0.000078214   -0.000083232
  23   N   :    0.000054281   -0.000122971    0.000038193
  24   C   :    0.000037353    0.000139426    0.000009987
  25   C   :   -0.000016622    0.000121067    0.000001942
  26   N   :   -0.000186260   -0.000056606   -0.000030102
  27   O   :    0.000011402    0.000035749    0.000024506
  28   C   :    0.000088766    0.000035637    0.000051997
  29   C   :    0.000097001    0.000017674   -0.000053710
  30   C   :   -0.000083879   -0.000191930   -0.000113714
  31   C   :   -0.000105082   -0.000010592    0.000154422
  32   C   :   -0.000111025   -0.000041254    0.000035357
  33   O   :    0.000191727    0.000247694   -0.000093804
  34   C   :   -0.000006458   -0.000013469    0.000054269
  35   H   :   -0.000003969    0.000002735   -0.000001205
  36   H   :   -0.000010330   -0.000012501    0.000002198
  37   H   :    0.000006043    0.000018629   -0.000003851
  38   H   :    0.000010435    0.000019210    0.000007956
  39   H   :    0.000025933   -0.000032266    0.000013303
  40   H   :   -0.000019998   -0.000032613   -0.000018834
  41   H   :    0.000006243   -0.000000995   -0.000020158
  42   H   :   -0.000010805    0.000022458    0.000006145
  43   H   :   -0.000022130   -0.000025212   -0.000006504
  44   H   :    0.000000151    0.000018503   -0.000031316
  45   H   :    0.000004594    0.000001616   -0.000004026
  46   H   :   -0.000002168   -0.000013361    0.000002015
  47   H   :   -0.000042785    0.000027810    0.000028338
  48   H   :    0.000008023    0.000027426   -0.000013662
  49   H   :   -0.000008479   -0.000010155   -0.000022828
  50   H   :   -0.000001644   -0.000041926   -0.000009585
  51   H   :    0.000023791   -0.000027916   -0.000018397
  52   H   :    0.000064362    0.000049234    0.000042114
  53   H   :    0.000005635    0.000029596   -0.000031032
  54   H   :   -0.000014232   -0.000002542   -0.000018097
  55   H   :    0.000021339    0.000011944   -0.000027649
  56   H   :    0.000022539   -0.000003503    0.000021079
  57   H   :   -0.000079501   -0.000009420   -0.000003069
  58   H   :   -0.000052288   -0.000027390    0.000059218
  59   H   :   -0.000010514   -0.000074203    0.000027009

Difference to translation invariance:
           :   -0.0000000003    0.0000000002    0.0000000000

Difference to rotation invariance:
           :   -0.0004833914   -0.0000471616   -0.0005276329

Norm of the Cartesian gradient     ...    0.0008972373
RMS gradient                       ...    0.0000674405
MAX gradient                       ...    0.0002476939

-------
TIMINGS
-------

Total SCF gradient time     ....       62.410 sec

Densities                   ....       0.017 sec  (  0.0%)
One electron gradient       ....       3.132 sec  (  5.0%)
RI-J Coulomb gradient       ....      11.486 sec  ( 18.4%)
XC gradient                 ....      33.636 sec  ( 53.9%)
CPCM gradient               ....      13.917 sec  ( 22.3%)
   A-Matrix (El+Nuc)        ....       0.566 sec  (  0.9%)
   Potential                ....      13.351 sec  ( 21.4%)
SMD gradient                ....       0.005 sec  (  0.0%)

Maximum memory used throughout the entire SCFGRAD-calculation: 83.3 MB
------------------------------------------------------------------------------
                         ORCA GEOMETRY RELAXATION STEP
------------------------------------------------------------------------------

Reading the OPT-File                    .... done
Getting information on internals        .... done
Copying old internal coords+grads       .... done
Making the new internal coordinates     .... (2022 redundants) done
Validating the new internal coordinates .... (2022 redundants) done
Calculating the B-matrix                .... done
Calculating the G,G- and P matrices     .... done
Transforming gradient to internals      .... done
Projecting the internal gradient        .... done
Number of atoms                         ....  59
Number of internal coordinates          .... 319
Current Energy                          .... -1542.150744815 Eh
Current gradient norm                   ....     0.000897237 Eh/bohr
Maximum allowed component of the step   ....  0.300
Current trust radius                    ....  0.675
Updating the Hessian (BFGS)             .... done
Forming the augmented Hessian           .... done
Diagonalizing the augmented Hessian     .... done
Last element of RFO vector              ....  0.999940569
Lowest eigenvalues of augmented Hessian:
 -0.000002923  0.007202323  0.013858201  0.016518074  0.017196269
Length of the computed step             ....  0.010902838
The final length of the internal step   ....  0.010902838
Converting the step to Cartesian space:
 Initial RMS(Int)=    0.0006104417
Transforming coordinates:
 Iter   0:  RMS(Cart)=    0.0045428862 RMS(Int)=    0.3517604625
done
Storing new coordinates                 .... done
The predicted energy change is          ....    -0.000001462
Previously predicted energy change      ....    -0.000005289
Actually observed energy change         ....    -0.000005722
Ratio of predicted to observed change   ....     1.081913169
New trust radius                        ....     0.700000000

                                .--------------------.
          ----------------------|Geometry convergence|-------------------------
          Item                value                   Tolerance       Converged
          ---------------------------------------------------------------------
          Energy change      -0.0000057220            0.0000050000      NO
          RMS gradient        0.0000441339            0.0001000000      YES
          MAX gradient        0.0002428189            0.0003000000      YES
          RMS step            0.0006104417            0.0020000000      YES
          MAX step            0.0033902056            0.0040000000      YES
          -------------------------------------------------------------------------
          ........................................................
          Max(Bonds)      0.0002      Max(Angles)    0.04
          Max(Dihed)        0.19      Max(Improp)    0.00
          ---------------------------------------------------------------------

       Everything but the energy has converged. However, the energy
       appears to be close enough to convergence to make sure that the
       final evaluation at the new geometry represents the equilibrium energy.
       Convergence will therefore be signaled now


                    ***********************HURRAY********************
                    ***        THE OPTIMIZATION HAS CONVERGED     ***
                    *************************************************


    ---------------------------------------------------------------------------
                         Redundant Internal Coordinates

                          --- Optimized Parameters ---  
                            (Angstroem and degrees)

        Definition                    OldVal   dE/dq     Step     FinalVal
    ----------------------------------------------------------------------------
     1. B(C   1,C   0)                1.5248  0.000094 -0.0001    1.5247   
     2. B(C   2,C   1)                1.5170 -0.000019  0.0001    1.5171   
     3. B(N   3,C   2)                1.3748  0.000056 -0.0001    1.3747   
     4. B(C   4,N   3)                1.4812 -0.000053  0.0000    1.4812   
     5. B(C   5,C   4)                1.5169  0.000060 -0.0001    1.5168   
     6. B(C   5,C   0)                1.5216  0.000080 -0.0001    1.5215   
     7. B(C   6,N   3)                1.4271  0.000131 -0.0001    1.4270   
     8. B(C   7,C   6)                1.3979 -0.000070  0.0001    1.3980   
     9. B(C   8,C   7)                1.3850 -0.000087  0.0001    1.3851   
    10. B(C   9,C   8)                1.3984 -0.000061  0.0001    1.3984   
    11. B(C  10,C   9)                1.3940 -0.000059  0.0000    1.3941   
    12. B(C  11,C  10)                1.3915 -0.000061  0.0001    1.3916   
    13. B(C  11,C   6)                1.3936 -0.000055  0.0000    1.3936   
    14. B(N  12,C   9)                1.4238  0.000111 -0.0001    1.4237   
    15. B(C  13,N  12)                1.4837 -0.000032 -0.0000    1.4837   
    16. B(C  14,C  13)                1.5258  0.000098 -0.0002    1.5257   
    17. B(C  15,C  14)                1.4881  0.000043 -0.0000    1.4880   
    18. B(C  16,C  15)                1.3831 -0.000020  0.0000    1.3831   
    19. B(C  17,C  16)                1.4695  0.000021 -0.0000    1.4694   
    20. B(C  17,N  12)                1.3834  0.000074 -0.0001    1.3833   
    21. B(O  18,C   2)                1.2312 -0.000204  0.0001    1.2313   
    22. B(O  19,C  17)                1.2290 -0.000136  0.0001    1.2291   
    23. B(C  20,C  15)                1.4042 -0.000096  0.0001    1.4043   
    24. B(N  21,C  20)                1.3455 -0.000049  0.0000    1.3455   
    25. B(N  22,N  21)                1.3366  0.000020 -0.0000    1.3365   
    26. B(N  22,C  16)                1.3720  0.000058  0.0000    1.3720   
    27. B(C  23,N  22)                1.4302  0.000126 -0.0002    1.4300   
    28. B(C  24,C  20)                1.4802 -0.000147  0.0002    1.4804   
    29. B(N  25,C  24)                1.3515 -0.000089  0.0001    1.3516   
    30. B(O  26,C  24)                1.2336 -0.000042  0.0000    1.2337   
    31. B(C  27,C  23)                1.3938 -0.000005  0.0000    1.3939   
    32. B(C  28,C  27)                1.3822 -0.000058  0.0000    1.3822   
    33. B(C  29,C  28)                1.4019 -0.000136  0.0001    1.4020   
    34. B(C  30,C  29)                1.3976 -0.000121  0.0001    1.3977   
    35. B(C  31,C  30)                1.3926 -0.000002 -0.0000    1.3926   
    36. B(C  31,C  23)                1.3873 -0.000133  0.0002    1.3875   
    37. B(O  32,C  29)                1.3580  0.000141 -0.0001    1.3579   
    38. B(C  33,O  32)                1.4320 -0.000243  0.0002    1.4322   
    39. B(H  34,C   0)                1.0984  0.000001 -0.0000    1.0984   
    40. B(H  35,C   0)                1.0958  0.000001 -0.0000    1.0958   
    41. B(H  36,C   1)                1.0998  0.000007 -0.0000    1.0998   
    42. B(H  37,C   1)                1.0945 -0.000017  0.0000    1.0945   
    43. B(H  38,C   4)                1.0954  0.000003  0.0000    1.0954   
    44. B(H  39,C   4)                1.1001  0.000035 -0.0001    1.1001   
    45. B(H  40,C   5)                1.0983 -0.000013  0.0000    1.0984   
    46. B(H  41,C   5)                1.0960  0.000011 -0.0000    1.0960   
    47. B(H  42,C   7)                1.0843 -0.000006  0.0000    1.0843   
    48. B(H  43,C   8)                1.0845 -0.000028  0.0000    1.0845   
    49. B(H  44,C  10)                1.0856  0.000005 -0.0000    1.0856   
    50. B(H  45,C  11)                1.0855 -0.000002  0.0000    1.0855   
    51. B(H  46,C  13)                1.0925  0.000025 -0.0000    1.0925   
    52. B(H  47,C  13)                1.1000  0.000026 -0.0000    1.1000   
    53. B(H  48,C  14)                1.0988 -0.000011  0.0000    1.0989   
    54. B(H  49,C  14)                1.0930  0.000035 -0.0001    1.0929   
    55. B(H  50,N  25)                1.0086 -0.000015  0.0000    1.0086   
    56. B(H  50,N  21)                2.4007 -0.000008 -0.0001    2.4005   
    57. B(H  51,N  25)                1.0084 -0.000024  0.0000    1.0084   
    58. B(H  52,C  27)                1.0845 -0.000036  0.0000    1.0845   
    59. B(H  53,C  28)                1.0858 -0.000013  0.0000    1.0858   
    60. B(H  54,C  30)                1.0836  0.000035 -0.0000    1.0836   
    61. B(H  55,C  31)                1.0860 -0.000013  0.0000    1.0861   
    62. B(H  56,C  33)                1.0972  0.000029 -0.0000    1.0972   
    63. B(H  57,C  33)                1.0915  0.000003  0.0000    1.0915   
    64. B(H  58,C  33)                1.0972  0.000024 -0.0000    1.0972   
    65. A(C   5,C   0,H  34)          109.40  0.000002   -0.00    109.40   
    66. A(H  34,C   0,H  35)          107.18 -0.000005    0.00    107.18   
    67. A(C   1,C   0,H  35)          109.94 -0.000005    0.01    109.95   
    68. A(C   1,C   0,C   5)          108.92 -0.000002   -0.00    108.92   
    69. A(C   5,C   0,H  35)          111.36  0.000012   -0.00    111.35   
    70. A(C   1,C   0,H  34)          110.02 -0.000002    0.00    110.02   
    71. A(C   0,C   1,H  36)          109.81  0.000007    0.01    109.82   
    72. A(C   0,C   1,C   2)          116.12 -0.000057    0.01    116.13   
    73. A(C   2,C   1,H  37)          106.53  0.000020   -0.01    106.51   
    74. A(C   2,C   1,H  36)          105.15  0.000023   -0.00    105.15   
    75. A(H  36,C   1,H  37)          106.35  0.000002   -0.00    106.35   
    76. A(C   0,C   1,H  37)          112.23  0.000010    0.00    112.23   
    77. A(N   3,C   2,O  18)          122.02 -0.000054    0.01    122.03   
    78. A(C   1,C   2,O  18)          119.84 -0.000028   -0.00    119.84   
    79. A(C   1,C   2,N   3)          118.08  0.000080   -0.01    118.08   
    80. A(C   2,N   3,C   6)          119.64 -0.000037    0.01    119.65   
    81. A(C   2,N   3,C   4)          123.36 -0.000039    0.01    123.37   
    82. A(C   4,N   3,C   6)          116.45  0.000076   -0.01    116.44   
    83. A(N   3,C   4,C   5)          112.09  0.000024   -0.01    112.08   
    84. A(C   5,C   4,H  38)          110.92  0.000026   -0.01    110.91   
    85. A(N   3,C   4,H  38)          107.18 -0.000036    0.01    107.19   
    86. A(N   3,C   4,H  39)          109.59 -0.000022    0.01    109.60   
    87. A(C   5,C   4,H  39)          109.31 -0.000003   -0.00    109.31   
    88. A(H  38,C   4,H  39)          107.64  0.000010   -0.01    107.63   
    89. A(C   0,C   5,H  41)          111.51 -0.000002    0.00    111.51   
    90. A(C   4,C   5,H  40)          109.94 -0.000014    0.00    109.94   
    91. A(C   0,C   5,C   4)          109.39 -0.000001   -0.00    109.39   
    92. A(H  40,C   5,H  41)          107.62 -0.000021    0.00    107.62   
    93. A(C   0,C   5,H  40)          110.08  0.000004    0.00    110.08   
    94. A(C   4,C   5,H  41)          108.26  0.000034   -0.01    108.26   
    95. A(C   7,C   6,C  11)          119.26 -0.000007    0.00    119.26   
    96. A(N   3,C   6,C  11)          120.29  0.000080   -0.02    120.27   
    97. A(N   3,C   6,C   7)          120.42 -0.000072    0.01    120.43   
    98. A(C   6,C   7,C   8)          120.42  0.000008   -0.00    120.42   
    99. A(C   6,C   7,H  42)          119.76 -0.000017    0.00    119.77   
   100. A(C   8,C   7,H  42)          119.82  0.000008   -0.00    119.82   
   101. A(C   7,C   8,C   9)          120.33  0.000005   -0.00    120.33   
   102. A(C   7,C   8,H  43)          119.87  0.000009   -0.00    119.87   
   103. A(C   9,C   8,H  43)          119.80 -0.000015    0.00    119.80   
   104. A(C   8,C   9,C  10)          119.33 -0.000005    0.00    119.33   
   105. A(C  10,C   9,N  12)          120.50  0.000087   -0.02    120.48   
   106. A(C   8,C   9,N  12)          120.16 -0.000082    0.02    120.17   
   107. A(C   9,C  10,C  11)          120.27 -0.000002   -0.00    120.27   
   108. A(C  11,C  10,H  44)          119.26  0.000003    0.00    119.26   
   109. A(C   9,C  10,H  44)          120.48 -0.000000   -0.00    120.48   
   110. A(C   6,C  11,H  45)          120.41  0.000002    0.00    120.41   
   111. A(C  10,C  11,H  45)          119.20 -0.000003    0.00    119.20   
   112. A(C   6,C  11,C  10)          120.39  0.000001   -0.00    120.38   
   113. A(C  13,N  12,C  17)          120.94 -0.000091    0.02    120.96   
   114. A(C   9,N  12,C  17)          119.20  0.000001    0.00    119.20   
   115. A(C   9,N  12,C  13)          117.84  0.000092   -0.02    117.82   
   116. A(C  14,C  13,H  47)          109.45 -0.000004   -0.01    109.44   
   117. A(C  14,C  13,H  46)          110.10  0.000021   -0.01    110.10   
   118. A(N  12,C  13,H  47)          109.45 -0.000022    0.01    109.47   
   119. A(H  46,C  13,H  47)          108.25  0.000010   -0.00    108.25   
   120. A(N  12,C  13,C  14)          112.23  0.000060   -0.01    112.22   
   121. A(N  12,C  13,H  46)          107.25 -0.000067    0.02    107.27   
   122. A(C  13,C  14,H  49)          109.37  0.000024   -0.00    109.37   
   123. A(H  48,C  14,H  49)          107.20 -0.000031    0.01    107.21   
   124. A(C  15,C  14,H  49)          111.42  0.000017   -0.01    111.41   
   125. A(C  15,C  14,H  48)          110.05  0.000027   -0.01    110.04   
   126. A(C  13,C  14,C  15)          108.23 -0.000027    0.01    108.24   
   127. A(C  13,C  14,H  48)          110.60 -0.000010    0.00    110.60   
   128. A(C  14,C  15,C  20)          135.07  0.000044   -0.01    135.05   
   129. A(C  14,C  15,C  16)          120.23 -0.000003    0.01    120.23   
   130. A(C  16,C  15,C  20)          104.70 -0.000040    0.01    104.71   
   131. A(C  15,C  16,C  17)          125.07  0.000002   -0.01    125.06   
   132. A(C  17,C  16,N  22)          127.78 -0.000012    0.01    127.79   
   133. A(C  15,C  16,N  22)          107.14  0.000010   -0.01    107.14   
   134. A(C  16,C  17,O  19)          123.62 -0.000020    0.01    123.62   
   135. A(N  12,C  17,O  19)          123.64 -0.000039   -0.00    123.64   
   136. A(N  12,C  17,C  16)          112.72  0.000059   -0.01    112.72   
   137. A(N  21,C  20,C  24)          121.56  0.000034   -0.01    121.56   
   138. A(C  15,C  20,C  24)          127.63 -0.000140    0.02    127.65   
   139. A(C  15,C  20,N  21)          110.81  0.000106   -0.02    110.79   
   140. A(C  20,N  21,N  22)          106.17 -0.000056    0.01    106.18   
   141. A(N  21,N  22,C  23)          118.85  0.000090   -0.02    118.83   
   142. A(C  16,N  22,C  23)          129.97 -0.000070    0.02    129.99   
   143. A(C  16,N  22,N  21)          111.17 -0.000020   -0.00    111.17   
   144. A(N  22,C  23,C  31)          118.98  0.000012   -0.01    118.97   
   145. A(C  27,C  23,C  31)          120.72 -0.000049    0.01    120.72   
   146. A(N  22,C  23,C  27)          120.24  0.000037    0.00    120.25   
   147. A(N  25,C  24,O  26)          123.63  0.000002   -0.01    123.62   
   148. A(C  20,C  24,O  26)          120.68 -0.000032    0.01    120.69   
   149. A(C  20,C  24,N  25)          115.69  0.000030    0.00    115.69   
   150. A(H  50,N  25,H  51)          119.49 -0.000084    0.04    119.53   
   151. A(C  24,N  25,H  51)          119.22  0.000081   -0.03    119.19   
   152. A(C  24,N  25,H  50)          121.06  0.000003   -0.01    121.05   
   153. A(C  28,C  27,H  52)          120.41 -0.000011    0.00    120.42   
   154. A(C  23,C  27,H  52)          120.10 -0.000018    0.00    120.10   
   155. A(C  23,C  27,C  28)          119.49  0.000029   -0.01    119.48   
   156. A(C  29,C  28,H  53)          119.04  0.000008   -0.01    119.04   
   157. A(C  27,C  28,H  53)          120.72 -0.000012    0.01    120.73   
   158. A(C  27,C  28,C  29)          120.23  0.000005   -0.00    120.23   
   159. A(C  30,C  29,O  32)          124.44  0.000061   -0.02    124.42   
   160. A(C  28,C  29,O  32)          115.50 -0.000043    0.01    115.50   
   161. A(C  28,C  29,C  30)          120.06 -0.000019    0.01    120.07   
   162. A(C  29,C  30,C  31)          119.37  0.000038   -0.01    119.36   
   163. A(C  31,C  30,H  54)          119.15 -0.000027    0.01    119.16   
   164. A(C  29,C  30,H  54)          121.48 -0.000011   -0.00    121.47   
   165. A(C  23,C  31,C  30)          120.12 -0.000005    0.00    120.12   
   166. A(C  30,C  31,H  55)          120.06 -0.000008    0.01    120.07   
   167. A(C  23,C  31,H  55)          119.82  0.000013   -0.01    119.81   
   168. A(C  29,O  32,C  33)          117.85  0.000103   -0.02    117.83   
   169. A(H  57,C  33,H  58)          109.40  0.000081   -0.02    109.38   
   170. A(H  56,C  33,H  58)          109.92  0.000090   -0.02    109.90   
   171. A(O  32,C  33,H  58)          111.19 -0.000072    0.02    111.21   
   172. A(H  56,C  33,H  57)          109.38  0.000071   -0.02    109.36   
   173. A(O  32,C  33,H  57)          105.65 -0.000102    0.02    105.68   
   174. A(O  32,C  33,H  56)          111.19 -0.000071    0.02    111.21   
   175. D(H  36,C   1,C   0,H  34)   -165.89 -0.000002    0.04   -165.86   
   176. D(C   2,C   1,C   0,C   5)    -44.88  0.000001    0.03    -44.85   
   177. D(C   2,C   1,C   0,H  34)     75.03  0.000001    0.03     75.06   
   178. D(C   2,C   1,C   0,H  35)   -167.16 -0.000009    0.03   -167.12   
   179. D(H  36,C   1,C   0,H  35)    -48.08 -0.000013    0.04    -48.04   
   180. D(H  36,C   1,C   0,C   5)     74.19 -0.000003    0.04     74.23   
   181. D(N   3,C   2,C   1,H  37)    145.86  0.000016   -0.09    145.77   
   182. D(N   3,C   2,C   1,C   0)     20.06  0.000028   -0.08     19.98   
   183. D(O  18,C   2,C   1,C   0)   -162.67 -0.000021   -0.02   -162.68   
   184. D(N   3,C   2,C   1,H  36)   -101.53  0.000037   -0.10   -101.62   
   185. D(O  18,C   2,C   1,H  36)     75.75 -0.000012   -0.03     75.72   
   186. D(C   6,N   3,C   2,O  18)     -0.39  0.000021   -0.02     -0.40   
   187. D(C   6,N   3,C   2,C   1)    176.83 -0.000028    0.05    176.88   
   188. D(C   4,N   3,C   2,O  18)    170.79  0.000022    0.02    170.81   
   189. D(C   4,N   3,C   2,C   1)    -12.00 -0.000026    0.09    -11.91   
   190. D(H  38,C   4,N   3,C   2)    151.32  0.000022   -0.05    151.27   
   191. D(H  39,C   4,N   3,C   2)    -92.16  0.000002   -0.04    -92.20   
   192. D(H  38,C   4,N   3,C   6)    -37.25  0.000014   -0.01    -37.26   
   193. D(C   5,C   4,N   3,C   2)     29.40 -0.000001   -0.04     29.36   
   194. D(C   5,C   4,N   3,C   6)   -159.17 -0.000008   -0.00   -159.17   
   195. D(H  40,C   5,C   4,N   3)     67.24  0.000003   -0.01     67.23   
   196. D(C   0,C   5,C   4,H  39)     67.97 -0.000007   -0.00     67.96   
   197. D(C   0,C   5,C   4,H  38)   -173.50  0.000019   -0.02   -173.52   
   198. D(C   0,C   5,C   4,N   3)    -53.75  0.000007   -0.02    -53.76   
   199. D(H  40,C   5,C   0,H  35)     62.08  0.000002    0.02     62.10   
   200. D(H  40,C   5,C   0,C   1)    -59.33  0.000003    0.01    -59.32   
   201. D(H  40,C   5,C   0,H  34)   -179.62  0.000005    0.02   -179.61   
   202. D(C   4,C   5,C   0,H  34)    -58.72 -0.000011    0.02    -58.70   
   203. D(C   4,C   5,C   0,H  35)   -177.01 -0.000013    0.02   -176.99   
   204. D(H  40,C   5,C   4,H  38)    -52.51  0.000015   -0.02    -52.53   
   205. D(C   4,C   5,C   0,C   1)     61.57 -0.000012    0.02     61.59   
   206. D(H  40,C   5,C   4,H  39)   -171.04 -0.000011   -0.00   -171.05   
   207. D(C  11,C   6,N   3,C   4)    -43.80  0.000006   -0.01    -43.81   
   208. D(C   7,C   6,N   3,C   4)    134.10  0.000009   -0.03    134.07   
   209. D(C   7,C   6,N   3,C   2)    -54.13  0.000001    0.01    -54.12   
   210. D(C  11,C   6,N   3,C   2)    127.97 -0.000002    0.03    128.00   
   211. D(H  42,C   7,C   6,C  11)    179.93  0.000016   -0.04    179.89   
   212. D(H  42,C   7,C   6,N   3)      2.01  0.000010   -0.02      1.99   
   213. D(C   8,C   7,C   6,C  11)     -0.63  0.000004   -0.01     -0.65   
   214. D(C   8,C   7,C   6,N   3)   -178.55 -0.000001    0.00   -178.55   
   215. D(H  43,C   8,C   7,H  42)      0.15 -0.000018    0.04      0.19   
   216. D(H  43,C   8,C   7,C   6)   -179.29 -0.000007    0.02   -179.27   
   217. D(C   9,C   8,C   7,H  42)   -179.78 -0.000013    0.03   -179.75   
   218. D(C   9,C   8,C   7,C   6)      0.78 -0.000001    0.01      0.79   
   219. D(N  12,C   9,C   8,H  43)      1.41  0.000007   -0.01      1.40   
   220. D(N  12,C   9,C   8,C   7)   -178.66  0.000002   -0.00   -178.66   
   221. D(C  10,C   9,C   8,H  43)    179.90  0.000003   -0.01    179.89   
   222. D(C  10,C   9,C   8,C   7)     -0.17 -0.000002    0.00     -0.17   
   223. D(H  44,C  10,C   9,N  12)     -2.16 -0.000005    0.00     -2.15   
   224. D(H  44,C  10,C   9,C   8)    179.36  0.000002    0.00    179.36   
   225. D(C  11,C  10,C   9,N  12)    177.90 -0.000003    0.00    177.90   
   226. D(C  11,C  10,C   9,C   8)     -0.58  0.000003    0.00     -0.58   
   227. D(H  45,C  11,C  10,H  44)      0.85  0.000005   -0.01      0.83   
   228. D(C   6,C  11,C  10,H  44)   -179.22  0.000001   -0.01   -179.22   
   229. D(C   6,C  11,C  10,C   9)      0.73 -0.000001   -0.01      0.72   
   230. D(H  45,C  11,C   6,C   7)    179.82 -0.000008    0.02    179.84   
   231. D(H  45,C  11,C   6,N   3)     -2.26 -0.000006    0.01     -2.26   
   232. D(H  45,C  11,C  10,C   9)   -179.21  0.000004   -0.01   -179.22   
   233. D(C  10,C  11,C   6,C   7)     -0.12 -0.000003    0.01     -0.10   
   234. D(C  10,C  11,C   6,N   3)    177.80 -0.000001   -0.00    177.80   
   235. D(C  17,N  12,C   9,C   8)    -54.25 -0.000002    0.00    -54.25   
   236. D(C  13,N  12,C   9,C  10)    -36.74  0.000010   -0.01    -36.75   
   237. D(C  13,N  12,C   9,C   8)    141.73  0.000005   -0.01    141.73   
   238. D(C  17,N  12,C   9,C  10)    127.28  0.000004    0.00    127.28   
   239. D(H  47,C  13,N  12,C   9)     90.46 -0.000022    0.02     90.48   
   240. D(H  46,C  13,N  12,C  17)    169.52  0.000005   -0.00    169.52   
   241. D(H  46,C  13,N  12,C   9)    -26.76  0.000015    0.01    -26.75   
   242. D(C  14,C  13,N  12,C  17)     48.47 -0.000013    0.00     48.47   
   243. D(C  14,C  13,N  12,C   9)   -147.81 -0.000003    0.01   -147.80   
   244. D(H  48,C  14,C  13,H  47)   -167.09 -0.000005    0.01   -167.08   
   245. D(H  48,C  14,C  13,H  46)    -48.22  0.000018   -0.00    -48.22   
   246. D(H  48,C  14,C  13,N  12)     71.18 -0.000014    0.01     71.18   
   247. D(C  15,C  14,C  13,H  47)     72.29 -0.000016    0.01     72.30   
   248. D(C  15,C  14,C  13,H  46)   -168.83  0.000007    0.00   -168.83   
   249. D(C  15,C  14,C  13,N  12)    -49.44 -0.000025    0.01    -49.43   
   250. D(C  20,C  15,C  14,H  48)     86.98  0.000006   -0.02     86.96   
   251. D(C  20,C  15,C  14,C  13)   -152.07 -0.000006   -0.02   -152.08   
   252. D(C  16,C  15,C  14,H  49)    148.01 -0.000002    0.02    148.03   
   253. D(C  16,C  15,C  14,H  48)    -93.23 -0.000012    0.02    -93.20   
   254. D(C  16,C  15,C  14,C  13)     27.73 -0.000024    0.02     27.75   
   255. D(N  22,C  16,C  15,C  20)     -0.17 -0.000036    0.06     -0.11   
   256. D(N  22,C  16,C  15,C  14)    179.98 -0.000022    0.03    180.01   
   257. D(C  17,C  16,C  15,C  20)   -179.34 -0.000004   -0.02   -179.36   
   258. D(C  17,C  16,C  15,C  14)      0.81  0.000009   -0.05      0.75   
   259. D(O  19,C  17,C  16,N  22)     -7.86  0.000023   -0.10     -7.95   
   260. D(O  19,C  17,C  16,C  15)    171.14 -0.000015    0.01    171.15   
   261. D(N  12,C  17,C  16,N  22)    173.69  0.000021   -0.05    173.65   
   262. D(N  12,C  17,C  16,C  15)     -7.31 -0.000016    0.05     -7.25   
   263. D(O  19,C  17,N  12,C  13)    163.26  0.000024    0.02    163.28   
   264. D(O  19,C  17,N  12,C   9)     -0.25  0.000001    0.01     -0.23   
   265. D(C  16,C  17,N  12,C  13)    -18.29  0.000027   -0.03    -18.32   
   266. D(C  16,C  17,N  12,C   9)    178.20  0.000003   -0.04    178.16   
   267. D(C  24,C  20,C  15,C  16)    179.58  0.000017   -0.04    179.54   
   268. D(C  24,C  20,C  15,C  14)     -0.60  0.000001   -0.00     -0.61   
   269. D(N  21,C  20,C  15,C  16)     -0.32  0.000011   -0.02     -0.33   
   270. D(N  21,C  20,C  15,C  14)    179.50 -0.000005    0.02    179.52   
   271. D(N  22,N  21,C  20,C  24)   -179.22  0.000013   -0.01   -179.24   
   272. D(N  22,N  21,C  20,C  15)      0.68  0.000018   -0.04      0.64   
   273. D(C  23,N  22,N  21,C  20)   -179.85 -0.000033    0.10   -179.75   
   274. D(C  16,N  22,N  21,C  20)     -0.79 -0.000041    0.08     -0.71   
   275. D(C  23,N  22,C  16,C  17)     -1.32  0.000010   -0.03     -1.35   
   276. D(C  23,N  22,C  16,C  15)    179.53  0.000042   -0.12    179.42   
   277. D(N  21,N  22,C  16,C  17)    179.75  0.000017   -0.00    179.75   
   278. D(N  21,N  22,C  16,C  15)      0.61  0.000050   -0.09      0.52   
   279. D(C  31,C  23,N  22,N  21)     58.57  0.000025   -0.19     58.38   
   280. D(C  31,C  23,N  22,C  16)   -120.29  0.000034   -0.16   -120.45   
   281. D(C  27,C  23,N  22,N  21)   -118.72  0.000024   -0.16   -118.88   
   282. D(C  27,C  23,N  22,C  16)     62.42  0.000033   -0.13     62.29   
   283. D(O  26,C  24,C  20,N  21)    176.23 -0.000012    0.15    176.38   
   284. D(O  26,C  24,C  20,C  15)     -3.65 -0.000019    0.18     -3.47   
   285. D(N  25,C  24,C  20,N  21)     -4.05 -0.000000    0.12     -3.93   
   286. D(N  25,C  24,C  20,C  15)    176.07 -0.000007    0.15    176.22   
   287. D(H  51,N  25,C  24,O  26)     -3.00 -0.000009    0.01     -2.98   
   288. D(H  51,N  25,C  24,C  20)    177.29 -0.000020    0.05    177.34   
   289. D(H  50,N  25,C  24,O  26)   -177.47 -0.000005    0.02   -177.44   
   290. D(H  50,N  25,C  24,C  20)      2.82 -0.000017    0.06      2.88   
   291. D(H  52,C  27,C  23,C  31)   -179.25 -0.000011    0.04   -179.21   
   292. D(H  52,C  27,C  23,N  22)     -2.01 -0.000007    0.01     -2.00   
   293. D(C  28,C  27,C  23,C  31)      0.79  0.000006   -0.00      0.78   
   294. D(C  28,C  27,C  23,N  22)    178.03  0.000009   -0.04    178.00   
   295. D(H  53,C  28,C  27,H  52)      0.08  0.000003   -0.01      0.07   
   296. D(H  53,C  28,C  27,C  23)   -179.96 -0.000013    0.03   -179.92   
   297. D(C  29,C  28,C  27,H  52)    179.68  0.000020   -0.06    179.62   
   298. D(C  29,C  28,C  27,C  23)     -0.36  0.000004   -0.01     -0.37   
   299. D(O  32,C  29,C  28,C  27)    179.97 -0.000004    0.01    179.99   
   300. D(C  30,C  29,C  28,H  53)    179.36  0.000007   -0.03    179.34   
   301. D(C  30,C  29,C  28,C  27)     -0.24 -0.000009    0.02     -0.22   
   302. D(O  32,C  29,C  28,H  53)     -0.42  0.000011   -0.03     -0.45   
   303. D(H  54,C  30,C  29,O  32)     -0.14  0.000001   -0.01     -0.15   
   304. D(H  54,C  30,C  29,C  28)   -179.91  0.000006   -0.01   -179.92   
   305. D(C  31,C  30,C  29,O  32)   -179.81 -0.000000   -0.01   -179.82   
   306. D(C  31,C  30,C  29,C  28)      0.42  0.000005   -0.01      0.42   
   307. D(H  55,C  31,C  30,H  54)      0.01  0.000007   -0.01      0.00   
   308. D(H  55,C  31,C  30,C  29)    179.69  0.000009   -0.01    179.68   
   309. D(C  23,C  31,C  30,H  54)   -179.68  0.000003   -0.00   -179.68   
   310. D(C  23,C  31,C  30,C  29)     -0.00  0.000005   -0.01     -0.01   
   311. D(H  55,C  31,C  23,C  27)    179.70 -0.000013    0.02    179.72   
   312. D(H  55,C  31,C  23,N  22)      2.42 -0.000017    0.05      2.47   
   313. D(C  30,C  31,C  23,C  27)     -0.61 -0.000010    0.01     -0.59   
   314. D(C  30,C  31,C  23,N  22)   -177.88 -0.000014    0.04   -177.84   
   315. D(C  33,O  32,C  29,C  30)     -0.25 -0.000003    0.03     -0.22   
   316. D(C  33,O  32,C  29,C  28)    179.53 -0.000008    0.03    179.56   
   317. D(H  58,C  33,O  32,C  29)    -61.05  0.000007   -0.06    -61.11   
   318. D(H  57,C  33,O  32,C  29)   -179.64  0.000009   -0.06   -179.70   
   319. D(H  56,C  33,O  32,C  29)     61.79  0.000022   -0.06     61.73   
    ----------------------------------------------------------------------------

Geometry step timings:
Preparation and reading OPT file:      0.006 s (11.765 %)
Internal coordinates            :      0.000 s ( 0.000 %)
B/P matrices and projection     :      0.022 s (43.137 %)
Hessian update/contruction      :      0.005 s ( 9.804 %)
Making the step                 :      0.010 s (19.608 %)
Converting the step to Cartesian:      0.002 s ( 3.922 %)
Storing new data                :      0.000 s ( 0.000 %)
Checking convergence            :      0.001 s ( 1.961 %)
Final printing                  :      0.005 s ( 9.804 %)
Total time                      :      0.051 s
                 *******************************************************
                 *** FINAL ENERGY EVALUATION AT THE STATIONARY POINT ***
                 ***               (AFTER    4 CYCLES)               ***
                 *******************************************************
---------------------------------
CARTESIAN COORDINATES (ANGSTROEM)
---------------------------------
  C     23.815695  -17.588553   -0.038599
  C     24.216140  -18.532470    1.089829
  C     25.512741  -19.295429    0.894215
  N     26.418778  -18.808405   -0.017783
  C     26.098968  -17.740598   -0.993216
  C     25.037039  -16.791350   -0.471797
  C     27.677220  -19.461283   -0.180195
  C     28.506934  -19.683982    0.922673
  C     29.741387  -20.290747    0.760305
  C     30.178672  -20.672748   -0.511876
  C     29.358098  -20.439886   -1.614521
  C     28.111516  -19.844321   -1.447772
  N     31.435608  -21.321938   -0.671476
  C     31.529601  -22.412325   -1.673297
  C     32.527291  -23.490359   -1.260873
  C     33.798101  -22.823096   -0.868467
  C     33.782150  -21.533610   -0.368527
  C     32.573952  -20.723051   -0.162436
  O     25.747175  -20.291118    1.579669
  O     32.570444  -19.644166    0.426323
  C     35.154223  -23.187631   -0.871546
  N     35.920131  -22.182240   -0.409952
  N     35.082354  -21.188482   -0.098656
  C     35.620867  -19.969334    0.419714
  C     35.743444  -24.475678   -1.302063
  N     37.093326  -24.539599   -1.277849
  O     35.021637  -25.409920   -1.660076
  C     35.263135  -19.529144    1.692931
  C     35.825005  -18.370349    2.194942
  C     36.753399  -17.648000    1.432046
  C     37.118383  -18.100143    0.160871
  C     36.544994  -19.266254   -0.339739
  O     37.244048  -16.525403    2.017627
  C     38.203742  -15.754279    1.285859
  H     23.433936  -18.164123   -0.892653
  H     23.006568  -16.929190    0.294941
  H     24.355306  -17.963154    2.020469
  H     23.443966  -19.279599    1.298280
  H     27.031208  -17.205893   -1.205115
  H     25.752595  -18.192293   -1.934586
  H     25.432428  -16.216398    0.376432
  H     24.790911  -16.080338   -1.268677
  H     28.177916  -19.387562    1.912409
  H     30.372804  -20.469952    1.623626
  H     29.683372  -20.719500   -2.611780
  H     27.481268  -19.682635   -2.316700
  H     30.531555  -22.844367   -1.776968
  H     31.825720  -21.992106   -2.645761
  H     32.135248  -24.078309   -0.419365
  H     32.680000  -24.180737   -2.094241
  H     37.644912  -23.764962   -0.941662
  H     37.549135  -25.405420   -1.521859
  H     34.549338  -20.093547    2.282932
  H     35.561789  -18.009642    3.184681
  H     37.834524  -17.560531   -0.447522
  H     36.816329  -19.625164   -1.328220
  H     37.776325  -15.373237    0.349915
  H     38.463053  -14.914733    1.933445
  H     39.105599  -16.341716    1.072697

----------------------------
CARTESIAN COORDINATES (A.U.)
----------------------------
  NO LB      ZA    FRAG     MASS         X           Y           Z
   0 C     6.0000    0    12.011   45.005142  -33.237549   -0.072942
   1 C     6.0000    0    12.011   45.761872  -35.021294    2.059478
   2 C     6.0000    0    12.011   48.212093  -36.463076    1.689821
   3 N     7.0000    0    14.007   49.924256  -35.542735   -0.033605
   4 C     6.0000    0    12.011   49.319902  -33.524871   -1.876907
   5 C     6.0000    0    12.011   47.313147  -31.731054   -0.891568
   6 C     6.0000    0    12.011   52.302366  -36.776496   -0.340518
   7 C     6.0000    0    12.011   53.870298  -37.197335    1.743600
   8 C     6.0000    0    12.011   56.203076  -38.343955    1.436769
   9 C     6.0000    0    12.011   57.029425  -39.065832   -0.967306
  10 C     6.0000    0    12.011   55.478765  -38.625787   -3.051002
  11 C     6.0000    0    12.011   53.123067  -37.500332   -2.735892
  12 N     7.0000    0    14.007   59.404690  -40.292623   -1.268907
  13 C     6.0000    0    12.011   59.582311  -42.353157   -3.162073
  14 C     6.0000    0    12.011   61.467673  -44.390346   -2.382705
  15 C     6.0000    0    12.011   63.869155  -43.129401   -1.641164
  16 C     6.0000    0    12.011   63.839011  -40.692625   -0.696415
  17 C     6.0000    0    12.011   61.555847  -39.160891   -0.306959
  18 O     8.0000    0    15.999   48.655109  -38.344657    2.985141
  19 O     8.0000    0    15.999   61.549220  -37.122095    0.805634
  20 C     6.0000    0    12.011   66.431853  -43.818273   -1.646982
  21 N     7.0000    0    14.007   67.879209  -41.918359   -0.774698
  22 N     7.0000    0    14.007   66.296041  -40.040428   -0.186434
  23 C     6.0000    0    12.011   67.313683  -37.736572    0.793144
  24 C     6.0000    0    12.011   67.545320  -46.252329   -2.460543
  25 N     7.0000    0    14.007   70.096228  -46.373121   -2.414784
  26 O     8.0000    0    15.999   66.181303  -48.017790   -3.137090
  27 C     6.0000    0    12.011   66.637668  -36.904734    3.199176
  28 C     6.0000    0    12.011   67.699449  -34.714929    4.147839
  29 C     6.0000    0    12.011   69.453858  -33.349887    2.706175
  30 C     6.0000    0    12.011   70.143578  -34.204312    0.304002
  31 C     6.0000    0    12.011   69.060030  -36.407944   -0.642013
  32 O     8.0000    0    15.999   70.381051  -31.228486    3.812762
  33 C     6.0000    0    12.011   72.194610  -29.771274    2.429921
  34 H     1.0000    0     1.008   44.283721  -34.325217   -1.686870
  35 H     1.0000    0     1.008   43.476112  -31.991534    0.557357
  36 H     1.0000    0     1.008   46.024858  -33.945441    3.818134
  37 H     1.0000    0     1.008   44.302675  -36.433162    2.453393
  38 H     1.0000    0     1.008   51.081581  -32.514426   -2.277337
  39 H     1.0000    0     1.008   48.665351  -34.378451   -3.655838
  40 H     1.0000    0     1.008   48.060324  -30.644550    0.711354
  41 H     1.0000    0     1.008   46.848033  -30.387436   -2.397452
  42 H     1.0000    0     1.008   53.248544  -36.637182    3.613930
  43 H     1.0000    0     1.008   57.396282  -38.682604    3.068209
  44 H     1.0000    0     1.008   56.093444  -39.154181   -4.935549
  45 H     1.0000    0     1.008   51.932070  -37.194789   -4.377929
  46 H     1.0000    0     1.008   57.696278  -43.169597   -3.357983
  47 H     1.0000    0     1.008   60.141895  -41.559057   -4.999764
  48 H     1.0000    0     1.008   60.726818  -45.501410   -0.792485
  49 H     1.0000    0     1.008   61.756250  -45.694971   -3.957541
  50 H     1.0000    0     1.008   71.138575  -44.909271   -1.779484
  51 H     1.0000    0     1.008   70.957581  -48.009286   -2.875897
  52 H     1.0000    0     1.008   65.288786  -37.971302    4.314115
  53 H     1.0000    0     1.008   67.202042  -34.033291    6.018174
  54 H     1.0000    0     1.008   71.496888  -33.184595   -0.845695
  55 H     1.0000    0     1.008   69.572779  -37.086186   -2.509972
  56 H     1.0000    0     1.008   71.386908  -29.051208    0.661244
  57 H     1.0000    0     1.008   72.684636  -28.184762    3.653682
  58 H     1.0000    0     1.008   73.898872  -30.881367    2.027103

--------------------------------
INTERNAL COORDINATES (ANGSTROEM)
--------------------------------
 C      0   0   0     0.000000000000     0.00000000     0.00000000
 C      1   0   0     1.524691366811     0.00000000     0.00000000
 C      2   1   0     1.517084073503   116.12849533     0.00000000
 N      3   2   1     1.374713168357   118.07723015    19.97595642
 C      4   3   2     1.481202609147   123.36546542   348.08908047
 C      5   4   3     1.516786227793   112.08263217    29.35631557
 C      4   3   2     1.426990894817   119.64638057   176.87543666
 C      7   4   3     1.397976031254   120.43119416   305.87791861
 C      8   7   4     1.385063728861   120.41621119   181.45205284
 C      9   8   7     1.398423765954   120.33191082     0.78559561
 C     10   9   8     1.394055729902   119.33183998   359.83217326
 C     11  10   9     1.391570668903   120.26528456   359.41741003
 N     10   9   8     1.423660171984   120.17398208   181.34299117
 C     13  10   9     1.483719751268   117.82292884   141.72503811
 C     14  13  10     1.525659634702   112.22120725   212.20491247
 C     15  14  13     1.488012175256   108.23500542   310.57070281
 C     16  15  14     1.383101446562   120.23491472    27.75463847
 C     13  10   9     1.383334241793   119.20003540   305.75146565
 O      3   2   1     1.231342539412   119.84174111   197.31611104
 O     18  13  10     1.229081170729   123.63830543   359.76539245
 C     16  15  14     1.404265283431   135.05347895   207.91729525
 N     21  16  15     1.345546336002   110.79242046   179.52439481
 N     22  21  16     1.336536886807   106.18070008     0.63955937
 C     23  22  21     1.430043994999   118.83325508   180.25023604
 C     21  16  15     1.480402439328   127.65228183   359.39103567
 N     25  21  16     1.351611585879   115.68620931   176.21915576
 O     25  21  16     1.233688389006   120.69057720   356.52940786
 C     24  23  22     1.393851319364   120.24513971   241.11828836
 C     28  24  23     1.382215223367   119.48479876   177.99503350
 C     29  28  24     1.402038391043   120.23070178   359.62833000
 C     30  29  28     1.397688293363   120.07470887   359.77578726
 C     24  23  22     1.387479516341   118.97349192    58.37837717
 O     30  29  28     1.357890368840   115.50240727   179.98843211
 C     33  30  29     1.432176301452   117.83414764   179.56077108
 H      1   2   3     1.098375501162   110.01991112    75.05797567
 H      1   2   3     1.095762638880   109.94913135   192.87621828
 H      2   1   3     1.099809419806   109.81749240   119.08581886
 H      2   1   3     1.094488416443   112.22640138   237.15045651
 H      5   4   3     1.095391673779   107.18997951   151.26810951
 H      5   4   3     1.100081815078   109.60353973   267.80066229
 H      6   5   4     1.098360952996   109.94081388    67.22977253
 H      6   5   4     1.095962773141   108.25739199   184.54150763
 H      8   7   4     1.084294751406   119.76615193     1.99025207
 H      9   8   7     1.084493052006   119.86660006   180.73155124
 H     11  10   9     1.085593264839   120.47813429   179.36198761
 H     12  11  10     1.085537804756   119.20416242   180.77850597
 H     14  13  10     1.092475593927   107.26743243   333.24937117
 H     14  13  10     1.099980535816   109.46542260    90.48431172
 H     15  14  13     1.098871378567   110.59584824    71.18357770
 H     15  14  13     1.092905747489   109.36573721   189.02554576
 H     26  25  21     1.008627769247   121.05220382     2.87885410
 H     26  25  21     1.008439121329   119.18853108   177.33942950
 H     28  24  23     1.084508480166   120.09986779   358.00322029
 H     29  28  24     1.085806354269   120.73195227   180.07583235
 H     31  30  29     1.083595961361   121.47489661   180.08237741
 H     32  24  23     1.086063469797   119.80984483     2.47299234
 H     34  33  30     1.097209763522   111.21087432    61.73127471
 H     34  33  30     1.091534489139   105.67518470   180.30228778
 H     34  33  30     1.097207638108   111.20981355   298.89243572

---------------------------
INTERNAL COORDINATES (A.U.)
---------------------------
 C      0   0   0     0.000000000000     0.00000000     0.00000000
 C      1   0   0     2.881249122027     0.00000000     0.00000000
 C      2   1   0     2.866873421055   116.12849533     0.00000000
 N      3   2   1     2.597831400889   118.07723015    19.97595642
 C      4   3   2     2.799067280138   123.36546542   348.08908047
 C      5   4   3     2.866310574231   112.08263217    29.35631557
 C      4   3   2     2.696621986803   119.64638057   176.87543666
 C      7   4   3     2.641791840857   120.43119416   305.87791861
 C      8   7   4     2.617391125574   120.41621119   181.45205284
 C      9   8   7     2.642637936819   120.33191082     0.78559561
 C     10   9   8     2.634383544939   119.33183998   359.83217326
 C     11  10   9     2.629687460224   120.26528456   359.41741003
 N     10   9   8     2.690327832821   120.17398208   181.34299117
 C     13  10   9     2.803823989386   117.82292884   141.72503811
 C     14  13  10     2.883078883165   112.22120725   212.20491247
 C     15  14  13     2.811935495174   108.23500542   310.57070281
 C     16  15  14     2.613682949433   120.23491472    27.75463847
 C     13  10   9     2.614122868664   119.20003540   305.75146565
 O      3   2   1     2.326900176537   119.84174111   197.31611104
 O     18  13  10     2.322626809038   123.63830543   359.76539245
 C     16  15  14     2.653676805059   135.05347895   207.91729525
 N     21  16  15     2.542714075545   110.79242046   179.52439481
 N     22  21  16     2.525688683949   106.18070008     0.63955937
 C     23  22  21     2.702391510007   118.83325508   180.25023604
 C     21  16  15     2.797555178319   127.65228183   359.39103567
 N     25  21  16     2.554175736745   115.68620931   176.21915576
 O     25  21  16     2.331333189820   120.69057720   356.52940786
 C     24  23  22     2.633997265003   120.24513971   241.11828836
 C     28  24  23     2.612008230301   119.48479876   177.99503350
 C     29  28  24     2.649468588314   120.23070178   359.62833000
 C     30  29  28     2.641248095044   120.07470887   359.77578726
 C     24  23  22     2.621956302311   118.97349192    58.37837717
 O     30  29  28     2.566040916997   115.50240727   179.98843211
 C     33  30  29     2.706420985236   117.83414764   179.56077108
 H      1   2   3     2.075628889404   110.01991112    75.05797567
 H      1   2   3     2.070691295266   109.94913135   192.87621828
 H      2   1   3     2.078338602941   109.81749240   119.08581886
 H      2   1   3     2.068283363826   112.22640138   237.15045651
 H      5   4   3     2.069990272819   107.18997951   151.26810951
 H      5   4   3     2.078853355405   109.60353973   267.80066229
 H      6   5   4     2.075601397354   109.94081388    67.22977253
 H      6   5   4     2.071069494208   108.25739199   184.54150763
 H      8   7   4     2.049020128606   119.76615193     1.99025207
 H      9   8   7     2.049394862431   119.86660006   180.73155124
 H     11  10   9     2.051473963374   120.47813429   179.36198761
 H     12  11  10     2.051369159006   119.20416242   180.77850597
 H     14  13  10     2.064479680516   107.26743243   333.24937117
 H     14  13  10     2.078661965336   109.46542260    90.48431172
 H     15  14  13     2.076565961897   110.59584824    71.18357770
 H     15  14  13     2.065292552942   109.36573721   189.02554576
 H     26  25  21     1.906030254945   121.05220382     2.87885410
 H     26  25  21     1.905673762044   119.18853108   177.33942950
 H     28  24  23     2.049424017428   120.09986779   358.00322029
 H     29  28  24     2.051876644039   120.73195227   180.07583235
 H     31  30  29     2.047699606794   121.47489661   180.08237741
 H     32  24  23     2.052362521972   119.80984483     2.47299234
 H     34  33  30     2.073425964521   111.21087432    61.73127471
 H     34  33  30     2.062701250203   105.67518470   180.30228778
 H     34  33  30     2.073421948071   111.20981355   298.89243572

---------------------
BASIS SET INFORMATION
---------------------
There are 4 groups of distinct atoms

 Group   1 Type C   : 11s6p1d contracted to 5s3p1d pattern {62111/411/1}
 Group   2 Type N   : 11s6p2d contracted to 5s3p2d pattern {62111/411/11}
 Group   3 Type O   : 11s6p2d contracted to 5s3p2d pattern {62111/411/11}
 Group   4 Type H   : 4s1p contracted to 2s1p pattern {31/1}

Atom   0C    basis set group =>   1
Atom   1C    basis set group =>   1
Atom   2C    basis set group =>   1
Atom   3N    basis set group =>   2
Atom   4C    basis set group =>   1
Atom   5C    basis set group =>   1
Atom   6C    basis set group =>   1
Atom   7C    basis set group =>   1
Atom   8C    basis set group =>   1
Atom   9C    basis set group =>   1
Atom  10C    basis set group =>   1
Atom  11C    basis set group =>   1
Atom  12N    basis set group =>   2
Atom  13C    basis set group =>   1
Atom  14C    basis set group =>   1
Atom  15C    basis set group =>   1
Atom  16C    basis set group =>   1
Atom  17C    basis set group =>   1
Atom  18O    basis set group =>   3
Atom  19O    basis set group =>   3
Atom  20C    basis set group =>   1
Atom  21N    basis set group =>   2
Atom  22N    basis set group =>   2
Atom  23C    basis set group =>   1
Atom  24C    basis set group =>   1
Atom  25N    basis set group =>   2
Atom  26O    basis set group =>   3
Atom  27C    basis set group =>   1
Atom  28C    basis set group =>   1
Atom  29C    basis set group =>   1
Atom  30C    basis set group =>   1
Atom  31C    basis set group =>   1
Atom  32O    basis set group =>   3
Atom  33C    basis set group =>   1
Atom  34H    basis set group =>   4
Atom  35H    basis set group =>   4
Atom  36H    basis set group =>   4
Atom  37H    basis set group =>   4
Atom  38H    basis set group =>   4
Atom  39H    basis set group =>   4
Atom  40H    basis set group =>   4
Atom  41H    basis set group =>   4
Atom  42H    basis set group =>   4
Atom  43H    basis set group =>   4
Atom  44H    basis set group =>   4
Atom  45H    basis set group =>   4
Atom  46H    basis set group =>   4
Atom  47H    basis set group =>   4
Atom  48H    basis set group =>   4
Atom  49H    basis set group =>   4
Atom  50H    basis set group =>   4
Atom  51H    basis set group =>   4
Atom  52H    basis set group =>   4
Atom  53H    basis set group =>   4
Atom  54H    basis set group =>   4
Atom  55H    basis set group =>   4
Atom  56H    basis set group =>   4
Atom  57H    basis set group =>   4
Atom  58H    basis set group =>   4
---------------------------------
AUXILIARY/J BASIS SET INFORMATION
---------------------------------
There are 4 groups of distinct atoms

 Group   1 Type C   : 8s3p3d contracted to 6s3p3d pattern {311111/111/111}
 Group   2 Type N   : 8s3p3d contracted to 6s3p3d pattern {311111/111/111}
 Group   3 Type O   : 8s3p3d contracted to 6s3p3d pattern {311111/111/111}
 Group   4 Type H   : 5s2p1d contracted to 3s1p1d pattern {311/2/1}

Atom   0C    basis set group =>   1
Atom   1C    basis set group =>   1
Atom   2C    basis set group =>   1
Atom   3N    basis set group =>   2
Atom   4C    basis set group =>   1
Atom   5C    basis set group =>   1
Atom   6C    basis set group =>   1
Atom   7C    basis set group =>   1
Atom   8C    basis set group =>   1
Atom   9C    basis set group =>   1
Atom  10C    basis set group =>   1
Atom  11C    basis set group =>   1
Atom  12N    basis set group =>   2
Atom  13C    basis set group =>   1
Atom  14C    basis set group =>   1
Atom  15C    basis set group =>   1
Atom  16C    basis set group =>   1
Atom  17C    basis set group =>   1
Atom  18O    basis set group =>   3
Atom  19O    basis set group =>   3
Atom  20C    basis set group =>   1
Atom  21N    basis set group =>   2
Atom  22N    basis set group =>   2
Atom  23C    basis set group =>   1
Atom  24C    basis set group =>   1
Atom  25N    basis set group =>   2
Atom  26O    basis set group =>   3
Atom  27C    basis set group =>   1
Atom  28C    basis set group =>   1
Atom  29C    basis set group =>   1
Atom  30C    basis set group =>   1
Atom  31C    basis set group =>   1
Atom  32O    basis set group =>   3
Atom  33C    basis set group =>   1
Atom  34H    basis set group =>   4
Atom  35H    basis set group =>   4
Atom  36H    basis set group =>   4
Atom  37H    basis set group =>   4
Atom  38H    basis set group =>   4
Atom  39H    basis set group =>   4
Atom  40H    basis set group =>   4
Atom  41H    basis set group =>   4
Atom  42H    basis set group =>   4
Atom  43H    basis set group =>   4
Atom  44H    basis set group =>   4
Atom  45H    basis set group =>   4
Atom  46H    basis set group =>   4
Atom  47H    basis set group =>   4
Atom  48H    basis set group =>   4
Atom  49H    basis set group =>   4
Atom  50H    basis set group =>   4
Atom  51H    basis set group =>   4
Atom  52H    basis set group =>   4
Atom  53H    basis set group =>   4
Atom  54H    basis set group =>   4
Atom  55H    basis set group =>   4
Atom  56H    basis set group =>   4
Atom  57H    basis set group =>   4
Atom  58H    basis set group =>   4


           ************************************************************
           *        Program running with 4 parallel MPI-processes     *
           *              working on a common directory               *
           ************************************************************
------------------------------------------------------------------------------
                             ORCA STARTUP CALCULATIONS
                           -- RI-GTO INTEGRALS CHOSEN --
------------------------------------------------------------------------------
------------------------------------------------------------------------------
                   ___                                                        
                  /   \      - P O W E R E D   B Y -                         
                 /     \                                                     
                 |  |  |   _    _      __       _____    __    __             
                 |  |  |  | |  | |    /  \     |  _  \  |  |  /  |          
                  \  \/   | |  | |   /    \    | | | |  |  | /  /          
                 / \  \   | |__| |  /  /\  \   | |_| |  |  |/  /          
                |  |  |   |  __  | /  /__\  \  |    /   |      \           
                |  |  |   | |  | | |   __   |  |    \   |  |\   \          
                \     /   | |  | | |  |  |  |  | |\  \  |  | \   \       
                 \___/    |_|  |_| |__|  |__|  |_| \__\ |__|  \__/        
                                                                              
                      - O R C A' S   B I G   F R I E N D -                    
                                      &                                       
                       - I N T E G R A L  F E E D E R -                       
                                                                              
 v1 FN, 2020, v2 2021, v3 2022-2024                                           
------------------------------------------------------------------------------


----------------------
SHARK INTEGRAL PACKAGE
----------------------

Number of atoms                             ...     59
Number of basis functions                   ...    816
Number of shells                            ...    390
Maximum angular momentum                    ...      2
Integral batch strategy                     ... SHARK/LIBINT Hybrid
RI-J (if used) integral strategy            ... SPLIT-RIJ (Revised 2003 algorithm where possible)
Printlevel                                  ...      1
Contraction scheme used                     ... SEGMENTED contraction
Prescreening option                         ... SCHWARTZ
   Thresh                                   ... 2.500e-11
   Tcut                                     ... 2.500e-12
   Tpresel                                  ... 2.500e-12 
Coulomb Range Separation                    ... NOT USED
Exchange Range Separation                   ... NOT USED
Multipole approximations                    ... NOT USED
Finite Nucleus Model                        ... NOT USED
CABS basis                                  ... NOT available
Auxiliary Coulomb fitting basis             ... AVAILABLE
   # of basis functions in Aux-J            ...   1295
   # of shells in Aux-J                     ...    533
   Maximum angular momentum in Aux-J        ...      2
Auxiliary J/K fitting basis                 ... NOT available
Auxiliary Correlation fitting basis         ... NOT available
Auxiliary 'external' fitting basis          ... NOT available

Checking pre-screening integrals            ... done (  0.0 sec) Dimension = 390
   => SHARK Basis and OBASIS are compatible. Storing Pre-screening
Shell pair information
Shell pair cut-off parameter TPreSel        ...   2.5e-12
Total number of shell pairs                 ...     76245
Shell pairs after pre-screening             ...     38805
Total number of primitive shell pairs       ...    279454
Primitive shell pairs kept                  ...     86849
          la=0 lb=0:  11491 shell pairs
          la=1 lb=0:  14746 shell pairs
          la=1 lb=1:   4718 shell pairs
          la=2 lb=0:   4491 shell pairs
          la=2 lb=1:   2889 shell pairs
          la=2 lb=2:    470 shell pairs

Checking whether 4 symmetric matrices of dimension 816 fit in memory
:Max Core in MB      =   2000.00
 MB in use           =     43.24
 MB left             =   1956.76
 MB needed           =     10.17
 Data fit in memory  = YES
Calculating RI/J V-Matrix + Cholesky decomp.... done (  0.1 sec)
Calculating Nuclear repulsion               ... done (  0.0 sec) ENN=   3308.596392738086 Eh

Diagonalization of the overlap matrix:
Smallest eigenvalue                        ... 1.824e-05
Time for diagonalization                   ...    0.136 sec
Threshold for overlap eigenvalues          ... 1.000e-07
Number of eigenvalues below threshold      ... 0
Time for construction of square roots      ...    0.083 sec
Total time needed                          ...    0.227 sec

-------------------
DFT GRID GENERATION
-------------------

General Integration Accuracy     IntAcc      ... 4.388
Radial Grid Type                 RadialGrid  ... OptM3 with GC (2021)
Angular Grid (max. ang.)         AngularGrid ... 4 (Lebedev-302)
Angular grid pruning method      GridPruning ... 4 (adaptive)
Weight generation scheme         WeightScheme... mBecke (2022)
Basis function cutoff            BFCut       ... 1.0000e-11
Integration weight cutoff        WCut        ... 1.0000e-14
Partially contracted basis set               ... off
Rotationally invariant grid construction     ... off
Angular grids for H and He will be reduced by one unit
Diffuse basis detected: some atoms will have their outermost
                        angular grid increased by 1.

Total number of grid points                  ...   283846
Total number of batches                      ...     4459
Average number of points per batch           ...       63
Average number of grid points per atom       ...     4811
Grids setup in   4.5 sec
Initializing property integral containers    ... done (  0.0 sec)

SHARK setup successfully completed in   5.9 seconds

Maximum memory used throughout the entire STARTUP-calculation: 106.0 MB


           ************************************************************
           *        Program running with 4 parallel MPI-processes     *
           *              working on a common directory               *
           ************************************************************
-------------------------------------------------------------------------------
                                 ORCA GUESS
                   Start orbitals & Density for SCF / CASSCF
-------------------------------------------------------------------------------

------------
SCF SETTINGS
------------
Hamiltonian:
 Density Functional     Method          .... DFT(GTOs)
  Functional kind                       .... Exchange
  Functional name                       .... Re-regularized SCAN exchange by Furness et al
  Functional family                     .... MGGA
  Functional refs                              
    [ 0] J. W. Furness, A. D. Kaplan, J. Ning, J. P. Perdew, and J. Sun.,  J. Phys. Chem. Lett. 11, 8208-8215 (2020), doi: 10.1021/acs.jpclett.0c02405
    [ 1] J. W. Furness, A. D. Kaplan, J. Ning, J. P. Perdew, and J. Sun.,  J. Phys. Chem. Lett. 11, 9248-9248 (2020), doi: 10.1021/acs.jpclett.0c03077
  Functional external parameters        .... 6
    Parameter  0 _c1        =  6.670000e-01 : c1 parameter        
    Parameter  1 _c2        =  8.000000e-01 : c2 parameter        
    Parameter  2 _d         =  1.240000e+00 : d parameter         
    Parameter  3 _k1        =  6.500000e-02 : k1 parameter        
    Parameter  4 _eta       =  1.000000e-03 : eta parameter       
    Parameter  5 _dp2       =  3.610000e-01 : dp2 parameter       
  Functional kind                       .... Correlation
  Functional name                       .... Re-regularized SCAN correlation by Furness et al
  Functional family                     .... MGGA
  Functional refs                              
    [ 0] J. W. Furness, A. D. Kaplan, J. Ning, J. P. Perdew, and J. Sun.,  J. Phys. Chem. Lett. 11, 8208-8215 (2020), doi: 10.1021/acs.jpclett.0c02405
    [ 1] J. W. Furness, A. D. Kaplan, J. Ning, J. P. Perdew, and J. Sun.,  J. Phys. Chem. Lett. 11, 9248-9248 (2020), doi: 10.1021/acs.jpclett.0c03077
  Functional external parameters        .... 1
    Parameter  0 _eta       =  1.000000e-03 : Regularization parameter
 Gradients option       PostSCFGGA      .... off
 RI-approximation to the Coulomb term is turned on
   Number of AuxJ basis functions       .... 1295


General Settings:
 Integral files         IntName         .... Apixaban_SMD_chloroform_Opt_Freq_KeepDens
 Hartree-Fock type      HFTyp           .... RHF
 Total Charge           Charge          ....    0
 Multiplicity           Mult            ....    1
 Number of Electrons    NEL             ....  242
 Basis Dimension        Dim             ....  816
 Nuclear Repulsion      ENuc            ....   3308.5963927381 Eh

Convergence Acceleration:
 AO-DIIS                CNVDIIS         .... on
   Start iteration      DIISMaxIt       ....    12
   Startup error        DIISStart       ....  0.200000
   # of expansion vecs  DIISMaxEq       ....     5
   Bias factor          DIISBfac        ....   1.050
   Max. coefficient     DIISMaxC        ....  10.000
 MO-DIIS                CNVKDIIS        .... off
 Trust-Rad. Augm. Hess. CNVTRAH         .... auto
   Auto Start mean grad. ratio tolernc. ....  1.125000
   Auto Start start iteration           ....     1
   Auto Start num. interpolation iter.  ....    10
   Max. Number of Micro iterations      ....    24
   Max. Number of Macro iterations      .... Maxiter - #DIIS iter
   Number of Davidson start vectors     ....     2
   Converg. threshold    (grad. norm)   ....   1.000e-05
   Grad. Scal. Fac. for Micro threshold ....   0.100
   Minimum threshold for Micro iter.    ....   1.000e-02
   NR start threshold (gradient norm)   ....   1.000e-04
   Initial trust radius                 ....   0.400
   Minimum AH scaling param. (alpha)    ....   1.000
   Maximum AH scaling param. (alpha)    .... 1000.000
   Quad. conv. algorithm                .... NR
   White noise on init. David. guess    .... on
   Maximum white noise                  ....   0.010
   Pseudo random numbers                .... off
   Inactive MOs                         .... canonical
   Orbital update algorithm             .... Taylor
   Preconditioner                       .... Diag
   Full preconditioner red. dimension   ....   250
   COSX micro iterations for RIJONX calc.... off
 SOSCF                 CNVSOSCF           .... on
   Start iteration     SOSCFMaxIt         ....   150
   Startup grad/error  SOSCFStart         ....  0.003300
   Hessian update      SOSCFHessUp        .... L-BFGS
   Autom. constraints  SOSCFAutoConstrain .... off
 Level Shifting         CNVShift        .... on
   Level shift para.    LevelShift      ....    0.2500
   Turn off err/grad.   ShiftErr        ....    0.0010
 Zerner damping         CNVZerner       .... off
 Static damping         CNVDamp         .... on
   Fraction old density DampFac         ....    0.7000
   Max. Damping (<1)    DampMax         ....    0.9800
   Min. Damping (>=0)   DampMin         ....    0.0000
   Turn off err/grad.   DampErr         ....    0.1000

SCF Procedure:
 Maximum # iterations   MaxIter         ....   125
 SCF integral mode      SCFMode         .... Direct
   Integral package                     .... SHARK and LIBINT hybrid scheme
 Reset frequency        DirectResetFreq ....    20
 Integral Threshold     Thresh          ....  2.500e-11 Eh
 Primitive CutOff       TCut            ....  2.500e-12 Eh

Convergence Tolerance:
 Convergence Check Mode ConvCheckMode   .... Total+1el-Energy
 Convergence forced     ConvForced      .... 0
 Energy Change          TolE            ....  1.000e-08 Eh
 1-El. energy change                    ....  1.000e-05 Eh
 Orbital Gradient       TolG            ....  1.000e-05
 Orbital Rotation angle TolX            ....  1.000e-05
 DIIS Error             TolErr          ....  5.000e-07

---------------------
INITIAL GUESS: MOREAD
---------------------
Guess MOs are being read from file: Apixaban_SMD_chloroform_Opt_Freq_KeepDens.gbw
Input Geometry matches current geometry (good)
Input basis set matches current basis set (good)
Occupation numbers will be reassigned to an Aufbau configuration
MOs were renormalized
MOs were reorthogonalized (Cholesky)
                      ------------------
                      INITIAL GUESS DONE (   0.6 sec)
                      ------------------
             **** ENERGY FILE WAS UPDATED (Apixaban_SMD_chloroform_Opt_Freq_KeepDens.en.tmp) ****
Finished Guess after   1.0 sec
Maximum memory used throughout the entire GUESS-calculation: 72.7 MB


           ************************************************************
           *        Program running with 4 parallel MPI-processes     *
           *              working on a common directory               *
           ************************************************************

-------------------------------------------------------------------------------------------
                                      ORCA LEAN-SCF
                              memory conserving SCF solver
-------------------------------------------------------------------------------------------

--------------------
CPCM SOLVATION MODEL
--------------------
CPCM parameters:
  Epsilon                                         ...       4.7113
  Refrac                                          ...       1.4459
  Rsolv                                           ...       1.3000
  Surface type                                    ... GAUSSIAN VDW
  Discretization scheme                           ... Constant charge density
    Threshold for H atoms                         ...       5.0000 (charges/Ang^2)
    Threshold for non-H atoms                     ...       5.0000 (charges/Ang^2)
  Epsilon function type                           ...         CPCM
Solvent:                                          ... CHLOROFORM
SMD-CDS solvent descriptors:
  Soln                                            ...       1.4459
  Soln25                                          ...       1.4431
  Sola                                            ...       0.1500
  Solb                                            ...       0.0200
  Solg                                            ...      38.3900
  Solc                                            ...       0.0000
  Solh                                            ...       0.7500
Radii:
  Scheme                                          ... Element-dependent radii
  Radius for C  used is    3.4960 Bohr (=   1.8500 Ang.)
  Radius for N  used is    3.5716 Bohr (=   1.8900 Ang.)
  Radius for O  used is    3.8248 Bohr (=   2.0240 Ang.)
  Radius for H  used is    2.2677 Bohr (=   1.2000 Ang.)
Calculating surface                               ...        done! (  0.0s)
Cavity surface points                             ...         4500
Cavity Volume                                     ...    3248.2503
Cavity Surface-area                               ...    1731.4466
Calculating surface distance matrix               ...        done! (  0.3s)
Performing Cholesky decomposition & store         ...        done! (  1.6s)
Overall time for CPCM initialization              ...                 1.9s

----------------------------------------D-I-I-S--------------------------------------------
Iteration    Energy (Eh)           Delta-E    RMSDP     MaxDP     DIISErr   Damp  Time(sec)
-------------------------------------------------------------------------------------------
               ***  Starting incremental Fock matrix formation  ***
                              *** Initializing SOSCF ***
---------------------------------------S-O-S-C-F--------------------------------------
Iteration    Energy (Eh)           Delta-E    RMSDP     MaxDP     MaxGrad    Time(sec)
--------------------------------------------------------------------------------------
    1    -1542.1470729502407266     0.00e+00  5.94e-05  2.23e-03  1.09e-04    19.6
               *** Restarting incremental Fock matrix formation ***
    2    -1542.1471168755933832    -4.39e-05  2.17e-05  5.92e-04  1.09e-04    19.1
    3    -1542.1471203669225360    -3.49e-06  8.55e-06  5.40e-04  3.35e-05    11.8
    4    -1542.1471200687756209     2.98e-07  5.52e-06  3.94e-04  7.62e-05    13.4
    5    -1542.1471204423469317    -3.74e-07  3.75e-06  1.52e-04  8.52e-06    11.6
    6    -1542.1471204063363984     3.60e-08  2.17e-06  1.02e-04  1.63e-05    10.7
    7    -1542.1471204500476233    -4.37e-08  2.93e-06  2.02e-04  1.51e-06    11.2
                  *** Gradient check signals convergence ***

               *****************************************************
               *                     SUCCESS                       *
               *           SCF CONVERGED AFTER   7 CYCLES          *
               *****************************************************


SMD CDS free energy correction energy :                -7.78017     Kcal/mol
Total Energy after SMD CDS correction =             -1542.159518920 Eh
             **** ENERGY FILE WAS UPDATED (Apixaban_SMD_chloroform_Opt_Freq_KeepDens.en.tmp) ****

----------------
TOTAL SCF ENERGY
----------------

Total Energy       :      -1542.15951891981308 Eh          -41964.29393 eV

Components:
Nuclear Repulsion  :       3308.59639273808625 Eh           90031.48496 eV
Electronic Energy  :      -4850.70352865547284 Eh         -131994.35348 eV
One Electron Energy:      -8678.78943966423867 Eh         -236161.86689 eV
Two Electron Energy:       3828.08591100876538 Eh          104167.51341 eV
CPCM Dielectric    :         -0.03998451587506 Eh              -1.08803 eV
SMD CDS (Gcds)     :         -0.01239848655010 Eh              -0.33738 eV

Virial components:
Potential Energy   :      -3077.47879774256671 Eh          -83742.45547 eV
Kinetic Energy     :       1535.31927882275363 Eh           41778.16154 eV
Virial Ratio       :          2.00445525578387

DFT components:
N(Alpha)           :      120.999968351424 electrons
N(Beta)            :      120.999968351424 electrons
N(Total)           :      241.999936702849 electrons
E(X)               :     -205.555952311738 Eh       
E(C)               :       -7.985451809604 Eh       
E(XC)              :     -213.541404121341 Eh       

CPCM Solvation Model Properties:
Surface-charge          :         -0.05713827640138
Corrected charge        :         -0.00000000000000
Outlying charge corr.   :          0.00011320851606 Eh               0.00308 eV
Free-energy (cav+disp)  :         -0.01239848655010 Eh              -0.33738 eV

---------------
SCF CONVERGENCE
---------------

  Last Energy change         ...    4.3711e-08  Tolerance :   1.0000e-08
  Last MAX-Density change    ...    2.0195e-04  Tolerance :   1.0000e-07
  Last RMS-Density change    ...    2.9348e-06  Tolerance :   5.0000e-09
  Last DIIS Error            ...    1.8334e-03  Tolerance :   5.0000e-07
  Last Orbital Gradient      ...    1.5128e-06  Tolerance :   1.0000e-05
  Last Orbital Rotation      ...    8.8549e-06  Tolerance :   1.0000e-05


----------------
ORBITAL ENERGIES
----------------

  NO   OCC          E(Eh)            E(eV) 
   0   2.0000     -18.991022      -516.7720 
   1   2.0000     -18.925884      -514.9995 
   2   2.0000     -18.918902      -514.8095 
   3   2.0000     -18.911494      -514.6079 
   4   2.0000     -14.266156      -388.2018 
   5   2.0000     -14.207408      -386.6032 
   6   2.0000     -14.199783      -386.3957 
   7   2.0000     -14.199552      -386.3895 
   8   2.0000     -14.178343      -385.8123 
   9   2.0000     -10.146998      -276.1139 
  10   2.0000     -10.139471      -275.9090 
  11   2.0000     -10.128338      -275.6061 
  12   2.0000     -10.103127      -274.9201 
  13   2.0000     -10.083057      -274.3739 
  14   2.0000     -10.081224      -274.3240 
  15   2.0000     -10.080400      -274.3016 
  16   2.0000     -10.079679      -274.2820 
  17   2.0000     -10.077646      -274.2267 
  18   2.0000     -10.076034      -274.1828 
  19   2.0000     -10.071217      -274.0517 
  20   2.0000     -10.068776      -273.9853 
  21   2.0000     -10.054955      -273.6092 
  22   2.0000     -10.048768      -273.4409 
  23   2.0000     -10.046971      -273.3920 
  24   2.0000     -10.044989      -273.3380 
  25   2.0000     -10.042151      -273.2608 
  26   2.0000     -10.041358      -273.2393 
  27   2.0000     -10.041242      -273.2361 
  28   2.0000     -10.039008      -273.1753 
  29   2.0000     -10.038641      -273.1653 
  30   2.0000     -10.038270      -273.1552 
  31   2.0000     -10.033486      -273.0250 
  32   2.0000     -10.032134      -272.9883 
  33   2.0000     -10.030341      -272.9395 
  34   2.0000      -1.043188       -28.3866 
  35   2.0000      -1.035387       -28.1743 
  36   2.0000      -1.009883       -27.4803 
  37   2.0000      -0.999210       -27.1899 
  38   2.0000      -0.997859       -27.1531 
  39   2.0000      -0.920417       -25.0458 
  40   2.0000      -0.909502       -24.7488 
  41   2.0000      -0.874323       -23.7915 
  42   2.0000      -0.849685       -23.1211 
  43   2.0000      -0.825659       -22.4673 
  44   2.0000      -0.804541       -21.8927 
  45   2.0000      -0.795322       -21.6418 
  46   2.0000      -0.772035       -21.0082 
  47   2.0000      -0.739968       -20.1356 
  48   2.0000      -0.728388       -19.8205 
  49   2.0000      -0.723648       -19.6915 
  50   2.0000      -0.716612       -19.5000 
  51   2.0000      -0.711067       -19.3491 
  52   2.0000      -0.709266       -19.3001 
  53   2.0000      -0.670532       -18.2461 
  54   2.0000      -0.643474       -17.5098 
  55   2.0000      -0.633443       -17.2369 
  56   2.0000      -0.623238       -16.9592 
  57   2.0000      -0.619232       -16.8502 
  58   2.0000      -0.591728       -16.1018 
  59   2.0000      -0.590664       -16.0728 
  60   2.0000      -0.577477       -15.7140 
  61   2.0000      -0.567552       -15.4439 
  62   2.0000      -0.555388       -15.1129 
  63   2.0000      -0.541888       -14.7455 
  64   2.0000      -0.529586       -14.4108 
  65   2.0000      -0.516812       -14.0632 
  66   2.0000      -0.507570       -13.8117 
  67   2.0000      -0.502986       -13.6870 
  68   2.0000      -0.491165       -13.3653 
  69   2.0000      -0.479344       -13.0436 
  70   2.0000      -0.474400       -12.9091 
  71   2.0000      -0.471665       -12.8347 
  72   2.0000      -0.464275       -12.6336 
  73   2.0000      -0.457644       -12.4531 
  74   2.0000      -0.445681       -12.1276 
  75   2.0000      -0.435576       -11.8526 
  76   2.0000      -0.433624       -11.7995 
  77   2.0000      -0.427719       -11.6388 
  78   2.0000      -0.425391       -11.5755 
  79   2.0000      -0.420739       -11.4489 
  80   2.0000      -0.418766       -11.3952 
  81   2.0000      -0.413856       -11.2616 
  82   2.0000      -0.410291       -11.1646 
  83   2.0000      -0.402009       -10.9392 
  84   2.0000      -0.400526       -10.8989 
  85   2.0000      -0.397675       -10.8213 
  86   2.0000      -0.396422       -10.7872 
  87   2.0000      -0.391852       -10.6628 
  88   2.0000      -0.386721       -10.5232 
  89   2.0000      -0.383669       -10.4402 
  90   2.0000      -0.378214       -10.2917 
  91   2.0000      -0.376268       -10.2388 
  92   2.0000      -0.372683       -10.1412 
  93   2.0000      -0.370490       -10.0815 
  94   2.0000      -0.364093        -9.9075 
  95   2.0000      -0.359222        -9.7749 
  96   2.0000      -0.355816        -9.6822 
  97   2.0000      -0.352007        -9.5786 
  98   2.0000      -0.345150        -9.3920 
  99   2.0000      -0.337586        -9.1862 
 100   2.0000      -0.332540        -9.0489 
 101   2.0000      -0.323786        -8.8107 
 102   2.0000      -0.318336        -8.6624 
 103   2.0000      -0.312803        -8.5118 
 104   2.0000      -0.304400        -8.2832 
 105   2.0000      -0.303443        -8.2571 
 106   2.0000      -0.301786        -8.2120 
 107   2.0000      -0.301362        -8.2005 
 108   2.0000      -0.285304        -7.7635 
 109   2.0000      -0.269929        -7.3451 
 110   2.0000      -0.252018        -6.8578 
 111   2.0000      -0.251329        -6.8390 
 112   2.0000      -0.247280        -6.7288 
 113   2.0000      -0.245454        -6.6791 
 114   2.0000      -0.241199        -6.5634 
 115   2.0000      -0.231948        -6.3116 
 116   2.0000      -0.229887        -6.2555 
 117   2.0000      -0.227024        -6.1776 
 118   2.0000      -0.215964        -5.8767 
 119   2.0000      -0.205532        -5.5928 
 120   2.0000      -0.197253        -5.3675 
 121   0.0000      -0.078558        -2.1377 
 122   0.0000      -0.051671        -1.4060 
 123   0.0000      -0.041964        -1.1419 
 124   0.0000      -0.037603        -1.0232 
 125   0.0000      -0.035088        -0.9548 
 126   0.0000      -0.025108        -0.6832 
 127   0.0000       0.002382         0.0648 
 128   0.0000       0.052355         1.4246 
 129   0.0000       0.061569         1.6754 
 130   0.0000       0.069839         1.9004 
 131   0.0000       0.073216         1.9923 
*Only the first 10 virtual orbitals were printed.

                    ********************************
                    * MULLIKEN POPULATION ANALYSIS *
                    ********************************

-----------------------
MULLIKEN ATOMIC CHARGES
-----------------------
   0 C :   -0.264938
   1 C :   -0.361218
   2 C :    0.241711
   3 N :    0.252598
   4 C :   -0.279050
   5 C :   -0.327318
   6 C :    0.041919
   7 C :   -0.305869
   8 C :   -0.299451
   9 C :    0.033662
  10 C :   -0.265258
  11 C :   -0.280723
  12 N :    0.312794
  13 C :   -0.292490
  14 C :   -0.482751
  15 C :    0.007820
  16 C :   -0.011867
  17 C :   -0.047741
  18 O :   -0.469658
  19 O :   -0.432982
  20 C :    0.307624
  21 N :   -0.512948
  22 N :    0.898926
  23 C :   -0.050958
  24 C :    0.025172
  25 N :   -0.418947
  26 O :   -0.438840
  27 C :   -0.222286
  28 C :   -0.350357
  29 C :    0.334979
  30 C :   -0.251110
  31 C :   -0.291299
  32 O :   -0.192152
  33 C :   -0.347178
  34 H :    0.163578
  35 H :    0.164689
  36 H :    0.190781
  37 H :    0.185381
  38 H :    0.178097
  39 H :    0.172136
  40 H :    0.171893
  41 H :    0.169252
  42 H :    0.183784
  43 H :    0.183310
  44 H :    0.174285
  45 H :    0.173387
  46 H :    0.182655
  47 H :    0.192534
  48 H :    0.202172
  49 H :    0.201310
  50 H :    0.305884
  51 H :    0.289688
  52 H :    0.188719
  53 H :    0.184934
  54 H :    0.182929
  55 H :    0.184906
  56 H :    0.171605
  57 H :    0.171705
  58 H :    0.170570
Sum of atomic charges:   -0.0000000

--------------------------------
MULLIKEN REDUCED ORBITAL CHARGES
--------------------------------
  0 C s       :     3.212135  s :     3.212135
      pz      :     1.001697  p :     3.014288
      px      :     0.991352
      py      :     1.021239
      dz2     :     0.006433  d :     0.038515
      dxz     :     0.006915
      dyz     :     0.010176
      dx2y2   :     0.004569
      dxy     :     0.010421

  1 C s       :     3.253723  s :     3.253723
      pz      :     1.038081  p :     3.070189
      px      :     0.986996
      py      :     1.045111
      dz2     :     0.008354  d :     0.037307
      dxz     :     0.004415
      dyz     :     0.008593
      dx2y2   :     0.004631
      dxy     :     0.011313

  2 C s       :     3.152328  s :     3.152328
      pz      :     0.808006  p :     2.494328
      px      :     0.875574
      py      :     0.810748
      dz2     :     0.025272  d :     0.111634
      dxz     :     0.019193
      dyz     :     0.017979
      dx2y2   :     0.018411
      dxy     :     0.030779

  3 N s       :     3.127644  s :     3.127644
      pz      :     1.261879  p :     3.449111
      px      :     0.982416
      py      :     1.204816
      dz2     :     0.030015  d :     0.170647
      dxz     :     0.039926
      dyz     :     0.038106
      dx2y2   :     0.023980
      dxy     :     0.038621

  4 C s       :     3.304179  s :     3.304179
      pz      :     0.955817  p :     2.926060
      px      :     1.067251
      py      :     0.902992
      dz2     :     0.010184  d :     0.048811
      dxz     :     0.006884
      dyz     :     0.013835
      dx2y2   :     0.008065
      dxy     :     0.009843

  5 C s       :     3.266374  s :     3.266374
      pz      :     1.101224  p :     3.022291
      px      :     0.941174
      py      :     0.979893
      dz2     :     0.004642  d :     0.038654
      dxz     :     0.006676
      dyz     :     0.010518
      dx2y2   :     0.006060
      dxy     :     0.010758

  6 C s       :     3.235105  s :     3.235105
      pz      :     0.750001  p :     2.661460
      px      :     0.906653
      py      :     1.004806
      dz2     :     0.015130  d :     0.061516
      dxz     :     0.016554
      dyz     :     0.009747
      dx2y2   :     0.009993
      dxy     :     0.010093

  7 C s       :     3.297008  s :     3.297008
      pz      :     1.033551  p :     2.970785
      px      :     0.968761
      py      :     0.968474
      dz2     :     0.008522  d :     0.038076
      dxz     :     0.011780
      dyz     :     0.005030
      dx2y2   :     0.006292
      dxy     :     0.006452

  8 C s       :     3.285041  s :     3.285041
      pz      :     1.006803  p :     2.976423
      px      :     1.003209
      py      :     0.966411
      dz2     :     0.009305  d :     0.037987
      dxz     :     0.011637
      dyz     :     0.005711
      dx2y2   :     0.005730
      dxy     :     0.005603

  9 C s       :     3.224694  s :     3.224694
      pz      :     0.756389  p :     2.679921
      px      :     0.917912
      py      :     1.005620
      dz2     :     0.015238  d :     0.061723
      dxz     :     0.017963
      dyz     :     0.009447
      dx2y2   :     0.008646
      dxy     :     0.010430

 10 C s       :     3.305546  s :     3.305546
      pz      :     1.009647  p :     2.921830
      px      :     0.920919
      py      :     0.991265
      dz2     :     0.008533  d :     0.037882
      dxz     :     0.011590
      dyz     :     0.005101
      dx2y2   :     0.006317
      dxy     :     0.006342

 11 C s       :     3.280782  s :     3.280782
      pz      :     0.991842  p :     2.962077
      px      :     0.986552
      py      :     0.983683
      dz2     :     0.009108  d :     0.037864
      dxz     :     0.011454
      dyz     :     0.005853
      dx2y2   :     0.005993
      dxy     :     0.005455

 12 N s       :     3.132385  s :     3.132385
      pz      :     1.342784  p :     3.386287
      px      :     0.873115
      py      :     1.170388
      dz2     :     0.027432  d :     0.168534
      dxz     :     0.043232
      dyz     :     0.022763
      dx2y2   :     0.022645
      dxy     :     0.052462

 13 C s       :     3.330996  s :     3.330996
      pz      :     0.937168  p :     2.913628
      px      :     1.088570
      py      :     0.887890
      dz2     :     0.012041  d :     0.047866
      dxz     :     0.004054
      dyz     :     0.014228
      dx2y2   :     0.009001
      dxy     :     0.008542

 14 C s       :     3.448886  s :     3.448886
      pz      :     1.122061  p :     2.994579
      px      :     0.920641
      py      :     0.951877
      dz2     :     0.005437  d :     0.039285
      dxz     :     0.006186
      dyz     :     0.009580
      dx2y2   :     0.007087
      dxy     :     0.010994

 15 C s       :     3.343276  s :     3.343276
      pz      :     0.996497  p :     2.598335
      px      :     0.736338
      py      :     0.865500
      dz2     :     0.005119  d :     0.050569
      dxz     :     0.008194
      dyz     :     0.007789
      dx2y2   :     0.018197
      dxy     :     0.011269

 16 C s       :     3.223815  s :     3.223815
      pz      :     0.981074  p :     2.729431
      px      :     0.945482
      py      :     0.802874
      dz2     :     0.006842  d :     0.058620
      dxz     :     0.010202
      dyz     :     0.006884
      dx2y2   :     0.017885
      dxy     :     0.016807

 17 C s       :     3.244637  s :     3.244637
      pz      :     0.790657  p :     2.688174
      px      :     1.016873
      py      :     0.880644
      dz2     :     0.016232  d :     0.114930
      dxz     :     0.018866
      dyz     :     0.015960
      dx2y2   :     0.021476
      dxy     :     0.042395

 18 O s       :     3.827520  s :     3.827520
      pz      :     1.504372  p :     4.615938
      px      :     1.741989
      py      :     1.369576
      dz2     :     0.004221  d :     0.026199
      dxz     :     0.003621
      dyz     :     0.010786
      dx2y2   :     0.007657
      dxy     :    -0.000085

 19 O s       :     3.848005  s :     3.848005
      pz      :     1.442140  p :     4.559304
      px      :     1.795157
      py      :     1.322007
      dz2     :     0.005341  d :     0.025672
      dxz     :     0.001635
      dyz     :     0.011828
      dx2y2   :     0.008079
      dxy     :    -0.001210

 20 C s       :     3.097546  s :     3.097546
      pz      :     0.980439  p :     2.533809
      px      :     0.758606
      py      :     0.794764
      dz2     :     0.005720  d :     0.061021
      dxz     :     0.010059
      dyz     :     0.008276
      dx2y2   :     0.017098
      dxy     :     0.019869

 21 N s       :     3.701562  s :     3.701562
      pz      :     1.194607  p :     3.717429
      px      :     1.522586
      py      :     1.000235
      dz2     :     0.018310  d :     0.093956
      dxz     :     0.021395
      dyz     :     0.022511
      dx2y2   :    -0.001538
      dxy     :     0.033278

 22 N s       :     2.772163  s :     2.772163
      pz      :     1.322799  p :     3.080036
      px      :     0.913934
      py      :     0.843302
      dz2     :     0.029064  d :     0.248875
      dxz     :     0.043419
      dyz     :     0.040146
      dx2y2   :     0.058509
      dxy     :     0.077738

 23 C s       :     3.244629  s :     3.244629
      pz      :     0.859296  p :     2.747031
      px      :     0.942970
      py      :     0.944765
      dz2     :     0.013933  d :     0.059297
      dxz     :     0.010595
      dyz     :     0.015657
      dx2y2   :     0.009637
      dxy     :     0.009475

 24 C s       :     3.160228  s :     3.160228
      pz      :     0.820669  p :     2.698125
      px      :     0.924891
      py      :     0.952565
      dz2     :     0.009005  d :     0.116475
      dxz     :     0.022136
      dyz     :     0.014116
      dx2y2   :     0.044995
      dxy     :     0.026224

 25 N s       :     3.422259  s :     3.422259
      pz      :     1.631805  p :     3.968614
      px      :     1.058348
      py      :     1.278462
      dz2     :     0.003400  d :     0.028074
      dxz     :     0.003831
      dyz     :     0.003554
      dx2y2   :     0.008329
      dxy     :     0.008960

 26 O s       :     3.826948  s :     3.826948
      pz      :     1.493671  p :     4.587572
      px      :     1.620789
      py      :     1.473113
      dz2     :     0.004655  d :     0.024319
      dxz     :     0.004264
      dyz     :     0.005387
      dx2y2   :    -0.001079
      dxy     :     0.011092

 27 C s       :     3.226653  s :     3.226653
      pz      :     0.962647  p :     2.956661
      px      :     1.019496
      py      :     0.974517
      dz2     :     0.009897  d :     0.038972
      dxz     :     0.007329
      dyz     :     0.009385
      dx2y2   :     0.005380
      dxy     :     0.006982

 28 C s       :     3.289963  s :     3.289963
      pz      :     1.039880  p :     3.023901
      px      :     0.997871
      py      :     0.986150
      dz2     :     0.006796  d :     0.036494
      dxz     :     0.005881
      dyz     :     0.009452
      dx2y2   :     0.007061
      dxy     :     0.007304

 29 C s       :     3.092241  s :     3.092241
      pz      :     0.791196  p :     2.497629
      px      :     0.897744
      py      :     0.808689
      dz2     :     0.015190  d :     0.075151
      dxz     :     0.013155
      dyz     :     0.018508
      dx2y2   :     0.015190
      dxy     :     0.013109

 30 C s       :     3.218237  s :     3.218237
      pz      :     0.941371  p :     2.996576
      px      :     1.060309
      py      :     0.994897
      dz2     :     0.009087  d :     0.036296
      dxz     :     0.006555
      dyz     :     0.009187
      dx2y2   :     0.004880
      dxy     :     0.006587

 31 C s       :     3.288623  s :     3.288623
      pz      :     1.034603  p :     2.963800
      px      :     0.948178
      py      :     0.981019
      dz2     :     0.007078  d :     0.038876
      dxz     :     0.006042
      dyz     :     0.009582
      dx2y2   :     0.008686
      dxy     :     0.007487

 32 O s       :     3.708981  s :     3.708981
      pz      :     1.628000  p :     4.444701
      px      :     1.512776
      py      :     1.303925
      dz2     :     0.008897  d :     0.038471
      dxz     :     0.008069
      dyz     :     0.012284
      dx2y2   :     0.004577
      dxy     :     0.004643

 33 C s       :     3.358951  s :     3.358951
      pz      :     1.029354  p :     2.942502
      px      :     0.916467
      py      :     0.996681
      dz2     :     0.007072  d :     0.045725
      dxz     :     0.008861
      dyz     :     0.010824
      dx2y2   :     0.008140
      dxy     :     0.010829

 34 H s       :     0.818928  s :     0.818928
      pz      :     0.007856  p :     0.017494
      px      :     0.004229
      py      :     0.005408

 35 H s       :     0.817582  s :     0.817582
      pz      :     0.004042  p :     0.017729
      px      :     0.007571
      py      :     0.006116

 36 H s       :     0.791383  s :     0.791383
      pz      :     0.008811  p :     0.017836
      px      :     0.003616
      py      :     0.005409

 37 H s       :     0.796917  s :     0.796917
      pz      :     0.003770  p :     0.017702
      px      :     0.007024
      py      :     0.006908

 38 H s       :     0.804191  s :     0.804191
      pz      :     0.003414  p :     0.017712
      px      :     0.009269
      py      :     0.005028

 39 H s       :     0.810483  s :     0.810483
      pz      :     0.009062  p :     0.017381
      px      :     0.004164
      py      :     0.004156

 40 H s       :     0.810653  s :     0.810653
      pz      :     0.007836  p :     0.017454
      px      :     0.004257
      py      :     0.005361

 41 H s       :     0.813083  s :     0.813083
      pz      :     0.007270  p :     0.017665
      px      :     0.003757
      py      :     0.006638

 42 H s       :     0.796703  s :     0.796703
      pz      :     0.011016  p :     0.019513
      px      :     0.004174
      py      :     0.004323

 43 H s       :     0.797167  s :     0.797167
      pz      :     0.009028  p :     0.019523
      px      :     0.006566
      py      :     0.003929

 44 H s       :     0.806109  s :     0.806109
      pz      :     0.010982  p :     0.019607
      px      :     0.004104
      py      :     0.004520

 45 H s       :     0.807020  s :     0.807020
      pz      :     0.009076  p :     0.019593
      px      :     0.006428
      py      :     0.004089

 46 H s       :     0.799340  s :     0.799340
      pz      :     0.003111  p :     0.018004
      px      :     0.010545
      py      :     0.004348

 47 H s       :     0.790216  s :     0.790216
      pz      :     0.009452  p :     0.017250
      px      :     0.003870
      py      :     0.003929

 48 H s       :     0.780118  s :     0.780118
      pz      :     0.007868  p :     0.017710
      px      :     0.004182
      py      :     0.005660

 49 H s       :     0.780607  s :     0.780607
      pz      :     0.007829  p :     0.018083
      px      :     0.003466
      py      :     0.006788

 50 H s       :     0.661006  s :     0.661006
      pz      :     0.010514  p :     0.033110
      px      :     0.008373
      py      :     0.014222

 51 H s       :     0.677619  s :     0.677619
      pz      :     0.009759  p :     0.032693
      px      :     0.006871
      py      :     0.016063

 52 H s       :     0.791800  s :     0.791800
      pz      :     0.005887  p :     0.019481
      px      :     0.007890
      py      :     0.005703

 53 H s       :     0.795629  s :     0.795629
      pz      :     0.011024  p :     0.019436
      px      :     0.004130
      py      :     0.004282

 54 H s       :     0.796932  s :     0.796932
      pz      :     0.006229  p :     0.020139
      px      :     0.008024
      py      :     0.005886

 55 H s       :     0.795643  s :     0.795643
      pz      :     0.011015  p :     0.019451
      px      :     0.004091
      py      :     0.004345

 56 H s       :     0.810994  s :     0.810994
      pz      :     0.009492  p :     0.017401
      px      :     0.003713
      py      :     0.004196

 57 H s       :     0.810803  s :     0.810803
      pz      :     0.005759  p :     0.017492
      px      :     0.003498
      py      :     0.008235

 58 H s       :     0.812022  s :     0.812022
      pz      :     0.003576  p :     0.017408
      px      :     0.008816
      py      :     0.005016



                     *******************************
                     * LOEWDIN POPULATION ANALYSIS *
                     *******************************

----------------------
LOEWDIN ATOMIC CHARGES
----------------------
   0 C :   -0.290085
   1 C :   -0.232842
   2 C :    0.358704
   3 N :   -0.747512
   4 C :   -0.009973
   5 C :   -0.268897
   6 C :    0.138570
   7 C :   -0.103193
   8 C :   -0.105682
   9 C :    0.140019
  10 C :   -0.128151
  11 C :   -0.125717
  12 N :   -0.737058
  13 C :    0.002675
  14 C :   -0.225222
  15 C :    0.030383
  16 C :    0.255489
  17 C :    0.400387
  18 O :   -0.506322
  19 O :   -0.464712
  20 C :    0.212044
  21 N :   -0.339863
  22 N :   -0.568502
  23 C :    0.150491
  24 C :    0.344472
  25 N :   -0.459620
  26 O :   -0.499189
  27 C :   -0.085448
  28 C :   -0.132296
  29 C :    0.191103
  30 C :   -0.167979
  31 C :   -0.095912
  32 O :   -0.681766
  33 C :   -0.054151
  34 H :    0.163698
  35 H :    0.163665
  36 H :    0.189540
  37 H :    0.185163
  38 H :    0.194907
  39 H :    0.180018
  40 H :    0.166735
  41 H :    0.169545
  42 H :    0.194127
  43 H :    0.193804
  44 H :    0.189363
  45 H :    0.188580
  46 H :    0.202547
  47 H :    0.186132
  48 H :    0.185415
  49 H :    0.191103
  50 H :    0.280250
  51 H :    0.274853
  52 H :    0.195955
  53 H :    0.193206
  54 H :    0.191131
  55 H :    0.193164
  56 H :    0.173707
  57 H :    0.185560
  58 H :    0.173586

-------------------------------
LOEWDIN REDUCED ORBITAL CHARGES
-------------------------------
  0 C s       :     2.929784  s :     2.929784
      pz      :     1.100396  p :     3.279344
      px      :     1.084744
      py      :     1.094203
      dz2     :     0.013184  d :     0.080957
      dxz     :     0.014285
      dyz     :     0.022389
      dx2y2   :     0.008406
      dxy     :     0.022693

  1 C s       :     2.921372  s :     2.921372
      pz      :     1.099338  p :     3.235658
      px      :     1.044473
      py      :     1.091846
      dz2     :     0.016547  d :     0.075812
      dxz     :     0.008071
      dyz     :     0.019277
      dx2y2   :     0.008332
      dxy     :     0.023584

  2 C s       :     2.733521  s :     2.733521
      pz      :     0.842752  p :     2.671083
      px      :     0.929567
      py      :     0.898764
      dz2     :     0.050036  d :     0.236692
      dxz     :     0.039543
      dyz     :     0.044259
      dx2y2   :     0.037686
      dxy     :     0.065168

  3 N s       :     3.094154  s :     3.094154
      pz      :     1.350508  p :     3.940365
      px      :     1.245455
      py      :     1.344403
      dz2     :     0.129391  d :     0.712993
      dxz     :     0.149838
      dyz     :     0.130632
      dx2y2   :     0.151175
      dxy     :     0.151957

  4 C s       :     2.846144  s :     2.846144
      pz      :     1.004895  p :     3.058717
      px      :     1.074492
      py      :     0.979330
      dz2     :     0.022650  d :     0.105112
      dxz     :     0.015199
      dyz     :     0.029128
      dx2y2   :     0.014980
      dxy     :     0.023154

  5 C s       :     2.927718  s :     2.927718
      pz      :     1.130645  p :     3.260859
      px      :     1.057942
      py      :     1.072272
      dz2     :     0.009306  d :     0.080320
      dxz     :     0.013940
      dyz     :     0.023665
      dx2y2   :     0.011318
      dxy     :     0.022092

  6 C s       :     2.777390  s :     2.777390
      pz      :     1.081587  p :     2.953927
      px      :     0.934140
      py      :     0.938201
      dz2     :     0.031881  d :     0.130113
      dxz     :     0.037298
      dyz     :     0.019230
      dx2y2   :     0.020498
      dxy     :     0.021207

  7 C s       :     2.895488  s :     2.895488
      pz      :     1.088636  p :     3.127786
      px      :     1.045047
      py      :     0.994102
      dz2     :     0.019840  d :     0.079920
      dxz     :     0.025684
      dyz     :     0.009799
      dx2y2   :     0.011961
      dxy     :     0.012636

  8 C s       :     2.894958  s :     2.894958
      pz      :     1.072742  p :     3.131028
      px      :     1.062592
      py      :     0.995694
      dz2     :     0.020853  d :     0.079696
      dxz     :     0.026177
      dyz     :     0.011091
      dx2y2   :     0.010692
      dxy     :     0.010884

  9 C s       :     2.776005  s :     2.776005
      pz      :     1.079438  p :     2.953741
      px      :     0.933120
      py      :     0.941183
      dz2     :     0.032038  d :     0.130235
      dxz     :     0.040324
      dyz     :     0.018557
      dx2y2   :     0.017515
      dxy     :     0.021801

 10 C s       :     2.893451  s :     2.893451
      pz      :     1.085872  p :     3.155263
      px      :     1.056390
      py      :     1.013002
      dz2     :     0.019872  d :     0.079436
      dxz     :     0.025242
      dyz     :     0.009976
      dx2y2   :     0.012124
      dxy     :     0.012223

 11 C s       :     2.893399  s :     2.893399
      pz      :     1.079324  p :     3.152760
      px      :     1.068756
      py      :     1.004680
      dz2     :     0.020392  d :     0.079558
      dxz     :     0.025807
      dyz     :     0.011404
      dx2y2   :     0.011449
      dxy     :     0.010506

 12 N s       :     3.094684  s :     3.094684
      pz      :     1.412396  p :     3.931627
      px      :     1.196793
      py      :     1.322438
      dz2     :     0.119979  d :     0.710747
      dxz     :     0.137023
      dyz     :     0.110806
      dx2y2   :     0.169163
      dxy     :     0.173777

 13 C s       :     2.846023  s :     2.846023
      pz      :     1.003561  p :     3.047739
      px      :     1.077224
      py      :     0.966955
      dz2     :     0.027362  d :     0.103563
      dxz     :     0.008620
      dyz     :     0.029707
      dx2y2   :     0.017859
      dxy     :     0.020014

 14 C s       :     2.908823  s :     2.908823
      pz      :     1.141429  p :     3.235356
      px      :     1.027302
      py      :     1.066625
      dz2     :     0.010782  d :     0.081042
      dxz     :     0.012560
      dyz     :     0.021903
      dx2y2   :     0.013284
      dxy     :     0.022513

 15 C s       :     2.834157  s :     2.834157
      pz      :     0.977288  p :     3.036813
      px      :     1.036026
      py      :     1.023498
      dz2     :     0.008852  d :     0.098647
      dxz     :     0.014404
      dyz     :     0.014152
      dx2y2   :     0.037946
      dxy     :     0.023293

 16 C s       :     2.748733  s :     2.748733
      pz      :     0.960623  p :     2.875441
      px      :     0.916483
      py      :     0.998334
      dz2     :     0.013518  d :     0.120337
      dxz     :     0.018563
      dyz     :     0.013830
      dx2y2   :     0.040657
      dxy     :     0.033770

 17 C s       :     2.708904  s :     2.708904
      pz      :     0.810911  p :     2.647720
      px      :     0.913095
      py      :     0.923713
      dz2     :     0.031063  d :     0.242989
      dxz     :     0.038371
      dyz     :     0.037346
      dx2y2   :     0.046455
      dxy     :     0.089754

 18 O s       :     3.551705  s :     3.551705
      pz      :     1.530565  p :     4.724236
      px      :     1.715893
      py      :     1.477778
      dz2     :     0.042163  d :     0.230382
      dxz     :     0.028102
      dyz     :     0.059407
      dx2y2   :     0.045158
      dxy     :     0.055552

 19 O s       :     3.547954  s :     3.547954
      pz      :     1.482352  p :     4.688107
      px      :     1.742901
      py      :     1.462854
      dz2     :     0.033309  d :     0.228651
      dxz     :     0.026682
      dyz     :     0.058864
      dx2y2   :     0.053601
      dxy     :     0.056194

 20 C s       :     2.770480  s :     2.770480
      pz      :     0.943801  p :     2.893109
      px      :     0.996368
      py      :     0.952941
      dz2     :     0.010788  d :     0.124367
      dxz     :     0.019420
      dyz     :     0.014827
      dx2y2   :     0.038134
      dxy     :     0.041198

 21 N s       :     3.156264  s :     3.156264
      pz      :     1.140139  p :     3.615266
      px      :     1.407581
      py      :     1.067547
      dz2     :     0.080220  d :     0.568334
      dxz     :     0.064027
      dyz     :     0.125024
      dx2y2   :     0.141436
      dxy     :     0.157626

 22 N s       :     2.983935  s :     2.983935
      pz      :     1.312660  p :     3.665866
      px      :     1.166747
      py      :     1.186460
      dz2     :     0.097028  d :     0.918701
      dxz     :     0.173445
      dyz     :     0.131835
      dx2y2   :     0.256069
      dxy     :     0.260323

 23 C s       :     2.765961  s :     2.765961
      pz      :     1.039531  p :     2.959649
      px      :     0.999681
      py      :     0.920437
      dz2     :     0.029133  d :     0.123898
      dxz     :     0.021576
      dyz     :     0.033140
      dx2y2   :     0.019233
      dxy     :     0.020818

 24 C s       :     2.733168  s :     2.733168
      pz      :     0.770530  p :     2.676983
      px      :     0.964900
      py      :     0.941553
      dz2     :     0.019548  d :     0.245377
      dxz     :     0.043282
      dyz     :     0.026864
      dx2y2   :     0.095708
      dxy     :     0.059975

 25 N s       :     3.136663  s :     3.136663
      pz      :     1.572977  p :     4.060001
      px      :     1.207524
      py      :     1.279501
      dz2     :     0.029352  d :     0.262956
      dxz     :     0.050236
      dyz     :     0.014807
      dx2y2   :     0.064149
      dxy     :     0.104412

 26 O s       :     3.555720  s :     3.555720
      pz      :     1.498728  p :     4.726415
      px      :     1.651128
      py      :     1.576559
      dz2     :     0.027321  d :     0.217054
      dxz     :     0.029654
      dyz     :     0.037712
      dx2y2   :     0.066718
      dxy     :     0.055648

 27 C s       :     2.895587  s :     2.895587
      pz      :     1.041548  p :     3.108567
      px      :     1.018033
      py      :     1.048986
      dz2     :     0.020710  d :     0.081294
      dxz     :     0.015347
      dyz     :     0.020714
      dx2y2   :     0.010332
      dxy     :     0.014191

 28 C s       :     2.894283  s :     2.894283
      pz      :     1.084136  p :     3.161378
      px      :     1.025650
      py      :     1.051591
      dz2     :     0.015502  d :     0.076635
      dxz     :     0.012306
      dyz     :     0.020178
      dx2y2   :     0.013756
      dxy     :     0.014894

 29 C s       :     2.781479  s :     2.781479
      pz      :     1.025732  p :     2.866953
      px      :     0.946634
      py      :     0.894587
      dz2     :     0.031698  d :     0.160466
      dxz     :     0.026200
      dyz     :     0.042832
      dx2y2   :     0.031346
      dxy     :     0.028390

 30 C s       :     2.893734  s :     2.893734
      pz      :     1.055188  p :     3.197519
      px      :     1.072152
      py      :     1.070179
      dz2     :     0.018956  d :     0.076726
      dxz     :     0.014093
      dyz     :     0.020638
      dx2y2   :     0.009592
      dxy     :     0.013446

 31 C s       :     2.895137  s :     2.895137
      pz      :     1.079168  p :     3.119765
      px      :     1.004463
      py      :     1.036134
      dz2     :     0.015949  d :     0.081009
      dxz     :     0.012646
      dyz     :     0.020329
      dx2y2   :     0.016791
      dxy     :     0.015295

 32 O s       :     3.474969  s :     3.474969
      pz      :     1.660764  p :     4.724164
      px      :     1.595374
      py      :     1.468025
      dz2     :     0.081825  d :     0.482634
      dxz     :     0.071432
      dyz     :     0.102382
      dx2y2   :     0.109947
      dxy     :     0.117048

 33 C s       :     2.910044  s :     2.910044
      pz      :     1.047584  p :     3.038619
      px      :     0.971238
      py      :     1.019797
      dz2     :     0.016471  d :     0.105488
      dxz     :     0.020969
      dyz     :     0.025519
      dx2y2   :     0.017751
      dxy     :     0.024779

 34 H s       :     0.793573  s :     0.793573
      pz      :     0.019486  p :     0.042729
      px      :     0.010030
      py      :     0.013212

 35 H s       :     0.793068  s :     0.793068
      pz      :     0.009661  p :     0.043267
      px      :     0.018600
      py      :     0.015006

 36 H s       :     0.766583  s :     0.766583
      pz      :     0.022437  p :     0.043877
      px      :     0.008466
      py      :     0.012974

 37 H s       :     0.771372  s :     0.771372
      pz      :     0.008967  p :     0.043465
      px      :     0.016913
      py      :     0.017584

 38 H s       :     0.764081  s :     0.764081
      pz      :     0.007106  p :     0.041012
      px      :     0.022804
      py      :     0.011102

 39 H s       :     0.779212  s :     0.779212
      pz      :     0.020892  p :     0.040769
      px      :     0.009669
      py      :     0.010209

 40 H s       :     0.790482  s :     0.790482
      pz      :     0.019685  p :     0.042783
      px      :     0.010241
      py      :     0.012858

 41 H s       :     0.787120  s :     0.787120
      pz      :     0.018265  p :     0.043335
      px      :     0.009002
      py      :     0.016068

 42 H s       :     0.760867  s :     0.760867
      pz      :     0.026284  p :     0.045006
      px      :     0.009058
      py      :     0.009664

 43 H s       :     0.761207  s :     0.761207
      pz      :     0.021175  p :     0.044990
      px      :     0.015160
      py      :     0.008654

 44 H s       :     0.765287  s :     0.765287
      pz      :     0.026195  p :     0.045350
      px      :     0.009126
      py      :     0.010029

 45 H s       :     0.766136  s :     0.766136
      pz      :     0.021357  p :     0.045284
      px      :     0.014961
      py      :     0.008965

 46 H s       :     0.755785  s :     0.755785
      pz      :     0.006590  p :     0.041668
      px      :     0.025653
      py      :     0.009425

 47 H s       :     0.772861  s :     0.772861
      pz      :     0.022282  p :     0.041007
      px      :     0.009139
      py      :     0.009587

 48 H s       :     0.771372  s :     0.771372
      pz      :     0.020130  p :     0.043214
      px      :     0.009568
      py      :     0.013516

 49 H s       :     0.764393  s :     0.764393
      pz      :     0.020073  p :     0.044504
      px      :     0.007872
      py      :     0.016559

 50 H s       :     0.630969  s :     0.630969
      pz      :     0.026233  p :     0.088782
      px      :     0.023951
      py      :     0.038597

 51 H s       :     0.637762  s :     0.637762
      pz      :     0.024398  p :     0.087385
      px      :     0.019472
      py      :     0.043515

 52 H s       :     0.759127  s :     0.759127
      pz      :     0.013376  p :     0.044917
      px      :     0.018330
      py      :     0.013211

 53 H s       :     0.761657  s :     0.761657
      pz      :     0.026356  p :     0.045136
      px      :     0.009156
      py      :     0.009625

 54 H s       :     0.761965  s :     0.761965
      pz      :     0.014516  p :     0.046904
      px      :     0.018897
      py      :     0.013490

 55 H s       :     0.761889  s :     0.761889
      pz      :     0.026437  p :     0.044947
      px      :     0.008955
      py      :     0.009555

 56 H s       :     0.785269  s :     0.785269
      pz      :     0.022201  p :     0.041024
      px      :     0.009454
      py      :     0.009369

 57 H s       :     0.774574  s :     0.774574
      pz      :     0.014570  p :     0.039866
      px      :     0.006959
      py      :     0.018337

 58 H s       :     0.785386  s :     0.785386
      pz      :     0.007841  p :     0.041028
      px      :     0.020608
      py      :     0.012579



                      *****************************
                      * MAYER POPULATION ANALYSIS *
                      *****************************

  NA   - Mulliken gross atomic population
  ZA   - Total nuclear charge
  QA   - Mulliken gross atomic charge
  VA   - Mayer's total valence
  BVA  - Mayer's bonded valence
  FA   - Mayer's free valence

  ATOM       NA         ZA         QA         VA         BVA        FA
  0 C      6.2649     6.0000    -0.2649     3.6015     3.6015     0.0000
  1 C      6.3612     6.0000    -0.3612     3.7116     3.7116     0.0000
  2 C      5.7583     6.0000     0.2417     3.9287     3.9287     0.0000
  3 N      6.7474     7.0000     0.2526     3.1368     3.1368    -0.0000
  4 C      6.2791     6.0000    -0.2791     3.7276     3.7276    -0.0000
  5 C      6.3273     6.0000    -0.3273     3.7211     3.7211    -0.0000
  6 C      5.9581     6.0000     0.0419     3.7367     3.7367     0.0000
  7 C      6.3059     6.0000    -0.3059     3.7804     3.7804    -0.0000
  8 C      6.2995     6.0000    -0.2995     3.7610     3.7610    -0.0000
  9 C      5.9663     6.0000     0.0337     3.7548     3.7548    -0.0000
 10 C      6.2653     6.0000    -0.2653     3.6098     3.6098     0.0000
 11 C      6.2807     6.0000    -0.2807     3.6039     3.6039    -0.0000
 12 N      6.6872     7.0000     0.3128     3.0957     3.0957    -0.0000
 13 C      6.2925     6.0000    -0.2925     3.6902     3.6902     0.0000
 14 C      6.4828     6.0000    -0.4828     3.7028     3.7028    -0.0000
 15 C      5.9922     6.0000     0.0078     3.0492     3.0492    -0.0000
 16 C      6.0119     6.0000    -0.0119     3.6947     3.6947     0.0000
 17 C      6.0477     6.0000    -0.0477     3.9555     3.9555     0.0000
 18 O      8.4697     8.0000    -0.4697     1.9791     1.9791    -0.0000
 19 O      8.4330     8.0000    -0.4330     2.0386     2.0386     0.0000
 20 C      5.6924     6.0000     0.3076     3.5456     3.5456    -0.0000
 21 N      7.5129     7.0000    -0.5129     3.1476     3.1476    -0.0000
 22 N      6.1011     7.0000     0.8989     3.4068     3.4068     0.0000
 23 C      6.0510     6.0000    -0.0510     3.8383     3.8383     0.0000
 24 C      5.9748     6.0000     0.0252     4.1665     4.1665    -0.0000
 25 N      7.4189     7.0000    -0.4189     2.9825     2.9825     0.0000
 26 O      8.4388     8.0000    -0.4388     2.0030     2.0030     0.0000
 27 C      6.2223     6.0000    -0.2223     3.7494     3.7494     0.0000
 28 C      6.3504     6.0000    -0.3504     3.7709     3.7709     0.0000
 29 C      5.6650     6.0000     0.3350     3.7800     3.7800     0.0000
 30 C      6.2511     6.0000    -0.2511     3.6536     3.6536    -0.0000
 31 C      6.2913     6.0000    -0.2913     3.7037     3.7037    -0.0000
 32 O      8.1922     8.0000    -0.1922     2.0052     2.0052    -0.0000
 33 C      6.3472     6.0000    -0.3472     3.7346     3.7346     0.0000
 34 H      0.8364     1.0000     0.1636     0.9608     0.9608     0.0000
 35 H      0.8353     1.0000     0.1647     0.9571     0.9571     0.0000
 36 H      0.8092     1.0000     0.1908     0.9504     0.9504     0.0000
 37 H      0.8146     1.0000     0.1854     0.9525     0.9525     0.0000
 38 H      0.8219     1.0000     0.1781     0.9453     0.9453    -0.0000
 39 H      0.8279     1.0000     0.1721     0.9454     0.9454     0.0000
 40 H      0.8281     1.0000     0.1719     0.9592     0.9592     0.0000
 41 H      0.8307     1.0000     0.1693     0.9558     0.9558     0.0000
 42 H      0.8162     1.0000     0.1838     0.9579     0.9579    -0.0000
 43 H      0.8167     1.0000     0.1833     0.9571     0.9571    -0.0000
 44 H      0.8257     1.0000     0.1743     0.9632     0.9632     0.0000
 45 H      0.8266     1.0000     0.1734     0.9643     0.9643    -0.0000
 46 H      0.8173     1.0000     0.1827     0.9474     0.9474     0.0000
 47 H      0.8075     1.0000     0.1925     0.9324     0.9324    -0.0000
 48 H      0.7978     1.0000     0.2022     0.9416     0.9416    -0.0000
 49 H      0.7987     1.0000     0.2013     0.9468     0.9468    -0.0000
 50 H      0.6941     1.0000     0.3059     0.9076     0.9076     0.0000
 51 H      0.7103     1.0000     0.2897     0.9208     0.9208     0.0000
 52 H      0.8113     1.0000     0.1887     0.9556     0.9556     0.0000
 53 H      0.8151     1.0000     0.1849     0.9601     0.9601     0.0000
 54 H      0.8171     1.0000     0.1829     0.9593     0.9593     0.0000
 55 H      0.8151     1.0000     0.1849     0.9593     0.9593    -0.0000
 56 H      0.8284     1.0000     0.1716     0.9486     0.9486     0.0000
 57 H      0.8283     1.0000     0.1717     0.9529     0.9529    -0.0000
 58 H      0.8294     1.0000     0.1706     0.9489     0.9489     0.0000

  Mayer bond orders larger than 0.100000
B(  0-C ,  1-C ) :   0.8939 B(  0-C ,  5-C ) :   0.8799 B(  0-C , 34-H ) :   0.9804 
B(  0-C , 35-H ) :   0.9567 B(  1-C ,  2-C ) :   0.9226 B(  1-C , 36-H ) :   0.9403 
B(  1-C , 37-H ) :   0.9560 B(  2-C ,  3-N ) :   1.1750 B(  2-C , 18-O ) :   1.8067 
B(  3-N ,  4-C ) :   0.8764 B(  3-N ,  6-C ) :   0.9410 B(  4-C ,  5-C ) :   0.9404 
B(  4-C , 38-H ) :   0.9337 B(  4-C , 39-H ) :   0.9345 B(  5-C , 40-H ) :   0.9919 
B(  5-C , 41-H ) :   0.9524 B(  6-C ,  7-C ) :   1.3651 B(  6-C ,  9-C ) :   0.1288 
B(  6-C , 11-C ) :   1.3410 B(  7-C ,  8-C ) :   1.3687 B(  7-C , 42-H ) :   0.9430 
B(  8-C ,  9-C ) :   1.3744 B(  8-C , 43-H ) :   0.9427 B(  9-C , 10-C ) :   1.3430 
B(  9-C , 12-N ) :   0.9735 B( 10-C , 11-C ) :   1.2717 B( 10-C , 44-H ) :   0.9581 
B( 11-C , 45-H ) :   0.9504 B( 12-N , 13-C ) :   0.8033 B( 12-N , 17-C ) :   1.1639 
B( 13-C , 14-C ) :   0.9166 B( 13-C , 46-H ) :   0.9367 B( 13-C , 47-H ) :   0.9397 
B( 14-C , 15-C ) :   0.8253 B( 14-C , 48-H ) :   0.9821 B( 14-C , 49-H ) :   0.9926 
B( 15-C , 16-C ) :   1.1976 B( 15-C , 20-C ) :   1.1740 B( 15-C , 21-N ) :  -0.2083 
B( 16-C , 17-C ) :   0.9478 B( 16-C , 19-O ) :  -0.1007 B( 16-C , 21-N ) :   0.3137 
B( 16-C , 22-N ) :   1.2568 B( 17-C , 19-O ) :   1.8976 B( 20-C , 21-N ) :   1.4786 
B( 20-C , 24-C ) :   0.9537 B( 21-N , 22-N ) :   1.1803 B( 21-N , 23-C ) :   0.1258 
B( 22-N , 23-C ) :   0.9048 B( 23-C , 27-C ) :   1.3728 B( 23-C , 31-C ) :   1.3833 
B( 24-C , 25-N ) :   1.1128 B( 24-C , 26-O ) :   1.9508 B( 25-N , 50-H ) :   0.8846 
B( 25-N , 51-H ) :   0.9021 B( 27-C , 28-C ) :   1.3760 B( 27-C , 52-H ) :   0.9238 
B( 28-C , 29-C ) :   1.3552 B( 28-C , 53-H ) :   0.9480 B( 29-C , 30-C ) :   1.3425 
B( 29-C , 32-O ) :   1.0741 B( 30-C , 31-C ) :   1.3172 B( 30-C , 54-H ) :   0.9230 
B( 31-C , 55-H ) :   0.9586 B( 32-O , 33-C ) :   0.8464 B( 33-C , 56-H ) :   0.9556 
B( 33-C , 57-H ) :   0.9620 B( 33-C , 58-H ) :   0.9545 

-------
TIMINGS
-------

Total SCF time: 0 days 0 hours 1 min 50 sec 

Total time                  ....     110.753 sec
Sum of individual times     ....     100.478 sec  ( 90.7%)

SCF preparation             ....       2.395 sec  (  2.2%)
Fock matrix formation       ....      93.800 sec  ( 84.7%)
  Startup                   ....       0.082 sec  (  0.1% of F)
  Split-RI-J                ....      19.611 sec  ( 20.9% of F)
  XC integration            ....      50.094 sec  ( 53.4% of F)
    Basis function eval.    ....       8.706 sec  ( 17.4% of XC)
    Density eval.           ....      19.708 sec  ( 39.3% of XC)
    XC-Functional eval.     ....       1.843 sec  (  3.7% of XC)
    XC-Potential eval.      ....      17.689 sec  ( 35.3% of XC)
  CPCM terms                ....      33.274 sec  ( 35.5% of F)
Diagonalization             ....       0.000 sec  (  0.0%)
Density matrix formation    ....       0.390 sec  (  0.4%)
Total Energy calculation    ....       0.162 sec  (  0.1%)
Population analysis         ....       0.488 sec  (  0.4%)
Orbital Transformation      ....       0.329 sec  (  0.3%)
Orbital Orthonormalization  ....       0.000 sec  (  0.0%)
DIIS solution               ....       0.382 sec  (  0.3%)
SOSCF solution              ....       2.532 sec  (  2.3%)
Finished LeanSCF after 111.3 sec

Maximum memory used throughout the entire LEANSCF-calculation: 122.4 MB


           ************************************************************
           *        Program running with 4 parallel MPI-processes     *
           *              working on a common directory               *
           ************************************************************

------------------------------------------------------------------------------
                         ORCA PROPERTY INTEGRAL CALCULATIONS
------------------------------------------------------------------------------

GBWName                                   ... Apixaban_SMD_chloroform_Opt_Freq_KeepDens.gbw
Number of atoms                           ...     59
Number of basis functions                 ...    816
Max core memory                           ...   2000 MB

Dipole integrals                          ... YES
Quadrupole integrals                      ...  NO
Linear momentum integrals                 ...  NO
Angular momentum integrals                ...  NO
Higher moments length integrals           ...  NO
Higher moments velocity integrals         ...  NO
Kinetic energy integrals                  ...  NO
GIAO right hand sides                     ...  NO
GIAO dipole derivative integrals          ...  NO
SOC integrals                             ...  NO
EPR diamagnetic integrals (GIAO)          ...  NO
EPR gauge integrals                       ...  NO
Field gradient integrals                  ...  NO (   0 nuclei)
Spin-dipole/Fermi contact integrals       ...  NO (   0 nuclei)
Contact density integrals                 ...  NO (   0 nuclei)
Nucleus-orbit integrals                   ...  NO (   0 nuclei)
Geometric perturbations                   ... YES (  59 nuclei)

Choice of electric origin   ... Center of mass
Position of electric origin ... ( 60.3236,-38.1991, -0.0699) 
Choice of magnetic origin   ... GIAO
Position of magnetic origin ... (  0.0000,  0.0000,  0.0000) 

Calculating integrals                     ... Electric Dipole (Length)     done (  0.1 sec)
Calculating integrals                     ... Geometrical perturbation right hand sides

-----------------------
GEOMETRIC PERTURBATIONS (59 nuclei)
-----------------------

MaxCore                            ...   2000 MB
Number of batches                  ...      3

BATCH   0: Atoms    0 -   24 ( 75 perturbations)
   => H(core) and overlap derivative integrals     ... done (     3.3 sec)
   => Making and storing internal U-coefficients   ... done (     2.1 sec)
   => RI-J derivative integrals                    ... done (   116.8 sec)
   => RI-J response operators                      ... done (    19.6 sec)
   => XC derivative integrals                      ... done (   990.6 sec)
   => XC response operators                        ... done (   471.7 sec)
   => CPCM derivative integrals                    ... done (   206.6 sec)
   => CPCM response operators                      ... done (   316.8 sec)
   => Completing and storing right hand sides      ... done (     0.7 sec)
BATCH   1: Atoms   25 -   49 ( 75 perturbations)
   => H(core) and overlap derivative integrals     ... done (     3.1 sec)
   => Making and storing internal U-coefficients   ... done (     1.8 sec)
   => RI-J derivative integrals                    ... done (    60.6 sec)
   => RI-J response operators                      ... done (    19.3 sec)
   => XC derivative integrals                      ... done (   538.4 sec)
   => XC response operators                        ... done (   295.1 sec)
   => CPCM derivative integrals                    ... done (   187.7 sec)
   => CPCM response operators                      ... done (   287.2 sec)
   => Completing and storing right hand sides      ... done (     0.6 sec)
BATCH   2: Atoms   50 -   58 ( 27 perturbations)
   => H(core) and overlap derivative integrals     ... done (     0.8 sec)
   => Making and storing internal U-coefficients   ... done (     0.5 sec)
   => RI-J derivative integrals                    ... done (    19.8 sec)
   => RI-J response operators                      ... done (     7.5 sec)
   => XC derivative integrals                      ... done (   136.5 sec)
   => XC response operators                        ... done (    93.9 sec)
   => CPCM derivative integrals                    ... done (   134.7 sec)
   => CPCM response operators                      ... done (   173.5 sec)
   => Completing and storing right hand sides      ... done (     0.2 sec)
   => Total time for right hand sides = 3577.1 sec

  geometrical perturbations done (3577.2 sec)

Property integrals calculated in 3577.3 sec

Maximum memory used throughout the entire PROPINT-calculation: 1559.4 MB


-------------------------------------------------------------------------------
                          DFT DISPERSION CORRECTION                            
                                                                               
                                DFTD4 V3.4.0                                   
-------------------------------------------------------------------------------
The R2SCAN3C composite method is recognized
Using three-body term ABC
Active option DFTDOPT                   ...         5   

-------------------------   ----------------
Dispersion correction           -0.029162023
-------------------------   ----------------

------------------   -----------------
gCP correction             0.037934561
------------------   -----------------

-------------------------   --------------------
FINAL SINGLE POINT ENERGY     -1542.150746381141
-------------------------   --------------------

                                *** OPTIMIZATION RUN DONE ***



           ************************************************************
           *        Program running with 4 parallel MPI-processes     *
           *              working on a common directory               *
           ************************************************************
------------------------------------------------------------------------------
                            ORCA SCF RESPONSE CALCULATION
------------------------------------------------------------------------------

GBWName                                 ... Apixaban_SMD_chloroform_Opt_Freq_KeepDens.gbw
Number of atoms                         ...     59
Number of basis functions               ...    816
Max core memory                         ...   2000 MB

Electric field perturbation             ...  NO
Quadrupolar field perturbation          ...  NO
Magnetic field perturbation (no GIAO)   ...  NO
Magnetic field perturbation (with GIAO) ...  NO
Linear momentum (velocity) perturbation ...  NO
Spin-orbit coupling perturbation        ...  NO
Choice of electric origin               ... Center of mass
Position of electric origin             ...    60.323605   -38.199086    -0.069876
Choice of magnetic origin               ... GIAO
Position of magnetic origin             ...     0.000000     0.000000     0.000000
Nuclear geometric perturbations         ... YES ( 177 perturbations)
Nucleus-orbit perturbations             ...  NO (   0 perturbations)
Spin-dipole/Fermi contact perturbations ...  NO (   0 perturbations)

Total number of real perturbations      ...    177
Total number of imaginary perturbations ...      0
Total number of triplet perturbations   ...      0
Total number of SOC perturbations       ...      0

Using XC Grid                  ... (Apixaban_SMD_chloroform_Opt_Freq_KeepDens.grid_cpscf.tmp) 
Recalculating density on grid  ... (Apixaban_SMD_chloroform_Opt_Freq_KeepDens.grho_cpscf0.tmp) done
Calculating the xc-kernel      ... (Apixaban_SMD_chloroform_Opt_Freq_KeepDens.fxc_cpscf0.tmp) done

                                **********************
                                * REAL PERTURBATIONS *
                                **********************



-------------------
SHARK CP-SCF DRIVER
-------------------

Dimension of the orbital basis          ...    816
Dimension of the CPSCF-problem          ...  84095
Number of operators                     ...      1
Max. number of iterations               ...    128
Convergence Tolerance                   ... 1.0e-04
Number of perturbations                 ...    177
Perturbation type                       ... REAL

----------------------------
POPLE LINEAR EQUATION SOLVER
----------------------------

  ITERATION   0:   ||err||_max =   1.2011e+00 ( 556.7 sec   0/177 done)
  ITERATION   1:   ||err||_max =   9.9404e-02 ( 555.1 sec   0/177 done)
  ITERATION   2:   ||err||_max =   3.0193e-02 ( 517.3 sec   0/177 done)
  ITERATION   3:   ||err||_max =   9.5313e-03 ( 522.0 sec   0/177 done)
  ITERATION   4:   ||err||_max =   3.4143e-03 ( 577.8 sec   0/177 done)
  ITERATION   5:   ||err||_max =   1.3108e-03 ( 534.1 sec   2/177 done)
  ITERATION   6:   ||err||_max =   5.6124e-04 ( 529.9 sec  48/177 done)
  ITERATION   7:   ||err||_max =   1.7078e-04 ( 407.2 sec 146/177 done)
  ITERATION   8:   ||err||_max =   7.1200e-05 ( 103.8 sec 177/177 done)

CP-SCF equations solved in 4323.0 sec
Response densities calculated in   0.1 sec

Maximum memory used throughout the entire SCFRESP-calculation: 1382.4 MB


           ************************************************************
           *        Program running with 4 parallel MPI-processes     *
           *              working on a common directory               *
           ************************************************************

------------------------------------------------------------------------------
                              ORCA PROPERTY CALCULATIONS
------------------------------------------------------------------------------

GBWName                                 ... Apixaban_SMD_chloroform_Opt_Freq_KeepDens.gbw
Number of atoms                         ...     59
Number of basis functions               ...    816
Max core memory                         ...   2000 MB

Electric properties:
Dipole moment                           ... YES
Quadrupole moment                       ...  NO
Static polarizability (Dipole/Dipole)   ...  NO
Static polarizability (Dipole/Quad.)    ...  NO
Static polarizability (Quad./Quad.)     ...  NO
Static polarizability (Velocity)        ...  NO
Static hyperpolarizability              ...  NO

Atomic electric properties:
Dipole moment                           ...  NO
Quadrupole moment                       ...  NO
Static polarizability                   ...  NO

Choice of electric origin               ... Center of mass
Position of electric origin             ...    60.323605   -38.199086    -0.069876

General magnetic properties:
Magnetizability                         ...  NO

EPR properties:
g-Tensor (aka g-matrix)                 ...  NO
Zero-Field splitting spin-orbit         ...  NO
Zero-field splitting spin-spin          ...  NO
Hyperfine couplings                     ...  NO (   0 nuclei)
Quadrupole couplings                    ...  NO (   0 nuclei)
Contact density                         ...  NO (   0 nuclei)

NMR properties:
Chemical shifts                         ...  NO (   0 nuclei)
Spin-rotation constants                 ...  NO (   0 nuclei)
Spin-spin couplings                     ...  NO (   0 nuclei,    0 pairs)

Choice of magnetic origin               ... GIAO
Position of magnetic origin             ...     0.000000     0.000000     0.000000

Properties with geometric perturbations:
SCF Hessian                             ... YES
IR spectrum                             ... YES
VCD spectrum                            ...  NO
X-ray spectroscopy properties:
SCF XES/XAS/RIXS spectra                ...  NO

SCF SOC stabilization energy            ...  NO
Diagonal Born-Oppenheimer correction    ...  NO

-------------
DIPOLE MOMENT
-------------

Method             : SCF
Type of density    : Electron Density
Multiplicity       :   1
Irrep              :   0
Energy             : -1542.1595189198130811 Eh
Basis              : AO
                                X                 Y                 Z
Electronic contribution:     21.708454856     -17.038585315       1.997167983
Nuclear contribution   :    -21.135473075      19.532958875      -3.850952846
                        -----------------------------------------
Total Dipole Moment    :      0.572981781       2.494373560      -1.853784863
                        -----------------------------------------
Magnitude (a.u.)       :      3.160178143
Magnitude (Debye)      :      8.032534485



--------------------
Rotational spectrum 
--------------------
 
Rotational constants in cm-1:             0.005534             0.001763             0.001405 
Rotational constants in MHz :           165.913716            52.857525            42.120709 

Dipole components along the rotational axes: 
x,y,z [a.u.] :     0.121156     1.742669    -2.633467 
x,y,z [Debye]:     0.307954     4.429513    -6.693742 

 

Dipole moment calculation done in   0.1 sec 

-----------
SCF HESSIAN
-----------

Occupied/Occupied contributions to the Hessian:
   => Occupied/Occupied contributions              ... done (  0.8 sec)
Perturbed density contributions to the Hessian:
   => Perturbed density contributions              ... done (  3.8 sec)
Explicit contributions to the Hessian:
   => Nuclear repulsion Hessian                    ... done (  0.0 sec)
   => HCore and overlap Hessian                    ... done (332.9 sec)
   => RI-J Hessian                                 ... done (106.2 sec)
   => XC-Hessian                                   ... done (358.1 sec)
   => CPCM-Hessian                                 ... done (184.9 sec)
   => Van der Waals-Hessian                        ... done (  7.2 sec)
   => GCP-Hessian                                  ... done (  0.6 sec)
   => SMD-Hessian                                  ... done (  1.4 sec)
   => Explicit contributions done
Dipole derivatives                                 ... done (  2.6 sec)
Mass weighting the Hessian           ... done
Calculating normal modes             ... done
Scaling frequencies                  ... done

-----------------------
VIBRATIONAL FREQUENCIES
-----------------------

Scaling factor for frequencies =  1.000000000  (already applied!)

     0:       0.00 cm**-1
     1:       0.00 cm**-1
     2:       0.00 cm**-1
     3:       0.00 cm**-1
     4:       0.00 cm**-1
     5:       0.00 cm**-1
     6:      17.65 cm**-1
     7:      24.39 cm**-1
     8:      26.57 cm**-1
     9:      32.05 cm**-1
    10:      40.69 cm**-1
    11:      47.87 cm**-1
    12:      51.23 cm**-1
    13:      65.10 cm**-1
    14:      75.70 cm**-1
    15:      78.69 cm**-1
    16:      93.43 cm**-1
    17:     100.12 cm**-1
    18:     116.24 cm**-1
    19:     119.74 cm**-1
    20:     138.60 cm**-1
    21:     157.03 cm**-1
    22:     174.74 cm**-1
    23:     182.22 cm**-1
    24:     194.74 cm**-1
    25:     214.73 cm**-1
    26:     220.46 cm**-1
    27:     242.33 cm**-1
    28:     247.77 cm**-1
    29:     268.02 cm**-1
    30:     279.41 cm**-1
    31:     308.55 cm**-1
    32:     314.50 cm**-1
    33:     316.08 cm**-1
    34:     337.24 cm**-1
    35:     362.83 cm**-1
    36:     369.01 cm**-1
    37:     408.93 cm**-1
    38:     416.30 cm**-1
    39:     418.70 cm**-1
    40:     420.35 cm**-1
    41:     427.22 cm**-1
    42:     446.68 cm**-1
    43:     463.68 cm**-1
    44:     475.93 cm**-1
    45:     486.03 cm**-1
    46:     505.98 cm**-1
    47:     518.17 cm**-1
    48:     520.37 cm**-1
    49:     544.63 cm**-1
    50:     563.81 cm**-1
    51:     569.57 cm**-1
    52:     596.35 cm**-1
    53:     617.11 cm**-1
    54:     625.34 cm**-1
    55:     633.98 cm**-1
    56:     649.26 cm**-1
    57:     655.58 cm**-1
    58:     666.89 cm**-1
    59:     675.71 cm**-1
    60:     683.25 cm**-1
    61:     693.33 cm**-1
    62:     709.73 cm**-1
    63:     733.09 cm**-1
    64:     742.59 cm**-1
    65:     764.30 cm**-1
    66:     774.02 cm**-1
    67:     798.69 cm**-1
    68:     808.76 cm**-1
    69:     812.83 cm**-1
    70:     824.57 cm**-1
    71:     829.88 cm**-1
    72:     837.58 cm**-1
    73:     840.38 cm**-1
    74:     852.36 cm**-1
    75:     866.70 cm**-1
    76:     904.69 cm**-1
    77:     936.21 cm**-1
    78:     938.58 cm**-1
    79:     948.48 cm**-1
    80:     958.94 cm**-1
    81:     963.38 cm**-1
    82:     971.64 cm**-1
    83:     982.74 cm**-1
    84:     993.58 cm**-1
    85:    1018.28 cm**-1
    86:    1023.67 cm**-1
    87:    1036.23 cm**-1
    88:    1040.15 cm**-1
    89:    1046.35 cm**-1
    90:    1069.45 cm**-1
    91:    1079.40 cm**-1
    92:    1087.44 cm**-1
    93:    1102.74 cm**-1
    94:    1107.26 cm**-1
    95:    1133.08 cm**-1
    96:    1135.67 cm**-1
    97:    1154.17 cm**-1
    98:    1161.55 cm**-1
    99:    1167.14 cm**-1
   100:    1173.08 cm**-1
   101:    1174.97 cm**-1
   102:    1190.97 cm**-1
   103:    1192.76 cm**-1
   104:    1200.80 cm**-1
   105:    1207.67 cm**-1
   106:    1219.18 cm**-1
   107:    1239.76 cm**-1
   108:    1245.12 cm**-1
   109:    1258.02 cm**-1
   110:    1270.95 cm**-1
   111:    1281.47 cm**-1
   112:    1297.92 cm**-1
   113:    1306.80 cm**-1
   114:    1315.81 cm**-1
   115:    1320.71 cm**-1
   116:    1326.98 cm**-1
   117:    1337.47 cm**-1
   118:    1346.60 cm**-1
   119:    1350.99 cm**-1
   120:    1353.78 cm**-1
   121:    1358.77 cm**-1
   122:    1364.25 cm**-1
   123:    1368.10 cm**-1
   124:    1377.18 cm**-1
   125:    1387.39 cm**-1
   126:    1416.16 cm**-1
   127:    1424.56 cm**-1
   128:    1438.41 cm**-1
   129:    1446.46 cm**-1
   130:    1448.55 cm**-1
   131:    1452.22 cm**-1
   132:    1460.48 cm**-1
   133:    1463.34 cm**-1
   134:    1470.15 cm**-1
   135:    1470.84 cm**-1
   136:    1478.17 cm**-1
   137:    1483.48 cm**-1
   138:    1487.25 cm**-1
   139:    1498.26 cm**-1
   140:    1528.57 cm**-1
   141:    1535.66 cm**-1
   142:    1539.96 cm**-1
   143:    1562.46 cm**-1
   144:    1593.80 cm**-1
   145:    1613.19 cm**-1
   146:    1621.19 cm**-1
   147:    1637.27 cm**-1
   148:    1641.91 cm**-1
   149:    1676.51 cm**-1
   150:    1688.83 cm**-1
   151:    1694.04 cm**-1
   152:    2993.58 cm**-1
   153:    2998.46 cm**-1
   154:    2998.87 cm**-1
   155:    3010.12 cm**-1
   156:    3012.99 cm**-1
   157:    3016.08 cm**-1
   158:    3019.47 cm**-1
   159:    3069.29 cm**-1
   160:    3071.44 cm**-1
   161:    3078.01 cm**-1
   162:    3080.68 cm**-1
   163:    3089.64 cm**-1
   164:    3106.09 cm**-1
   165:    3109.66 cm**-1
   166:    3135.88 cm**-1
   167:    3182.07 cm**-1
   168:    3186.59 cm**-1
   169:    3188.20 cm**-1
   170:    3194.55 cm**-1
   171:    3196.29 cm**-1
   172:    3206.00 cm**-1
   173:    3208.39 cm**-1
   174:    3211.99 cm**-1
   175:    3568.96 cm**-1
   176:    3704.23 cm**-1


------------
NORMAL MODES
------------

These modes are the Cartesian displacements weighted by the diagonal matrix
M(i,i)=1/sqrt(m[i]) where m[i] is the mass of the displaced atom
Thus, these vectors are normalized but *not* orthogonal

                  0          1          2          3          4          5    
      0       0.000000   0.000000   0.000000   0.000000   0.000000   0.000000
      1       0.000000   0.000000   0.000000   0.000000   0.000000   0.000000
      2       0.000000   0.000000   0.000000   0.000000   0.000000   0.000000
      3       0.000000   0.000000   0.000000   0.000000   0.000000   0.000000
      4       0.000000   0.000000   0.000000   0.000000   0.000000   0.000000
      5       0.000000   0.000000   0.000000   0.000000   0.000000   0.000000
      6       0.000000   0.000000   0.000000   0.000000   0.000000   0.000000
      7       0.000000   0.000000   0.000000   0.000000   0.000000   0.000000
      8       0.000000   0.000000   0.000000   0.000000   0.000000   0.000000
      9       0.000000   0.000000   0.000000   0.000000   0.000000   0.000000
     10       0.000000   0.000000   0.000000   0.000000   0.000000   0.000000
     11       0.000000   0.000000   0.000000   0.000000   0.000000   0.000000
     12       0.000000   0.000000   0.000000   0.000000   0.000000   0.000000
     13       0.000000   0.000000   0.000000   0.000000   0.000000   0.000000
     14       0.000000   0.000000   0.000000   0.000000   0.000000   0.000000
     15       0.000000   0.000000   0.000000   0.000000   0.000000   0.000000
     16       0.000000   0.000000   0.000000   0.000000   0.000000   0.000000
     17       0.000000   0.000000   0.000000   0.000000   0.000000   0.000000
     18       0.000000   0.000000   0.000000   0.000000   0.000000   0.000000
     19       0.000000   0.000000   0.000000   0.000000   0.000000   0.000000
     20       0.000000   0.000000   0.000000   0.000000   0.000000   0.000000
     21       0.000000   0.000000   0.000000   0.000000   0.000000   0.000000
     22       0.000000   0.000000   0.000000   0.000000   0.000000   0.000000
     23       0.000000   0.000000   0.000000   0.000000   0.000000   0.000000
     24       0.000000   0.000000   0.000000   0.000000   0.000000   0.000000
     25       0.000000   0.000000   0.000000   0.000000   0.000000   0.000000
     26       0.000000   0.000000   0.000000   0.000000   0.000000   0.000000
     27       0.000000   0.000000   0.000000   0.000000   0.000000   0.000000
     28       0.000000   0.000000   0.000000   0.000000   0.000000   0.000000
     29       0.000000   0.000000   0.000000   0.000000   0.000000   0.000000
     30       0.000000   0.000000   0.000000   0.000000   0.000000   0.000000
     31       0.000000   0.000000   0.000000   0.000000   0.000000   0.000000
     32       0.000000   0.000000   0.000000   0.000000   0.000000   0.000000
     33       0.000000   0.000000   0.000000   0.000000   0.000000   0.000000
     34       0.000000   0.000000   0.000000   0.000000   0.000000   0.000000
     35       0.000000   0.000000   0.000000   0.000000   0.000000   0.000000
     36       0.000000   0.000000   0.000000   0.000000   0.000000   0.000000
     37       0.000000   0.000000   0.000000   0.000000   0.000000   0.000000
     38       0.000000   0.000000   0.000000   0.000000   0.000000   0.000000
     39       0.000000   0.000000   0.000000   0.000000   0.000000   0.000000
     40       0.000000   0.000000   0.000000   0.000000   0.000000   0.000000
     41       0.000000   0.000000   0.000000   0.000000   0.000000   0.000000
     42       0.000000   0.000000   0.000000   0.000000   0.000000   0.000000
     43       0.000000   0.000000   0.000000   0.000000   0.000000   0.000000
     44       0.000000   0.000000   0.000000   0.000000   0.000000   0.000000
     45       0.000000   0.000000   0.000000   0.000000   0.000000   0.000000
     46       0.000000   0.000000   0.000000   0.000000   0.000000   0.000000
     47       0.000000   0.000000   0.000000   0.000000   0.000000   0.000000
     48       0.000000   0.000000   0.000000   0.000000   0.000000   0.000000
     49       0.000000   0.000000   0.000000   0.000000   0.000000   0.000000
     50       0.000000   0.000000   0.000000   0.000000   0.000000   0.000000
     51       0.000000   0.000000   0.000000   0.000000   0.000000   0.000000
     52       0.000000   0.000000   0.000000   0.000000   0.000000   0.000000
     53       0.000000   0.000000   0.000000   0.000000   0.000000   0.000000
     54       0.000000   0.000000   0.000000   0.000000   0.000000   0.000000
     55       0.000000   0.000000   0.000000   0.000000   0.000000   0.000000
     56       0.000000   0.000000   0.000000   0.000000   0.000000   0.000000
     57       0.000000   0.000000   0.000000   0.000000   0.000000   0.000000
     58       0.000000   0.000000   0.000000   0.000000   0.000000   0.000000
     59       0.000000   0.000000   0.000000   0.000000   0.000000   0.000000
     60       0.000000   0.000000   0.000000   0.000000   0.000000   0.000000
     61       0.000000   0.000000   0.000000   0.000000   0.000000   0.000000
     62       0.000000   0.000000   0.000000   0.000000   0.000000   0.000000
     63       0.000000   0.000000   0.000000   0.000000   0.000000   0.000000
     64       0.000000   0.000000   0.000000   0.000000   0.000000   0.000000
     65       0.000000   0.000000   0.000000   0.000000   0.000000   0.000000
     66       0.000000   0.000000   0.000000   0.000000   0.000000   0.000000
     67       0.000000   0.000000   0.000000   0.000000   0.000000   0.000000
     68       0.000000   0.000000   0.000000   0.000000   0.000000   0.000000
     69       0.000000   0.000000   0.000000   0.000000   0.000000   0.000000
     70       0.000000   0.000000   0.000000   0.000000   0.000000   0.000000
     71       0.000000   0.000000   0.000000   0.000000   0.000000   0.000000
     72       0.000000   0.000000   0.000000   0.000000   0.000000   0.000000
     73       0.000000   0.000000   0.000000   0.000000   0.000000   0.000000
     74       0.000000   0.000000   0.000000   0.000000   0.000000   0.000000
     75       0.000000   0.000000   0.000000   0.000000   0.000000   0.000000
     76       0.000000   0.000000   0.000000   0.000000   0.000000   0.000000
     77       0.000000   0.000000   0.000000   0.000000   0.000000   0.000000
     78       0.000000   0.000000   0.000000   0.000000   0.000000   0.000000
     79       0.000000   0.000000   0.000000   0.000000   0.000000   0.000000
     80       0.000000   0.000000   0.000000   0.000000   0.000000   0.000000
     81       0.000000   0.000000   0.000000   0.000000   0.000000   0.000000
     82       0.000000   0.000000   0.000000   0.000000   0.000000   0.000000
     83       0.000000   0.000000   0.000000   0.000000   0.000000   0.000000
     84       0.000000   0.000000   0.000000   0.000000   0.000000   0.000000
     85       0.000000   0.000000   0.000000   0.000000   0.000000   0.000000
     86       0.000000   0.000000   0.000000   0.000000   0.000000   0.000000
     87       0.000000   0.000000   0.000000   0.000000   0.000000   0.000000
     88       0.000000   0.000000   0.000000   0.000000   0.000000   0.000000
     89       0.000000   0.000000   0.000000   0.000000   0.000000   0.000000
     90       0.000000   0.000000   0.000000   0.000000   0.000000   0.000000
     91       0.000000   0.000000   0.000000   0.000000   0.000000   0.000000
     92       0.000000   0.000000   0.000000   0.000000   0.000000   0.000000
     93       0.000000   0.000000   0.000000   0.000000   0.000000   0.000000
     94       0.000000   0.000000   0.000000   0.000000   0.000000   0.000000
     95       0.000000   0.000000   0.000000   0.000000   0.000000   0.000000
     96       0.000000   0.000000   0.000000   0.000000   0.000000   0.000000
     97       0.000000   0.000000   0.000000   0.000000   0.000000   0.000000
     98       0.000000   0.000000   0.000000   0.000000   0.000000   0.000000
     99       0.000000   0.000000   0.000000   0.000000   0.000000   0.000000
    100       0.000000   0.000000   0.000000   0.000000   0.000000   0.000000
    101       0.000000   0.000000   0.000000   0.000000   0.000000   0.000000
    102       0.000000   0.000000   0.000000   0.000000   0.000000   0.000000
    103       0.000000   0.000000   0.000000   0.000000   0.000000   0.000000
    104       0.000000   0.000000   0.000000   0.000000   0.000000   0.000000
    105       0.000000   0.000000   0.000000   0.000000   0.000000   0.000000
    106       0.000000   0.000000   0.000000   0.000000   0.000000   0.000000
    107       0.000000   0.000000   0.000000   0.000000   0.000000   0.000000
    108       0.000000   0.000000   0.000000   0.000000   0.000000   0.000000
    109       0.000000   0.000000   0.000000   0.000000   0.000000   0.000000
    110       0.000000   0.000000   0.000000   0.000000   0.000000   0.000000
    111       0.000000   0.000000   0.000000   0.000000   0.000000   0.000000
    112       0.000000   0.000000   0.000000   0.000000   0.000000   0.000000
    113       0.000000   0.000000   0.000000   0.000000   0.000000   0.000000
    114       0.000000   0.000000   0.000000   0.000000   0.000000   0.000000
    115       0.000000   0.000000   0.000000   0.000000   0.000000   0.000000
    116       0.000000   0.000000   0.000000   0.000000   0.000000   0.000000
    117       0.000000   0.000000   0.000000   0.000000   0.000000   0.000000
    118       0.000000   0.000000   0.000000   0.000000   0.000000   0.000000
    119       0.000000   0.000000   0.000000   0.000000   0.000000   0.000000
    120       0.000000   0.000000   0.000000   0.000000   0.000000   0.000000
    121       0.000000   0.000000   0.000000   0.000000   0.000000   0.000000
    122       0.000000   0.000000   0.000000   0.000000   0.000000   0.000000
    123       0.000000   0.000000   0.000000   0.000000   0.000000   0.000000
    124       0.000000   0.000000   0.000000   0.000000   0.000000   0.000000
    125       0.000000   0.000000   0.000000   0.000000   0.000000   0.000000
    126       0.000000   0.000000   0.000000   0.000000   0.000000   0.000000
    127       0.000000   0.000000   0.000000   0.000000   0.000000   0.000000
    128       0.000000   0.000000   0.000000   0.000000   0.000000   0.000000
    129       0.000000   0.000000   0.000000   0.000000   0.000000   0.000000
    130       0.000000   0.000000   0.000000   0.000000   0.000000   0.000000
    131       0.000000   0.000000   0.000000   0.000000   0.000000   0.000000
    132       0.000000   0.000000   0.000000   0.000000   0.000000   0.000000
    133       0.000000   0.000000   0.000000   0.000000   0.000000   0.000000
    134       0.000000   0.000000   0.000000   0.000000   0.000000   0.000000
    135       0.000000   0.000000   0.000000   0.000000   0.000000   0.000000
    136       0.000000   0.000000   0.000000   0.000000   0.000000   0.000000
    137       0.000000   0.000000   0.000000   0.000000   0.000000   0.000000
    138       0.000000   0.000000   0.000000   0.000000   0.000000   0.000000
    139       0.000000   0.000000   0.000000   0.000000   0.000000   0.000000
    140       0.000000   0.000000   0.000000   0.000000   0.000000   0.000000
    141       0.000000   0.000000   0.000000   0.000000   0.000000   0.000000
    142       0.000000   0.000000   0.000000   0.000000   0.000000   0.000000
    143       0.000000   0.000000   0.000000   0.000000   0.000000   0.000000
    144       0.000000   0.000000   0.000000   0.000000   0.000000   0.000000
    145       0.000000   0.000000   0.000000   0.000000   0.000000   0.000000
    146       0.000000   0.000000   0.000000   0.000000   0.000000   0.000000
    147       0.000000   0.000000   0.000000   0.000000   0.000000   0.000000
    148       0.000000   0.000000   0.000000   0.000000   0.000000   0.000000
    149       0.000000   0.000000   0.000000   0.000000   0.000000   0.000000
    150       0.000000   0.000000   0.000000   0.000000   0.000000   0.000000
    151       0.000000   0.000000   0.000000   0.000000   0.000000   0.000000
    152       0.000000   0.000000   0.000000   0.000000   0.000000   0.000000
    153       0.000000   0.000000   0.000000   0.000000   0.000000   0.000000
    154       0.000000   0.000000   0.000000   0.000000   0.000000   0.000000
    155       0.000000   0.000000   0.000000   0.000000   0.000000   0.000000
    156       0.000000   0.000000   0.000000   0.000000   0.000000   0.000000
    157       0.000000   0.000000   0.000000   0.000000   0.000000   0.000000
    158       0.000000   0.000000   0.000000   0.000000   0.000000   0.000000
    159       0.000000   0.000000   0.000000   0.000000   0.000000   0.000000
    160       0.000000   0.000000   0.000000   0.000000   0.000000   0.000000
    161       0.000000   0.000000   0.000000   0.000000   0.000000   0.000000
    162       0.000000   0.000000   0.000000   0.000000   0.000000   0.000000
    163       0.000000   0.000000   0.000000   0.000000   0.000000   0.000000
    164       0.000000   0.000000   0.000000   0.000000   0.000000   0.000000
    165       0.000000   0.000000   0.000000   0.000000   0.000000   0.000000
    166       0.000000   0.000000   0.000000   0.000000   0.000000   0.000000
    167       0.000000   0.000000   0.000000   0.000000   0.000000   0.000000
    168       0.000000   0.000000   0.000000   0.000000   0.000000   0.000000
    169       0.000000   0.000000   0.000000   0.000000   0.000000   0.000000
    170       0.000000   0.000000   0.000000   0.000000   0.000000   0.000000
    171       0.000000   0.000000   0.000000   0.000000   0.000000   0.000000
    172       0.000000   0.000000   0.000000   0.000000   0.000000   0.000000
    173       0.000000   0.000000   0.000000   0.000000   0.000000   0.000000
    174       0.000000   0.000000   0.000000   0.000000   0.000000   0.000000
    175       0.000000   0.000000   0.000000   0.000000   0.000000   0.000000
    176       0.000000   0.000000   0.000000   0.000000   0.000000   0.000000
                  6          7          8          9         10         11    
      0       0.091146   0.012111   0.047004   0.074715  -0.005882  -0.021051
      1       0.123545   0.030097   0.032457   0.127942  -0.036639  -0.092998
      2      -0.030317  -0.025785   0.136891   0.054631  -0.025571  -0.038134
      3       0.054333  -0.061990   0.062201   0.019015  -0.031953  -0.002661
      4       0.126455  -0.091487  -0.021821   0.054432  -0.088410  -0.078202
      5      -0.014775  -0.100928   0.086129   0.013362  -0.059045  -0.032514
      6       0.029192  -0.059185   0.048969  -0.019887  -0.005125   0.040539
      7       0.079406  -0.084528  -0.027834  -0.004269  -0.044020  -0.010032
      8       0.002023  -0.108302   0.022722  -0.015212  -0.050815  -0.008065
      9       0.049291   0.000920   0.033728   0.006163   0.009907   0.036022
     10       0.034561   0.009970   0.003082  -0.012139   0.023475   0.042283
     11      -0.001884   0.002670   0.024393   0.008722   0.004653   0.015889
     12       0.089652   0.068877   0.023466   0.070603   0.040814   0.015715
     13       0.031282   0.114163   0.047507   0.049869   0.084858   0.045212
     14      -0.018918   0.094811   0.076708   0.055706   0.063386   0.026780
     15       0.120161   0.043219   0.045887   0.118582  -0.008773  -0.052058
     16       0.075378   0.066857   0.037013   0.082624   0.023534  -0.020097
     17      -0.037134   0.129112   0.141882   0.094268   0.075292   0.008074
     18       0.029406   0.004541   0.029941  -0.015635   0.018412   0.050825
     19      -0.007867   0.014326   0.007245  -0.053493   0.035624   0.069895
     20       0.014957   0.009846  -0.019181   0.003204   0.004243   0.013822
     21       0.014898  -0.051318   0.044328  -0.022289   0.044077   0.059994
     22      -0.021371  -0.078353  -0.028377  -0.077767   0.107119   0.098464
     23       0.023138   0.032579  -0.037413   0.002647  -0.002898   0.012043
     24       0.000985  -0.048642   0.042464  -0.030490   0.042633   0.055036
     25      -0.053478  -0.077449  -0.019857  -0.091617   0.101341   0.087457
     26       0.037004   0.044376  -0.074899  -0.003742   0.003903   0.017803
     27       0.002131   0.004951   0.026144  -0.034585   0.008109   0.039905
     28      -0.072196   0.016248   0.024552  -0.081449   0.024137   0.049014
     29       0.043103   0.035605  -0.093906  -0.007804   0.015217   0.023800
     30       0.013513   0.061662   0.012076  -0.034918  -0.018185   0.037396
     31      -0.066476   0.110292   0.058322  -0.073621  -0.041965   0.036520
     32       0.035858   0.013777  -0.075624  -0.005153   0.020203   0.023152
     33       0.027058   0.060341   0.012391  -0.027270  -0.015074   0.041744
     34      -0.034252   0.110753   0.050369  -0.057830  -0.034388   0.047039
     35       0.022108   0.000016  -0.038262   0.001011   0.015871   0.018495
     36      -0.001680   0.003747   0.028360  -0.026162  -0.000470   0.023353
     37      -0.083337   0.010398   0.038062  -0.066176   0.005184   0.015209
     38       0.054889   0.041553  -0.122496  -0.007827   0.023246   0.033904
     39       0.000302   0.008227   0.036413  -0.011717  -0.037945  -0.002971
     40      -0.075810   0.031690   0.041935  -0.080439  -0.057099   0.005840
     41       0.046451   0.018981  -0.124984   0.010496   0.086422   0.042332
     42       0.024673  -0.010820   0.008331   0.022498  -0.021954  -0.015948
     43      -0.063609   0.013268   0.022937  -0.045234  -0.032786  -0.005774
     44       0.020996   0.016917  -0.100667   0.019396   0.111479   0.040199
     45       0.021876  -0.007718   0.006737   0.007438  -0.008060  -0.004367
     46      -0.046693  -0.002483  -0.001746  -0.005301  -0.009224  -0.024321
     47       0.002181   0.034925  -0.050243   0.001772   0.025541   0.033112
     48       0.005829  -0.002382   0.015272  -0.017413   0.007907   0.019195
     49      -0.054285  -0.010907   0.006432   0.003151   0.016862  -0.031130
     50       0.019943   0.057042  -0.071983  -0.018862  -0.042190   0.051759
     51      -0.002016  -0.002575   0.024746  -0.035565   0.018594   0.035418
     52      -0.074480  -0.016907   0.027823  -0.017217   0.035403   0.001814
     53       0.046683   0.083213  -0.106808  -0.043476  -0.054642   0.023908
     54      -0.007218  -0.109893   0.053959  -0.070576   0.000852   0.074749
     55       0.081912  -0.164593  -0.060506  -0.045236  -0.074696  -0.006220
     56       0.018128  -0.207210  -0.026236  -0.056803  -0.096096  -0.013882
     57      -0.005957  -0.007954   0.027474  -0.061137   0.044518   0.050408
     58      -0.079592  -0.045737   0.028958   0.008883   0.077506   0.023378
     59       0.055768   0.136753  -0.108590  -0.091677  -0.132148  -0.016216
     60       0.030259  -0.008635  -0.002432   0.014894  -0.006499  -0.008893
     61      -0.016811  -0.005639  -0.039038   0.022820  -0.002969  -0.039344
     62      -0.032472   0.022455   0.035353   0.000716  -0.011380  -0.001324
     63       0.018636  -0.003841  -0.000153  -0.004365   0.008630   0.012003
     64      -0.006046  -0.013446  -0.050254   0.044041   0.022337  -0.058209
     65      -0.035027   0.031431   0.058358  -0.015792  -0.090071   0.006674
     66       0.002905  -0.000202   0.008184  -0.021606   0.015196   0.029769
     67      -0.029675  -0.017364  -0.022923   0.033502   0.034372  -0.053746
     68      -0.003122   0.053895  -0.007858  -0.028138  -0.109264   0.039596
     69      -0.023124   0.010204  -0.003231  -0.034148   0.010014   0.037801
     70      -0.020855  -0.008373  -0.020008   0.038156   0.022448  -0.059872
     71       0.003626   0.022830  -0.000579  -0.029203  -0.076333   0.039274
     72       0.049811  -0.013379  -0.017268   0.042497  -0.023722  -0.035331
     73       0.003776   0.001011  -0.071595   0.029470  -0.029864  -0.029051
     74      -0.067417  -0.004165   0.112371   0.019027   0.046740  -0.068542
     75       0.052003  -0.013695  -0.022354   0.045392  -0.016300  -0.033538
     76       0.035833  -0.004607  -0.127686   0.071550   0.028358  -0.028881
     77      -0.104380  -0.004326   0.232019  -0.014295  -0.169237  -0.158390
     78       0.062732  -0.016575  -0.025456   0.062243  -0.044563  -0.057520
     79      -0.007900   0.011472  -0.050993  -0.001558  -0.099349  -0.017382
     80      -0.063017  -0.024989   0.074870   0.060298   0.270260  -0.054570
     81       0.015819   0.056573  -0.016072  -0.139385   0.050419  -0.099610
     82      -0.073390   0.005730  -0.033886   0.108610  -0.066288   0.037445
     83       0.032580   0.030728   0.000314  -0.082502  -0.034230  -0.032340
     84      -0.024988   0.066702  -0.054320  -0.137626   0.048001  -0.157399
     85      -0.054393   0.018028  -0.016301   0.105243  -0.090075   0.076968
     86       0.033690  -0.007916   0.001524  -0.076700   0.020853  -0.060565
     87      -0.106430   0.029083  -0.082247  -0.024946   0.004195  -0.074488
     88       0.018602   0.016321   0.017087   0.028613  -0.023282   0.019481
     89       0.003518  -0.055351  -0.000954  -0.011702   0.030684  -0.013330
     90      -0.143417  -0.017722  -0.065170   0.081856  -0.042348   0.089871
     91       0.070453   0.002306   0.028361  -0.042835   0.070496  -0.095870
     92      -0.025542  -0.063837  -0.000099   0.044388  -0.016110   0.074669
     93      -0.101508  -0.026735  -0.026169   0.075911  -0.038370   0.141829
     94       0.049564  -0.009960   0.008724  -0.035476   0.090476  -0.131292
     95      -0.025656  -0.024022  -0.000510   0.034892  -0.070106   0.098172
     96      -0.144855   0.041734  -0.126710  -0.027818   0.010510  -0.167843
     97       0.034719   0.029627   0.037974   0.027694  -0.056636   0.084163
     98       0.004680  -0.091489  -0.003756  -0.007254   0.089064  -0.058913
     99      -0.230381   0.004416  -0.165892   0.106466  -0.039091  -0.102388
    100       0.111187   0.028875   0.080667  -0.065726   0.015050   0.041126
    101      -0.026913  -0.141332  -0.010004   0.070467   0.099940  -0.018071
    102       0.075088   0.057664   0.019628   0.046676   0.050017   0.039170
    103       0.123987   0.122208   0.074222   0.187377  -0.000090  -0.108537
    104      -0.023447  -0.108279   0.121000   0.027103  -0.075316  -0.054680
    105       0.112257  -0.002547   0.062898   0.108950  -0.040280  -0.069338
    106       0.155999   0.001342   0.027700   0.156287  -0.078172  -0.141550
    107      -0.043306  -0.004473   0.184897   0.081652  -0.026885  -0.059308
    108       0.069749  -0.107531   0.091041   0.044880  -0.087193  -0.057390
    109       0.135322  -0.188973  -0.064272   0.004105  -0.136628  -0.076653
    110      -0.022500  -0.034394   0.107835   0.040307  -0.021463  -0.025406
    111       0.028021  -0.082203   0.058041  -0.022152  -0.022375   0.031125
    112       0.155764  -0.104169  -0.021566   0.086277  -0.119519  -0.120266
    113      -0.007176  -0.221411   0.071473  -0.024892  -0.134471  -0.057906
    114       0.108660   0.085585   0.024408   0.100688   0.041002  -0.004017
    115      -0.003595   0.129765   0.046502   0.009789   0.120124   0.096927
    116      -0.023147   0.207968   0.078440   0.087215   0.151764   0.069141
    117       0.077952   0.123930  -0.002119   0.053868   0.102655   0.071087
    118       0.029194   0.214598   0.090532   0.111377   0.143723   0.046367
    119      -0.013597   0.026326   0.065400   0.032264   0.012325   0.005907
    120       0.136485  -0.003787   0.072446   0.146411  -0.061725  -0.109517
    121       0.074342  -0.022848  -0.003399   0.023562  -0.018070  -0.009604
    122      -0.044064   0.211787   0.156883   0.121303   0.128205   0.027771
    123       0.147669   0.094969   0.034846   0.158472   0.005794  -0.067244
    124       0.072077   0.150418   0.073581   0.131495   0.066250  -0.022912
    125      -0.048580   0.187717   0.177937   0.125574   0.108983   0.010306
    126       0.016326  -0.098294   0.056371  -0.019435   0.059281   0.065501
    127      -0.003435  -0.152414  -0.062006  -0.079651   0.161074   0.120522
    128       0.018169   0.039555  -0.023304   0.004518  -0.012907   0.007508
    129      -0.008950  -0.088973   0.055643  -0.028778   0.064672   0.059075
    130      -0.060014  -0.150913  -0.047332  -0.104423   0.150665   0.101283
    131       0.042781   0.059049  -0.090074  -0.007222  -0.001839   0.017651
    132       0.012996   0.108590   0.001564  -0.038079  -0.041994   0.028503
    133      -0.082750   0.181933   0.091888  -0.072747  -0.103568   0.011688
    134       0.040353   0.008745  -0.088776  -0.006625   0.029779   0.027326
    135       0.037022   0.101813  -0.000552  -0.028584  -0.042495   0.034620
    136      -0.026916   0.185717   0.079718  -0.041866  -0.087401   0.028525
    137       0.016271  -0.016206  -0.023531   0.004700   0.025466   0.020189
    138       0.005373   0.004156   0.032103  -0.002141  -0.041883  -0.010308
    139      -0.091100   0.047318   0.059063  -0.107693  -0.063379   0.019690
    140       0.059705  -0.008318  -0.153982   0.030137   0.150389   0.054778
    141      -0.022148   0.032158   0.069563  -0.034317  -0.075314  -0.006340
    142      -0.064645   0.047738   0.041497  -0.090020  -0.115489  -0.005498
    143       0.044348   0.033184  -0.114917  -0.000608   0.049812   0.036287
    144       0.048895  -0.027318  -0.028538   0.045516   0.010847  -0.019768
    145      -0.074817   0.008838   0.019922  -0.043331   0.015916   0.003092
    146       0.024431   0.006088  -0.119948   0.031488   0.160680   0.044615
    147       0.018923  -0.008910   0.025615   0.036770  -0.055150  -0.029303
    148      -0.055474   0.021416   0.028042  -0.054400  -0.081795  -0.011009
    149       0.013265   0.010593  -0.101981   0.029544   0.145709   0.042350
    150       0.042505  -0.010736  -0.018035   0.029505   0.000719  -0.013927
    151       0.044208  -0.012288  -0.138428   0.093150   0.065911  -0.045091
    152      -0.108070   0.008491   0.249479  -0.037921  -0.282940  -0.152999
    153       0.066445  -0.016162  -0.036387   0.064286  -0.028050  -0.050147
    154       0.050893   0.000620  -0.148616   0.075429  -0.007383  -0.027583
    155      -0.130882  -0.027437   0.280331   0.007134  -0.065400  -0.194440
    156       0.074685   0.083966  -0.001118  -0.217803   0.083921  -0.168819
    157      -0.127686   0.008101  -0.056246   0.164329  -0.120112   0.088422
    158       0.052366   0.066045  -0.002457  -0.125268  -0.043997  -0.068858
    159       0.003344   0.102838  -0.067119  -0.218607   0.081273  -0.274614
    160      -0.093068   0.029721  -0.024238   0.157087  -0.160094   0.157494
    161       0.055298  -0.002545   0.000996  -0.117118   0.055166  -0.121095
    162      -0.205038  -0.047511  -0.083718   0.168812  -0.077712   0.165010
    163       0.126859   0.000744   0.053025  -0.102881   0.125599  -0.148783
    164      -0.048001  -0.100293  -0.000068   0.093422  -0.008841   0.116055
    165      -0.132429  -0.063464  -0.016821   0.159728  -0.070708   0.252827
    166       0.090235  -0.021181   0.018845  -0.088965   0.159636  -0.206512
    167      -0.048985  -0.030060  -0.001783   0.077531  -0.104220   0.156157
    168      -0.301349  -0.036755  -0.187948   0.236835  -0.089044  -0.002854
    169       0.105349   0.011427   0.058905  -0.071951   0.069272  -0.057799
    170       0.003062  -0.129602  -0.008861   0.008383   0.144833  -0.103929
    171      -0.250032   0.021803  -0.201356   0.091804  -0.029386  -0.200521
    172       0.112954   0.040697   0.093937  -0.058766  -0.023447   0.108397
    173      -0.021292  -0.163715  -0.012964   0.067354   0.146033  -0.065955
    174      -0.204528   0.001900  -0.139834   0.089795  -0.035317  -0.061615
    175       0.171989   0.035144   0.121721  -0.135710   0.049675   0.045582
    176      -0.085297  -0.168998  -0.012954   0.193000   0.019972   0.142549
                 12         13         14         15         16         17    
      0       0.000739  -0.023520  -0.010937   0.041136  -0.020431   0.056373
      1      -0.023809  -0.064035  -0.087719   0.092273  -0.010530  -0.006539
      2      -0.063094  -0.101389  -0.162639  -0.062941  -0.040014  -0.071890
      3      -0.044290  -0.030902  -0.074211  -0.056428  -0.044696  -0.016032
      4      -0.054519  -0.003208  -0.042309   0.059138  -0.002956  -0.020920
      5      -0.072035  -0.049216  -0.103252  -0.054163  -0.025906  -0.057908
      6      -0.014287   0.000013  -0.000641  -0.091832  -0.020930   0.002869
      7      -0.013478   0.028792   0.044529  -0.019409   0.022308  -0.012101
      8      -0.030429   0.027286   0.042596   0.000353   0.024946   0.027947
      9       0.005489   0.030205   0.028124  -0.046770  -0.012198   0.013949
     10       0.026237   0.031336   0.044785  -0.097363   0.008739  -0.067969
     11       0.017240   0.051473   0.074424   0.008103   0.025005   0.012510
     12       0.061325   0.020161   0.103433   0.043234   0.011392   0.083365
     13       0.083091  -0.012187   0.089538  -0.087764   0.028876  -0.033714
     14       0.062951   0.004636   0.097866  -0.012901   0.037726   0.027132
     15       0.005258  -0.034850  -0.015416   0.110284  -0.015195   0.091140
     16       0.029944  -0.032836   0.007715  -0.001427   0.010769  -0.018487
     17       0.046643  -0.072801   0.002398  -0.038736   0.015994   0.007050
     18       0.006171   0.028676   0.012576  -0.055816  -0.018504   0.006372
     19       0.018159   0.028463   0.008883  -0.127305  -0.004391  -0.079872
     20       0.027961   0.062439   0.068830   0.051700   0.014720   0.019787
     21       0.053620  -0.041417   0.039041  -0.038194  -0.025746   0.010153
     22       0.141047  -0.135914   0.000682  -0.075737  -0.062455  -0.097929
     23       0.014048   0.084990   0.045687   0.049013   0.009429   0.012940
     24       0.048232  -0.049509   0.023623   0.000134  -0.029249   0.027111
     25       0.125106  -0.154415  -0.025521  -0.005432  -0.064380  -0.053594
     26       0.025531   0.076823   0.011563   0.045097  -0.016095  -0.018065
     27      -0.010312   0.009094  -0.016840   0.013104  -0.024610   0.030730
     28      -0.013041  -0.009338  -0.039191   0.006481  -0.011541   0.009280
     29       0.045402   0.056669   0.000206   0.044830  -0.029189  -0.033851
     30      -0.065406   0.089224  -0.056225  -0.024538  -0.017655   0.021528
     31      -0.138743   0.161248  -0.051055  -0.073674   0.039058   0.012156
     32       0.057901   0.037416   0.026397   0.054333  -0.022107  -0.023602
     33      -0.058126   0.100672  -0.039682  -0.053192  -0.013394   0.007120
     34      -0.122678   0.181774  -0.029732  -0.143240   0.044358  -0.031824
     35       0.051507   0.037311   0.062695   0.057901  -0.000301   0.004669
     36      -0.017421   0.001275  -0.011168   0.035367  -0.021672   0.039275
     37      -0.027516  -0.029499  -0.015044   0.059000  -0.011677   0.041425
     38       0.052313   0.045965  -0.041572   0.010765  -0.032081  -0.047068
     39      -0.041098  -0.036105   0.024208   0.029082  -0.031423   0.037005
     40      -0.049363  -0.051964   0.060372   0.092144  -0.055613   0.005162
     41       0.072556   0.068209  -0.120619  -0.025685   0.013586  -0.006507
     42      -0.001607  -0.005994   0.026530   0.014043  -0.010832  -0.003569
     43      -0.023818  -0.029359   0.038546   0.076652  -0.030519  -0.000196
     44       0.040161   0.054246  -0.174654  -0.051478   0.035006   0.063344
     45       0.002269   0.004008   0.010078   0.015295  -0.015711  -0.010088
     46      -0.001720  -0.000799   0.017012   0.060817  -0.012141  -0.007845
     47      -0.012304  -0.021412  -0.084509  -0.042541   0.026138   0.092176
     48      -0.001588   0.013575  -0.007709   0.046310  -0.025131   0.006422
     49       0.000359   0.014251   0.003220   0.060884  -0.003326   0.000636
     50      -0.017862  -0.058050  -0.050287  -0.041713   0.008505   0.067937
     51       0.000821   0.010398  -0.017332   0.044512  -0.017947   0.031349
     52       0.002023   0.005072  -0.024412   0.059450   0.033415   0.065368
     53      -0.015427  -0.027411  -0.012123  -0.001112  -0.093407  -0.062532
     54      -0.012496  -0.009809   0.009809  -0.160904  -0.021109  -0.006718
     55      -0.026057   0.051969   0.088934  -0.010597   0.044257   0.031590
     56      -0.047308   0.062114   0.104709   0.037414   0.056690   0.095980
     57       0.019354   0.010760  -0.029488   0.045358  -0.007370   0.039682
     58       0.031975   0.023910  -0.062738   0.043531   0.106224   0.133361
     59      -0.071462  -0.061179   0.057050   0.026907  -0.226621  -0.186664
     60       0.004403   0.005964   0.008710   0.000439  -0.012979  -0.018564
     61       0.005046   0.004828   0.008462   0.019204  -0.008154  -0.026822
     62      -0.019592  -0.048916  -0.018995  -0.042628   0.049288   0.107530
     63       0.000831   0.016037  -0.009629   0.033917  -0.027961  -0.003867
     64       0.010490   0.022815  -0.003379  -0.004424  -0.008116  -0.040776
     65      -0.025024  -0.103463   0.035467  -0.047724   0.068705   0.121423
     66      -0.001421   0.020289  -0.019339   0.062604  -0.030935   0.002653
     67       0.008894   0.029780  -0.007212   0.022975  -0.005998  -0.023205
     68      -0.028983  -0.113432   0.019033  -0.046493   0.042525   0.095383
     69      -0.004291   0.012288  -0.026017   0.094396  -0.007145  -0.017070
     70       0.008758   0.023286  -0.001652  -0.002488  -0.020959  -0.000170
     71      -0.025171  -0.091529   0.014851  -0.015847   0.051547   0.063573
     72       0.013937  -0.006917   0.025496  -0.084767   0.043031  -0.067201
     73       0.012928  -0.021626  -0.001468  -0.029890   0.034541  -0.001429
     74      -0.032894   0.011021   0.035412  -0.009690  -0.002705  -0.031634
     75       0.002729  -0.012046   0.028886  -0.090202   0.048087  -0.068964
     76      -0.079704  -0.074316   0.034032  -0.126442   0.111654  -0.037943
     77       0.262129   0.124197  -0.008021  -0.022210  -0.019548  -0.120092
     78       0.031152  -0.013817   0.036142  -0.157205   0.094276  -0.113217
     79       0.093572  -0.003765  -0.040236   0.009807   0.011575   0.059540
     80      -0.278479  -0.022236   0.115847   0.031128  -0.044380  -0.100110
     81       0.002530  -0.022210  -0.020934   0.056474   0.010302   0.024710
     82      -0.006948  -0.005645   0.011356  -0.004347  -0.005840  -0.000646
     83      -0.017895  -0.091002   0.011538  -0.025583   0.050797   0.075670
     84       0.005308  -0.042084  -0.014571   0.039818   0.071761  -0.000485
     85      -0.013652  -0.015219   0.015002  -0.005833  -0.035402   0.029969
     86      -0.006164  -0.050082  -0.002427  -0.004074   0.054240   0.035718
     87       0.001739  -0.022703  -0.012439   0.058489   0.097911  -0.066888
     88      -0.004675   0.003672   0.002732   0.001237  -0.072470   0.059068
     89      -0.002104  -0.007790  -0.011706   0.026049   0.049689  -0.018781
     90      -0.008166   0.013164  -0.020887   0.124932   0.088289  -0.140630
     91       0.013237   0.033580  -0.008874  -0.014976  -0.097629   0.081272
     92      -0.011245  -0.008377  -0.009749   0.050227   0.056205  -0.047554
     93      -0.010868   0.029387  -0.027974   0.141837   0.040380  -0.114454
     94       0.019232   0.042920  -0.010566  -0.015169  -0.073902   0.050849
     95      -0.022908  -0.052280   0.004181   0.028074   0.060867  -0.005207
     96       0.008773  -0.041401   0.000419  -0.000353   0.125667  -0.045379
     97      -0.014992  -0.011014   0.003086   0.025712  -0.074774   0.061614
     98       0.011796   0.036256  -0.023299   0.028914   0.030460  -0.041482
     99       0.009524   0.000390   0.030423  -0.106518  -0.156833   0.138949
    100      -0.009081  -0.005154  -0.031756   0.128872   0.106381  -0.096605
    101       0.019096   0.098223  -0.020975  -0.001436  -0.150209   0.032306
    102       0.073294   0.038862   0.152342   0.014954   0.026457   0.099773
    103      -0.003025  -0.111993  -0.125571   0.123450  -0.015607   0.007572
    104      -0.109723  -0.096976  -0.210460  -0.072168  -0.057586  -0.100854
    105      -0.040741  -0.065589  -0.111000   0.084353  -0.046810   0.043944
    106      -0.060469  -0.085370  -0.153967   0.153309  -0.026991  -0.002189
    107      -0.091252  -0.161454  -0.274736  -0.078731  -0.071613  -0.110890
    108      -0.116897  -0.083763  -0.230490  -0.059341  -0.098122  -0.092585
    109      -0.086211   0.040755  -0.022625   0.044122  -0.002523  -0.036813
    110      -0.042137  -0.068185  -0.092746  -0.044665  -0.018516  -0.037337
    111      -0.037587  -0.011127  -0.040351  -0.110724  -0.034753  -0.024644
    112      -0.082906  -0.022369  -0.101290   0.105412  -0.022820  -0.031836
    113      -0.147773  -0.045107  -0.186710  -0.088320  -0.059096  -0.126116
    114       0.068626   0.006985   0.106705   0.085916   0.014854   0.108600
    115       0.112363   0.014912   0.145824  -0.161407   0.040193  -0.057130
    116       0.166669   0.015203   0.249991  -0.009133   0.080486   0.078424
    117       0.140406   0.065105   0.248368   0.020726   0.046453   0.107149
    118       0.137631  -0.057196   0.128603  -0.075097   0.046777   0.002236
    119       0.007701   0.010162   0.026628  -0.010563   0.016659   0.001703
    120      -0.060586  -0.094823  -0.155821   0.139153  -0.052561   0.068059
    121      -0.001909   0.011413   0.009632  -0.029894   0.002127  -0.053489
    122       0.098979  -0.074913   0.066602  -0.032891   0.039300   0.041624
    123       0.033419  -0.023410   0.035227   0.181440   0.007648   0.145063
    124       0.063387  -0.069932   0.014243   0.014907   0.020142   0.010404
    125       0.067886  -0.109429  -0.007209  -0.046214   0.017380   0.016316
    126       0.089094  -0.082809   0.075695  -0.044144  -0.024055   0.007034
    127       0.243721  -0.246501   0.016202  -0.076297  -0.102075  -0.137696
    128      -0.003492   0.102949   0.053148   0.047870   0.021277   0.023149
    129       0.085107  -0.096755   0.045048   0.018487  -0.029031   0.042525
    130       0.215907  -0.277451  -0.027524   0.045546  -0.104142  -0.065628
    131       0.016813   0.087841  -0.005297   0.042455  -0.022850  -0.030553
    132      -0.115312   0.145943  -0.097297  -0.026342  -0.014532   0.028369
    133      -0.249073   0.276074  -0.066617  -0.075078   0.075977   0.050905
    134       0.073178   0.022970   0.017753   0.054806  -0.032077  -0.032500
    135      -0.105712   0.165184  -0.066750  -0.069960  -0.006093  -0.001764
    136      -0.221129   0.311863  -0.036904  -0.190996   0.087484  -0.017588
    137       0.067195   0.015786   0.081454   0.061326   0.002706   0.014244
    138      -0.036136  -0.039589   0.032918   0.027360  -0.030325   0.028111
    139      -0.074285  -0.057826   0.053931   0.101938  -0.067959   0.029625
    140       0.129593   0.120700  -0.175064  -0.042218   0.050997  -0.020093
    141      -0.098077  -0.078891   0.041870   0.036318  -0.056255   0.075308
    142      -0.062448  -0.075308   0.135628   0.120345  -0.092180  -0.034814
    143       0.049520   0.044878  -0.082631  -0.011292  -0.009783  -0.012115
    144       0.044759   0.039712   0.006804   0.010649   0.000252  -0.046130
    145      -0.024497  -0.008043  -0.036000   0.060826  -0.016901   0.035603
    146       0.061630   0.090659  -0.236220  -0.064012   0.049810   0.068659
    147      -0.023808  -0.034031   0.056727   0.011380  -0.004075   0.022554
    148      -0.026679  -0.052743   0.106752   0.092266  -0.047671  -0.031076
    149       0.039173   0.068822  -0.226639  -0.064599   0.050116   0.094534
    150      -0.009705  -0.005819   0.016335  -0.032570   0.007039  -0.027493
    151      -0.112117  -0.077060   0.050510  -0.162931   0.131751  -0.080189
    152       0.356009   0.119839  -0.024920  -0.032384   0.001375  -0.090705
    153       0.010307  -0.022584   0.036654  -0.156437   0.096107  -0.101654
    154      -0.043068  -0.082970   0.010780  -0.174873   0.152040  -0.015910
    155       0.147934   0.135830   0.088385   0.025181  -0.072618  -0.259776
    156       0.006506  -0.033200  -0.020098   0.029795  -0.027523   0.081980
    157      -0.015212  -0.023145   0.019580   0.000895   0.033953  -0.030107
    158      -0.020590  -0.121448   0.020038  -0.053260   0.044667   0.119029
    159       0.011799  -0.069266  -0.008655  -0.002951   0.079241   0.045328
    160      -0.026653  -0.039274   0.025146  -0.002168  -0.016104   0.021724
    161       0.000291  -0.048602  -0.004525  -0.016803   0.049253   0.050938
    162      -0.012061   0.029239  -0.020959   0.153597   0.114609  -0.208903
    163       0.021371   0.049520  -0.017889  -0.019822  -0.133151   0.115817
    164      -0.008616   0.024541  -0.017721   0.079314   0.055818  -0.096952
    165      -0.016602   0.057414  -0.033423   0.184111   0.035406  -0.168051
    166       0.031633   0.066656  -0.021390  -0.017692  -0.095860   0.063973
    167      -0.028987  -0.053238   0.006594   0.040560   0.067644  -0.024833
    168       0.007264   0.045758   0.051003  -0.169801  -0.399383   0.271152
    169       0.007537   0.027039  -0.025749   0.052901  -0.013400   0.002913
    170       0.026903   0.090573  -0.027900  -0.003560  -0.088351   0.012670
    171       0.017173  -0.014289   0.050093  -0.202233  -0.225954   0.250947
    172      -0.020363  -0.026721  -0.034480   0.175484   0.178411  -0.156244
    173       0.030674   0.132184  -0.025350  -0.023532  -0.216142   0.064788
    174       0.005231   0.000366   0.014158  -0.034646  -0.064772   0.042487
    175      -0.010916  -0.013202  -0.061413   0.239451   0.297341  -0.261496
    176       0.005875   0.119882  -0.007970  -0.001899  -0.286367   0.078606
                 18         19         20         21         22         23    
      0      -0.032569  -0.038292  -0.007324   0.097567  -0.108936  -0.018982
      1       0.027639   0.112855  -0.070701   0.020226   0.083090  -0.051645
      2       0.007518   0.017886  -0.052461  -0.026332   0.036070  -0.011711
      3       0.011611  -0.138807   0.031061   0.033886  -0.102671   0.014771
      4       0.109245  -0.070481   0.110597  -0.044693  -0.005525   0.072674
      5       0.061487  -0.096753   0.080758  -0.051408  -0.036500   0.070780
      6      -0.070499  -0.074740  -0.030890   0.031528  -0.059624  -0.033062
      7      -0.012014  -0.001399   0.018902  -0.057285   0.037367   0.008954
      8      -0.019333   0.005087   0.039363  -0.004276  -0.006436   0.013835
      9       0.000352  -0.089548  -0.010906   0.063995   0.006351  -0.092316
     10       0.047116  -0.073787   0.004389  -0.036355   0.108899  -0.097922
     11       0.076710  -0.045685   0.049888   0.044295   0.086247  -0.100940
     12      -0.040922  -0.078171   0.069565   0.053085  -0.119488   0.034295
     13      -0.060218  -0.039542   0.059222  -0.129039  -0.007092   0.086535
     14      -0.030865  -0.012736   0.078143  -0.045583  -0.005715   0.052021
     15      -0.048633   0.042842  -0.049801   0.133939  -0.090845  -0.041650
     16      -0.017727   0.032227  -0.003986  -0.049337   0.033535   0.012358
     17      -0.122563   0.101857  -0.047459  -0.052306  -0.002936   0.045356
     18      -0.002510  -0.055066  -0.034496   0.062793   0.006513  -0.063263
     19       0.031121  -0.023338  -0.042347  -0.012875   0.076825  -0.062460
     20       0.093185  -0.015327   0.013606   0.067149   0.055657  -0.077194
     21       0.006804  -0.038933  -0.000516   0.079426   0.046086  -0.079662
     22       0.041545   0.018282  -0.046152   0.030787   0.021738  -0.004007
     23       0.091811  -0.017698  -0.013793   0.060939   0.020420  -0.052236
     24       0.017748  -0.002810   0.017677   0.087212   0.025573  -0.037108
     25       0.051863   0.081224   0.002416   0.062480  -0.028332   0.062270
     26       0.090427  -0.016892  -0.058812   0.034129  -0.025034   0.006813
     27       0.013643   0.022818   0.007385   0.043457   0.001855   0.029604
     28       0.034539   0.088516   0.046868   0.064606  -0.047158   0.051028
     29       0.090436  -0.011795  -0.076963   0.019100  -0.034052   0.032533
     30       0.001798   0.015789  -0.044907   0.037649  -0.052590   0.065916
     31       0.026746   0.074025   0.013080   0.046774  -0.023096   0.036808
     32       0.099107  -0.013022  -0.047444   0.028294   0.005788  -0.001269
     33       0.002679  -0.014754  -0.063639   0.034718  -0.027724   0.023753
     34       0.024595   0.014692  -0.034311   0.006986   0.036992  -0.023164
     35       0.098396  -0.016139  -0.000419   0.056243   0.050548  -0.061506
     36       0.002520   0.022592   0.030124   0.018587   0.025042   0.022116
     37       0.004631   0.070093   0.099677   0.069834  -0.033810   0.000780
     38       0.066269  -0.011154  -0.112438  -0.020234  -0.064012   0.085007
     39      -0.028758   0.000864   0.050182   0.016081   0.101268  -0.003604
     40       0.057517   0.034822   0.031865   0.093438  -0.028761   0.013281
     41       0.000295   0.020389  -0.036798  -0.041936  -0.068561   0.064042
     42       0.015252  -0.029790  -0.056743  -0.076770   0.067764   0.048503
     43       0.039072   0.006982  -0.002407   0.031870  -0.043932   0.009715
     44      -0.137458   0.044275   0.139360   0.017709   0.007494  -0.053268
     45       0.018001   0.006236  -0.021441  -0.060163   0.063094   0.050843
     46       0.005101  -0.031505  -0.035444  -0.014163  -0.065574  -0.006430
     47      -0.085819   0.004959   0.092540   0.045943   0.072205  -0.038709
     48       0.019806   0.022415   0.003235  -0.040478   0.047312   0.038228
     49      -0.007701  -0.026815  -0.012219  -0.005602  -0.045915  -0.024934
     50      -0.048323  -0.000705   0.038325   0.027397   0.014433   0.003206
     51       0.043004   0.041304   0.013742   0.002330   0.024359   0.050410
     52       0.032141   0.010480   0.020054   0.030284  -0.050096  -0.004887
     53      -0.054058   0.010042   0.009295   0.025192  -0.026067   0.026407
     54      -0.166500  -0.038923  -0.093459   0.013188  -0.089369  -0.032678
     55      -0.118474   0.098080  -0.039944  -0.060379   0.018961   0.027962
     56      -0.144626   0.138298  -0.024766  -0.001827  -0.028184   0.044016
     57       0.097355   0.081411   0.015404   0.011985   0.014236   0.091118
     58       0.082550  -0.000780  -0.016723   0.017731  -0.061588   0.014072
     59      -0.148562   0.031450   0.079160   0.051741  -0.008660  -0.009401
     60       0.014834   0.010641  -0.018990  -0.058641   0.066759   0.054974
     61      -0.025904  -0.040143  -0.036019  -0.005509  -0.070304  -0.008742
     62      -0.016182  -0.015223   0.040362   0.024109   0.117668  -0.020250
     63       0.005183   0.015554  -0.001524  -0.051449   0.058693   0.045393
     64      -0.053665  -0.036898  -0.016264   0.009167  -0.047608  -0.016966
     65       0.059197  -0.031099  -0.030527  -0.011990   0.092357   0.022882
     66       0.010610   0.028145   0.015169  -0.052134   0.047180   0.028820
     67      -0.048244  -0.036120  -0.005568   0.003627  -0.023716  -0.029959
     68       0.036503  -0.023987  -0.032840  -0.017113   0.020153   0.032722
     69       0.007439   0.033810   0.027623  -0.095362   0.013758  -0.025665
     70      -0.051674  -0.044596  -0.010744   0.022765   0.027072   0.001265
     71       0.039936  -0.021536  -0.040331  -0.048924  -0.037510   0.006030
     72       0.063313   0.080190   0.020895  -0.018979   0.033131   0.032601
     73      -0.012898  -0.019702  -0.008928   0.019216  -0.057697  -0.027115
     74       0.004176   0.004386   0.003956   0.012732   0.007772  -0.011098
     75       0.069227   0.086175   0.023973  -0.016349   0.030658   0.032001
     76       0.055869   0.065661   0.047277   0.081311  -0.113137  -0.074140
     77      -0.004868   0.039952   0.019763   0.033273  -0.071769  -0.034057
     78       0.110700   0.153048   0.067632   0.025708  -0.013387   0.001525
     79      -0.056041  -0.072262  -0.027846  -0.006472  -0.000215  -0.010702
     80       0.023642  -0.002276  -0.039378  -0.009238  -0.051792   0.007844
     81       0.018965   0.025452   0.020776  -0.158469  -0.034734  -0.096783
     82      -0.050846  -0.059543  -0.028142   0.053438   0.067932   0.052984
     83       0.041446  -0.020194  -0.037199  -0.078239  -0.064174  -0.031246
     84      -0.007068  -0.010850   0.003719  -0.130401  -0.045099  -0.109757
     85      -0.025815  -0.043025  -0.028127   0.027655   0.069481   0.062720
     86       0.012979  -0.023405  -0.024826  -0.060862  -0.060440  -0.041907
     87      -0.047327  -0.035886  -0.003646  -0.031155   0.013242  -0.034571
     88      -0.008682  -0.017349  -0.010603  -0.047918   0.039523   0.004011
     89      -0.020468  -0.028455  -0.015548  -0.010458  -0.016793  -0.006134
     90      -0.054855  -0.007269   0.019540  -0.053008  -0.011826  -0.065074
     91      -0.016346  -0.016902  -0.002011  -0.021885   0.064283   0.023644
     92      -0.019173  -0.020473  -0.012699  -0.025170  -0.034304  -0.020952
     93      -0.029959   0.023220   0.032732  -0.081091  -0.001827  -0.051408
     94      -0.038647  -0.031653  -0.003713   0.002547   0.052973   0.013792
     95       0.010074  -0.020794  -0.028293  -0.043702  -0.039417  -0.009742
     96      -0.072609  -0.089020  -0.039273   0.112196   0.099849   0.104424
     97       0.020901   0.010331  -0.002154  -0.153178  -0.043659  -0.090368
     98      -0.057020  -0.038309  -0.002867   0.067055   0.072920   0.057321
     99       0.042535   0.012188  -0.009489  -0.071342  -0.004618  -0.023587
    100      -0.082801  -0.052023   0.000474  -0.030661   0.079281  -0.013917
    101      -0.015302   0.030605   0.041127  -0.041140   0.066856  -0.029363
    102      -0.087075  -0.101908   0.104621   0.040392  -0.195706   0.085183
    103      -0.040043   0.265984  -0.216363   0.068907   0.154993  -0.144623
    104       0.077398  -0.056011  -0.005302  -0.033332   0.027406   0.003496
    105      -0.005792   0.032260  -0.092777   0.148056  -0.049109  -0.093135
    106       0.065710   0.156353  -0.110214   0.066858   0.114144  -0.094858
    107      -0.002409   0.103352  -0.182087   0.003981   0.120947  -0.106780
    108       0.174985  -0.297446   0.149851  -0.001105  -0.160133   0.113535
    109       0.202728  -0.235939   0.275760  -0.094003  -0.084715   0.184917
    110      -0.018557   0.026839  -0.037287  -0.015912   0.020513  -0.012578
    111      -0.029792  -0.139246   0.016380   0.003902  -0.085248   0.009050
    112       0.200286  -0.136612   0.182425  -0.034366  -0.049016   0.120943
    113       0.226969  -0.327616   0.278485  -0.124554  -0.128065   0.221508
    114      -0.056825  -0.050694   0.074696   0.064000  -0.155346   0.063003
    115      -0.065681  -0.111076   0.112643  -0.193849  -0.007533   0.127324
    116      -0.111024  -0.068835   0.230576  -0.156082  -0.159716   0.274501
    117      -0.053172  -0.186032   0.222329  -0.031762  -0.208766   0.175523
    118      -0.172768   0.010427   0.089155  -0.201765  -0.116839   0.244101
    119       0.027067   0.002829   0.008666   0.019899   0.078630  -0.073937
    120      -0.038185   0.125693  -0.161480   0.190140  -0.051663  -0.113841
    121       0.096425  -0.110658   0.094903  -0.059171   0.045372   0.005868
    122      -0.205256   0.160600  -0.062830  -0.071868  -0.029173   0.083437
    123      -0.078731   0.112782  -0.056163   0.153861  -0.089684  -0.032921
    124      -0.121885   0.149648  -0.083194  -0.050431   0.019166   0.027308
    125      -0.206653   0.185069  -0.116171  -0.059464  -0.016690   0.056278
    126       0.006153  -0.049544   0.017749   0.083007   0.098724  -0.127152
    127       0.043909  -0.001977  -0.073456   0.033927   0.017607  -0.009907
    128       0.093090  -0.015792   0.001290   0.061708   0.040598  -0.066772
    129       0.024475  -0.002501   0.043531   0.118204   0.035274  -0.067080
    130       0.067560   0.112361   0.010212   0.073794  -0.043308   0.105449
    131       0.090315  -0.010451  -0.076818   0.012770  -0.035039   0.038602
    132      -0.008385   0.028515  -0.068023   0.035746  -0.113646   0.117519
    133       0.020264   0.093110   0.029981   0.053642  -0.037148   0.051789
    134       0.098159  -0.014554  -0.060520   0.026472  -0.011375   0.011573
    135       0.005103  -0.012997  -0.091946   0.005401  -0.040428   0.061923
    136       0.013881  -0.003761  -0.048189  -0.007441   0.048855  -0.043435
    137       0.095226  -0.021529   0.017968   0.076142   0.061505  -0.093995
    138      -0.024743  -0.010185   0.032147  -0.002775   0.109288   0.001128
    139       0.041208   0.058632   0.089843   0.157570  -0.026036  -0.010876
    140       0.030913   0.027954  -0.100118  -0.119553  -0.157996   0.116958
    141      -0.095693   0.015512   0.170169   0.112354   0.187099  -0.080787
    142       0.124371   0.000280  -0.053152   0.097343  -0.021730   0.044949
    143       0.008710   0.010270  -0.036424  -0.010798  -0.039179   0.054144
    144       0.049314  -0.042645  -0.140644  -0.152861   0.004082   0.096664
    145      -0.067874   0.052269   0.148558   0.078513  -0.033405  -0.079205
    146      -0.196551   0.069861   0.205906   0.014621  -0.015076  -0.093254
    147       0.000434  -0.078466  -0.079941  -0.081052   0.109161   0.026577
    148       0.134860  -0.024737  -0.123844   0.006621  -0.051819   0.086888
    149      -0.221337   0.060757   0.236086   0.037713   0.021429  -0.121814
    150       0.028848   0.029696  -0.008432  -0.056710   0.091954   0.063060
    151       0.075309   0.107259   0.080070   0.119631  -0.141842  -0.118648
    152       0.016791   0.036357  -0.003323   0.010807  -0.106837   0.018061
    153       0.105168   0.145529   0.069117   0.033770  -0.012804  -0.013372
    154       0.056840   0.094438   0.097533   0.122393  -0.084664  -0.120577
    155       0.058780   0.049697  -0.072876  -0.017414  -0.254894   0.044059
    156       0.046088   0.042849   0.025654  -0.207926  -0.055264  -0.125479
    157      -0.065601  -0.081826  -0.043328   0.085011   0.082889   0.076379
    158       0.061257  -0.020965  -0.046582  -0.110251  -0.075580  -0.044979
    159       0.004977  -0.019529  -0.004650  -0.151879  -0.070448  -0.138837
    160      -0.018884  -0.047474  -0.038588   0.046110   0.075098   0.088072
    161       0.013638  -0.024195  -0.023350  -0.073439  -0.069237  -0.058885
    162      -0.084305  -0.016946   0.022172  -0.017741  -0.006305  -0.061529
    163      -0.002888  -0.000019   0.009325  -0.044179   0.067935   0.018605
    164      -0.041342  -0.016779   0.000106  -0.002684  -0.026390  -0.020655
    165      -0.046884   0.031784   0.044428  -0.072672   0.015526  -0.044543
    166      -0.043617  -0.027461   0.004998  -0.009116   0.056427   0.002864
    167       0.007227  -0.019977  -0.028312  -0.036977  -0.036350  -0.003831
    168       0.140396   0.114373   0.030968  -0.277532  -0.127456  -0.200163
    169      -0.066567  -0.042816   0.004489   0.023954   0.190849   0.094032
    170      -0.053300  -0.012317   0.024236   0.074887   0.168049   0.094851
    171       0.075680   0.001899  -0.037039   0.000351   0.046615   0.103410
    172      -0.089060  -0.055071  -0.001907  -0.073733  -0.001346  -0.091188
    173      -0.020514   0.038747   0.055366  -0.014140   0.151277   0.019867
    174       0.001995  -0.002296  -0.000733  -0.071976  -0.010349  -0.064303
    175      -0.172202  -0.105889   0.000679   0.050483   0.137806   0.010196
    176       0.059423   0.117260   0.077146  -0.267349  -0.118294  -0.267065
                 24         25         26         27         28         29    
      0       0.000426   0.052418   0.004415  -0.021014   0.006729   0.003408
      1      -0.022076  -0.020971  -0.001011   0.008691   0.001142  -0.001243
      2       0.021755  -0.025973   0.000711   0.033148   0.010223   0.005961
      3       0.032777   0.023851   0.004004   0.012670   0.011773   0.007612
      4      -0.016641   0.006672  -0.004321  -0.038261  -0.025036  -0.009487
      5       0.012036   0.007609  -0.001545  -0.016083  -0.010882  -0.001660
      6       0.037431  -0.000919   0.005561   0.047614   0.028873   0.011850
      7       0.013374  -0.031105   0.000162   0.038743   0.013701   0.006339
      8      -0.027283   0.014544  -0.001647  -0.035467  -0.011862  -0.009336
      9      -0.011480  -0.011289   0.003884   0.035276   0.025357   0.002463
     10       0.001024  -0.057003   0.004242   0.085783   0.046291   0.013021
     11      -0.077263  -0.006846  -0.000262  -0.014212   0.007624  -0.010525
     12      -0.002492   0.044500   0.001600  -0.025219  -0.002418   0.000452
     13       0.052630  -0.034143  -0.000323   0.047986   0.010915   0.010777
     14      -0.023269   0.004519  -0.003797  -0.037615  -0.019833  -0.012251
     15      -0.020659   0.059116   0.003255  -0.042263  -0.003109  -0.002565
     16       0.013164  -0.022560  -0.000156   0.024618   0.007176   0.004432
     17       0.022538  -0.008205  -0.001684  -0.007213  -0.011793  -0.003871
     18      -0.012936  -0.001425   0.000474  -0.009066  -0.005402  -0.008679
     19      -0.003429  -0.016435   0.000670  -0.003406  -0.002291  -0.006024
     20      -0.043744   0.001253   0.000718  -0.000149   0.006299   0.002804
     21      -0.071412   0.009336  -0.003457  -0.063685  -0.028322  -0.024822
     22      -0.015642   0.034060  -0.003452  -0.101766  -0.052935  -0.024006
     23      -0.001031  -0.000745   0.002609   0.024103   0.013429   0.012354
     24      -0.083096   0.021648  -0.005564  -0.063854  -0.033387  -0.020060
     25      -0.056281   0.066526  -0.006814  -0.113872  -0.057394  -0.017841
     26       0.071712  -0.006716   0.003595   0.044408   0.008397   0.020047
     27      -0.034262  -0.001554  -0.005479  -0.015771  -0.020096  -0.006341
     28      -0.068731   0.054479  -0.002917  -0.017112  -0.002927   0.007157
     29       0.091907  -0.008500   0.002741   0.034382  -0.001645   0.016605
     30       0.013403   0.014192  -0.004989  -0.045360  -0.040241  -0.010781
     31      -0.074573   0.065654  -0.005343  -0.093095  -0.039139  -0.012367
     32       0.055269  -0.014511   0.002148   0.038376   0.004618   0.016217
     33       0.020214   0.005075  -0.003378  -0.041600  -0.037175  -0.013492
     34      -0.043952   0.032362  -0.003444  -0.086733  -0.039084  -0.021361
     35      -0.016331  -0.009493   0.001308   0.017894   0.009956   0.008481
     36      -0.020877  -0.035492  -0.004204   0.046297  -0.002737  -0.000330
     37      -0.043059  -0.000639   0.002501   0.121253   0.042963   0.027007
     38       0.123403  -0.024010   0.000383  -0.046788  -0.020953  -0.004842
     39       0.078857  -0.162255  -0.005169  -0.037791  -0.044579  -0.008120
     40       0.140976  -0.086593   0.005878  -0.000276   0.023729   0.028970
     41      -0.062729   0.059335  -0.002212   0.080969   0.001951  -0.007433
     42      -0.028363  -0.032149  -0.014926   0.012472  -0.071105  -0.046390
     43       0.046970  -0.016983   0.002129   0.062773   0.020061   0.002612
     44      -0.073021  -0.059578   0.006313   0.091607   0.027648   0.017628
     45      -0.047730  -0.032721  -0.011734   0.043586  -0.035021  -0.011771
     46      -0.025121   0.011387  -0.002246   0.099031   0.005952  -0.025290
     47       0.105247  -0.091167   0.005705  -0.111649  -0.048703  -0.023399
     48      -0.016350  -0.014747  -0.004723   0.065833  -0.003047  -0.004935
     49       0.004766   0.025378  -0.001419   0.139354  -0.020133  -0.023143
     50       0.047061  -0.129569   0.005482  -0.222920   0.034899  -0.024854
     51      -0.010587  -0.021481  -0.004229   0.055667   0.006054   0.014551
     52       0.033651  -0.023359   0.002885   0.106681   0.012836  -0.003369
     53       0.036205  -0.050674   0.001100  -0.066842   0.008129  -0.011054
     54       0.091971  -0.010358   0.010480   0.109752   0.060587   0.034189
     55       0.030324  -0.027579  -0.000127   0.034103   0.007373   0.006409
     56      -0.019740   0.024855  -0.003601  -0.064553  -0.031943  -0.016559
     57      -0.010123  -0.019581  -0.005055   0.066837   0.025969   0.063711
     58       0.077201  -0.080218   0.003896   0.005968   0.025760  -0.007837
     59      -0.049543   0.057133  -0.000924   0.124528  -0.014532  -0.002328
     60      -0.059555  -0.051988  -0.013648   0.013609  -0.038895  -0.006591
     61      -0.061079  -0.067128  -0.010764  -0.011808  -0.012833  -0.028762
     62       0.116003   0.099840   0.007491   0.111913  -0.134049  -0.024261
     63      -0.032544  -0.054628  -0.009943   0.022709  -0.015082  -0.010614
     64      -0.051277  -0.097898  -0.018373  -0.052872  -0.044580  -0.018822
     65       0.046070   0.173200   0.019335   0.176630  -0.086713  -0.015125
     66       0.003539  -0.023868  -0.001207   0.046704   0.016137  -0.013899
     67      -0.008153  -0.023168  -0.009680   0.025771  -0.050576  -0.011509
     68      -0.021852   0.024528   0.010138  -0.035778   0.039530  -0.007749
     69       0.038898   0.015801   0.008781   0.030078   0.051631  -0.042085
     70      -0.004879   0.008139  -0.003644  -0.002616  -0.050643   0.019766
     71      -0.075589  -0.022899  -0.006823  -0.020769   0.075733   0.008112
     72      -0.021106  -0.020654  -0.004172   0.001082  -0.011292   0.009512
     73      -0.015497  -0.031507  -0.006927   0.014087  -0.047690  -0.044439
     74       0.028628   0.022452   0.010714   0.045133  -0.060322  -0.019758
     75      -0.018766  -0.018935   0.010242   0.005217  -0.012630   0.009939
     76       0.068916   0.042229   0.046063   0.037518  -0.009979  -0.041737
     77       0.029859  -0.007131  -0.106483  -0.040669   0.045505  -0.012965
     78       0.035692   0.022279   0.012990  -0.006826   0.051951   0.032293
     79      -0.032554  -0.039939  -0.007185   0.047473  -0.119822  -0.063462
     80      -0.041504  -0.044150  -0.016845  -0.023897  -0.002256  -0.018329
     81       0.036865   0.040558   0.008837  -0.029084   0.022098  -0.022859
     82      -0.022802   0.038848   0.004232  -0.042912   0.030892   0.039963
     83      -0.075331  -0.025717  -0.010181  -0.030597   0.047554   0.014871
     84       0.025790   0.051410   0.007372  -0.073557  -0.018454  -0.005556
     85      -0.031716   0.039546   0.005989  -0.039713   0.083108   0.039068
     86      -0.062633  -0.042696  -0.016109  -0.003633  -0.001236   0.019319
     87       0.018823   0.050837   0.007875  -0.060320  -0.006587   0.019733
     88      -0.014390   0.044794   0.005672  -0.046222   0.077637   0.030211
     89      -0.049940  -0.038062  -0.015139   0.011147   0.002498   0.035455
     90       0.035661   0.038109   0.004271  -0.021961  -0.033916  -0.020484
     91       0.005277   0.028825   0.005249  -0.006895   0.044331   0.027443
     92      -0.054898  -0.039133  -0.016947   0.009947   0.005936   0.025846
     93       0.042072   0.021922   0.005874   0.021997   0.024548  -0.062692
     94       0.001038   0.013195  -0.001575  -0.003215  -0.016831   0.050719
     95      -0.072940  -0.026462  -0.011898  -0.014529   0.064464   0.009649
     96      -0.029638   0.018244   0.003634  -0.024784   0.060272   0.058813
     97      -0.023028   0.034648  -0.001921  -0.065002   0.046245   0.023066
     98       0.004778   0.015597   0.003367   0.004632   0.019385   0.027304
     99      -0.018441   0.026736   0.002045  -0.048715   0.042643   0.034569
    100       0.048153   0.136371   0.027641  -0.133560   0.078894   0.028468
    101       0.102813   0.136542   0.034084  -0.093973   0.019879  -0.009954
    102       0.009851   0.083000   0.002477  -0.066009  -0.013872  -0.003984
    103      -0.026653  -0.044130   0.000960   0.041992   0.017679   0.003448
    104       0.020484  -0.024461   0.000253   0.031252   0.008437   0.006126
    105      -0.013699   0.036647   0.005290  -0.000800   0.016440   0.006077
    106      -0.043688  -0.020598  -0.001219   0.003955   0.000437  -0.002738
    107       0.029958  -0.065470   0.003202   0.091645   0.035090   0.015276
    108       0.041846   0.046459   0.000303  -0.033887  -0.020788  -0.000031
    109      -0.018594   0.037145  -0.007971  -0.093957  -0.055616  -0.020029
    110       0.011719  -0.014275   0.001227   0.024615   0.012508   0.005854
    111       0.050729   0.000684   0.004872   0.046542   0.024436   0.012538
    112      -0.032014   0.038656  -0.006665  -0.090537  -0.049802  -0.017908
    113       0.024243   0.036383  -0.006610  -0.076899  -0.051993  -0.013169
    114      -0.004147   0.066064   0.000979  -0.050840  -0.012953  -0.001588
    115       0.074743  -0.057657  -0.001238   0.074137   0.014685   0.013874
    116       0.022402   0.040207  -0.008796  -0.085547  -0.056842  -0.013860
    117       0.018143   0.059356  -0.001864  -0.048329  -0.021776  -0.000682
    118       0.102042  -0.008841  -0.003647   0.013686  -0.019051   0.009936
    119      -0.054438  -0.012697  -0.000962  -0.013040   0.001394  -0.011414
    120      -0.020803   0.054418   0.005544  -0.026835   0.007150   0.001464
    121      -0.005347  -0.030997  -0.000183   0.038936   0.017697   0.006929
    122       0.035245  -0.000342  -0.002739  -0.024177  -0.023785  -0.007481
    123      -0.047658   0.073625   0.000396  -0.086137  -0.025329  -0.014893
    124       0.033995  -0.017189  -0.000235   0.015172  -0.001787   0.002991
    125       0.049680  -0.007670  -0.000847  -0.002133  -0.012898  -0.001302
    126      -0.108552   0.001931  -0.004444  -0.083500  -0.032793  -0.034892
    127       0.011409   0.036388  -0.002733  -0.126496  -0.069169  -0.031908
    128      -0.022703  -0.003808   0.001951   0.023478   0.016005   0.010920
    129      -0.124363   0.035573  -0.006005  -0.084390  -0.035627  -0.025308
    130      -0.057982   0.079464  -0.009577  -0.142233  -0.081469  -0.022693
    131       0.103030  -0.015575   0.003379   0.054037   0.005706   0.023468
    132       0.055270   0.026500  -0.004253  -0.039736  -0.047497  -0.004576
    133      -0.083621   0.073458  -0.006150  -0.109904  -0.045904  -0.012672
    134       0.072665  -0.012457   0.002694   0.045211   0.004457   0.018597
    135       0.058919  -0.002810  -0.004086  -0.043204  -0.048563  -0.013584
    136      -0.043236   0.031078  -0.003180  -0.102307  -0.045330  -0.027413
    137      -0.044954  -0.003306   0.001928   0.015805   0.017187   0.007456
    138       0.081075  -0.161831  -0.006824  -0.042992  -0.055605  -0.016252
    139       0.196194  -0.146429   0.011766  -0.028777   0.043045   0.054133
    140      -0.296172   0.290560  -0.009641   0.255782   0.030117  -0.029369
    141       0.255918  -0.381501   0.004570  -0.162985  -0.050702   0.025552
    142       0.302155  -0.156249   0.005624  -0.123068  -0.009021   0.022391
    143       0.059971  -0.036755   0.000685  -0.009357  -0.014190   0.000015
    144      -0.155300   0.081422  -0.021352   0.124955  -0.062716  -0.060083
    145      -0.030839  -0.096974   0.012183   0.180143   0.102173   0.060836
    146      -0.187288  -0.062550   0.010509   0.228049   0.089558   0.052271
    147       0.048933  -0.053454  -0.016723  -0.102598  -0.128534  -0.094265
    148       0.135329   0.031849  -0.005116  -0.056941  -0.046572  -0.040336
    149      -0.133986  -0.105542   0.011980   0.169837   0.072853   0.044388
    150      -0.054268  -0.042765  -0.062488   0.006672  -0.046684   0.012109
    151       0.163787   0.125799  -0.239797   0.008496   0.091579  -0.038991
    152      -0.132445  -0.162043   0.678595   0.024072  -0.133868  -0.022942
    153       0.062666   0.048013  -0.055872   0.005610   0.041226   0.007570
    154       0.194418   0.153231  -0.199454   0.056243   0.027077  -0.044273
    155      -0.259480  -0.273121   0.632120  -0.106431   0.016946  -0.009334
    156       0.042381   0.041120   0.009181  -0.037473   0.016491  -0.024469
    157      -0.040332   0.057851   0.007001  -0.075539   0.064507   0.057309
    158      -0.085337  -0.007181  -0.007099  -0.074160   0.073940   0.029780
    159       0.025357   0.056275   0.007914  -0.098288  -0.049524  -0.010950
    160      -0.042899   0.044078   0.008987  -0.043009   0.107585   0.031104
    161      -0.059042  -0.043026  -0.017114  -0.009350  -0.017947   0.021277
    162       0.039340   0.042865   0.002284  -0.020830  -0.079724   0.008624
    163       0.022693   0.023013   0.007436   0.014008   0.058170  -0.006148
    164      -0.037500  -0.043596  -0.018522   0.034731  -0.037855   0.029998
    165       0.050129   0.026569   0.006271   0.037796   0.033897  -0.072447
    166       0.009413   0.009166  -0.004060  -0.001793  -0.021766   0.071330
    167      -0.074155  -0.024702  -0.011063  -0.010485   0.068524  -0.000803
    168       0.021516   0.065981   0.003154  -0.124980  -0.121916   0.181939
    169       0.087467   0.200047   0.059687  -0.107004   0.455169  -0.424132
    170       0.100263   0.144313   0.046503  -0.048643   0.246874  -0.258842
    171      -0.083441  -0.049618  -0.004068   0.084936   0.377016  -0.372051
    172       0.020032   0.090426   0.005016  -0.150330  -0.180858   0.339219
    173       0.165927   0.227838   0.066155  -0.126844   0.223291  -0.250258
    174       0.013793   0.065432   0.005681  -0.113408  -0.126297   0.247302
    175       0.091262   0.194927   0.040012  -0.197218  -0.028439   0.188303
    176       0.118799   0.138094   0.015285  -0.191125  -0.391228   0.441552
                 30         31         32         33         34         35    
      0       0.013711   0.034340   0.089081   0.082350   0.020787   0.103736
      1      -0.013364  -0.020182  -0.028802  -0.049147  -0.081218   0.011145
      2      -0.014093  -0.012884  -0.021933  -0.050368  -0.088604   0.009227
      3       0.004952   0.016121   0.023970   0.021079   0.007894  -0.000544
      4       0.017491  -0.001904  -0.035377   0.002159   0.055307  -0.059658
      5       0.011723   0.009028   0.005786   0.015267   0.015063   0.007815
      6      -0.018720  -0.000063   0.024174  -0.002807   0.001157   0.001205
      7      -0.021831  -0.011071  -0.004581  -0.024360   0.037057  -0.056460
      8       0.002677  -0.005285   0.023099   0.028155   0.008261   0.093558
      9      -0.033697  -0.028937  -0.002649  -0.023502   0.020169  -0.003915
     10      -0.056366  -0.018826   0.052900  -0.004721   0.043490   0.037648
     11      -0.033707  -0.032305   0.039270   0.013556   0.013015   0.116916
     12       0.005972   0.005563   0.023800   0.000479  -0.089259   0.060968
     13      -0.012637  -0.003859  -0.018936  -0.044687  -0.045409  -0.027475
     14       0.001520  -0.024128  -0.031826  -0.023099  -0.042683   0.048027
     15       0.020882   0.030858   0.070700   0.084341   0.050353   0.062091
     16      -0.010106  -0.002272   0.003163  -0.010940  -0.006490   0.013061
     17       0.016031   0.006558  -0.026775   0.026149   0.141533  -0.104481
     18       0.003259  -0.022105  -0.066135  -0.026676   0.008200  -0.050085
     19       0.014335   0.011190   0.004946   0.049950   0.034055   0.061829
     20      -0.007742   0.011440   0.027153   0.005760  -0.008846  -0.054453
     21       0.010008  -0.036899  -0.084752  -0.026948   0.002169  -0.056882
     22       0.075772   0.031173  -0.027218   0.086573   0.003811   0.074313
     23      -0.001052   0.026501   0.025085   0.003271  -0.011066  -0.083021
     24       0.002225  -0.037110  -0.077611  -0.058913  -0.010985  -0.112397
     25       0.044193   0.017651   0.018075   0.033087  -0.024432  -0.006964
     26       0.029645   0.046209  -0.017471   0.001064  -0.009791  -0.081859
     27      -0.014062  -0.036019  -0.067817  -0.077538  -0.006955  -0.111786
     28      -0.033125  -0.000989   0.089424  -0.010528  -0.021783  -0.049606
     29       0.043391   0.045279  -0.036919   0.003498  -0.007046  -0.055350
     30       0.030006  -0.016446  -0.105527  -0.058722  -0.018999  -0.103185
     31       0.023437   0.019801   0.056083   0.037540  -0.030195   0.003450
     32       0.026141   0.038664  -0.023719  -0.002777  -0.005442  -0.085523
     33       0.041233  -0.010537  -0.122119  -0.039999  -0.001859  -0.072771
     34       0.047184   0.022357   0.009075   0.073701   0.011704   0.099652
     35      -0.004495   0.018275   0.016795  -0.001322  -0.008660  -0.087306
     36      -0.037183  -0.036524  -0.047294  -0.060534   0.008752  -0.078788
     37      -0.076866   0.001312   0.082056  -0.019561   0.002320  -0.089050
     38       0.030122   0.001199  -0.012046   0.019168   0.003730   0.138421
     39       0.034570   0.054206  -0.074581   0.022382   0.005493   0.040475
     40       0.024227   0.053638   0.013508   0.033833  -0.005100   0.033199
     41      -0.070323  -0.051356   0.058934  -0.008048   0.006982   0.020404
     42      -0.050904  -0.053168   0.025281   0.026985   0.002973  -0.011690
     43      -0.014085   0.003214   0.005416   0.086675  -0.010612   0.000354
     44       0.028484   0.094135  -0.095821   0.085105  -0.006136   0.035052
     45      -0.026115   0.028260   0.007508   0.056050  -0.003774   0.017537
     46      -0.032957  -0.026569  -0.064244   0.100945  -0.007495  -0.009120
     47       0.016395  -0.071178   0.119009  -0.052372   0.001170  -0.046583
     48       0.002588  -0.026026  -0.027941   0.038556   0.002982   0.014859
     49       0.028750  -0.018765  -0.056388   0.089702  -0.010052  -0.023024
     50      -0.127478  -0.101563   0.099106   0.014595  -0.003182  -0.054767
     51      -0.024843  -0.012809  -0.028885  -0.082895   0.020935   0.013907
     52      -0.029024  -0.026441   0.004436   0.057801  -0.005344  -0.065177
     53      -0.051866  -0.046707   0.033333   0.012250   0.001489   0.020186
     54      -0.031184   0.033697   0.094904   0.008782  -0.035596  -0.014563
     55      -0.009041  -0.005502  -0.029026  -0.035158   0.010070  -0.084836
     56       0.026594  -0.007235  -0.034048   0.009564  -0.027249   0.065764
     57      -0.052490   0.065783   0.030114  -0.296890   0.078425   0.227648
     58      -0.055626  -0.040756   0.020661   0.070931  -0.008357  -0.053387
     59      -0.010296  -0.023039   0.007880  -0.015818   0.006891  -0.016518
     60      -0.034863   0.060213   0.045424   0.052628  -0.009336   0.007375
     61      -0.077272   0.023711  -0.028800   0.013671   0.001298   0.010915
     62       0.089736  -0.008362   0.077865  -0.055029  -0.001006  -0.008183
     63      -0.020594  -0.008874   0.017024   0.057130  -0.002406   0.010104
     64      -0.037765   0.054279   0.040463  -0.038095  -0.002645  -0.020570
     65       0.003611   0.040830  -0.026677   0.046066  -0.007157   0.020184
     66       0.008082  -0.072065  -0.012896   0.078511   0.001063   0.024021
     67       0.042398   0.019511   0.026689  -0.026535  -0.003608  -0.019045
     68      -0.126658  -0.002295  -0.035460   0.075414  -0.003410   0.004447
     69       0.021957  -0.118294  -0.020854   0.116723   0.003221   0.082631
     70       0.037293   0.026876   0.045320  -0.055416  -0.004426  -0.044955
     71      -0.028468   0.016905  -0.059953   0.038858   0.002062   0.016666
     72      -0.010829   0.071895   0.070451   0.060276  -0.019055  -0.021196
     73      -0.069172   0.018612  -0.027380  -0.035806   0.010966   0.050585
     74       0.021479   0.004371   0.024196  -0.034972   0.002616   0.013292
     75      -0.005755   0.070155   0.073686   0.062244  -0.019864  -0.022794
     76      -0.006443  -0.108546  -0.120256  -0.120130   0.039841   0.092235
     77      -0.044135  -0.033739  -0.048913  -0.025016   0.012923   0.031213
     78       0.038849   0.002189   0.042780   0.071823  -0.021027  -0.071670
     79      -0.077416   0.067057   0.006730  -0.056536   0.012096   0.086130
     80      -0.059288   0.022792  -0.007981  -0.002712   0.003240   0.027454
     81       0.013998  -0.045357  -0.001309   0.040874   0.002427   0.058014
     82       0.007621   0.026557   0.005317  -0.039026  -0.001058  -0.035594
     83      -0.009332   0.040841  -0.041011   0.001216   0.001330   0.002223
     84      -0.010866   0.070155   0.021672  -0.053454  -0.007328  -0.055834
     85       0.002610  -0.020551  -0.033406   0.017405   0.006029   0.034380
     86       0.083819   0.013947   0.024074  -0.044898  -0.002710  -0.033776
     87      -0.015972   0.047353   0.010779  -0.043953  -0.003479  -0.044874
     88       0.067136  -0.039477  -0.003023  -0.005269   0.005290   0.036748
     89       0.131035  -0.037516   0.041839  -0.044506   0.000602  -0.014121
     90       0.013227   0.041529   0.041217  -0.056193  -0.003014  -0.030659
     91       0.073420  -0.091455   0.005387   0.041577   0.002763   0.042968
     92       0.138557  -0.017835   0.047209  -0.067672   0.001899  -0.013612
     93       0.058979  -0.063746   0.023503   0.038282   0.000615   0.053321
     94       0.089179  -0.055808   0.039969  -0.017249  -0.000250  -0.009791
     95       0.062007   0.014229  -0.014317  -0.022751   0.002907   0.007773
     96       0.012763  -0.048538  -0.033199   0.031237   0.005956   0.037411
     97       0.114026   0.015389   0.037622  -0.082518   0.000490  -0.023466
     98       0.035855  -0.065169   0.005142   0.025170   0.003588   0.035306
     99       0.032814   0.003588  -0.008209  -0.023907   0.002380  -0.000637
    100      -0.063700   0.068776  -0.033701  -0.041135   0.001585  -0.018002
    101      -0.157815   0.068196  -0.041873   0.010543  -0.001108  -0.008871
    102       0.047639   0.071405   0.135471   0.202505   0.278189   0.061417
    103      -0.034541  -0.038483  -0.045752  -0.099337  -0.176224   0.024254
    104      -0.015348  -0.017610  -0.032047  -0.071440  -0.140902   0.018602
    105      -0.005270   0.010351   0.056616   0.008188  -0.137111   0.123247
    106      -0.019804  -0.033816  -0.047443  -0.089942  -0.185090   0.030650
    107      -0.047681  -0.045003  -0.065715  -0.151655  -0.269226   0.017453
    108       0.048998   0.036262  -0.035836   0.030981   0.056963  -0.133882
    109       0.054294   0.017774  -0.052939   0.054928   0.195606  -0.153111
    110      -0.017074  -0.005862   0.025083  -0.018231  -0.077492   0.083918
    111      -0.012189   0.002657   0.007570  -0.007824   0.022041  -0.044856
    112       0.049749   0.017923  -0.037927   0.040199   0.079897  -0.066474
    113       0.063168   0.030439  -0.061588   0.044121   0.149661  -0.174075
    114       0.022625   0.020957   0.040123   0.024742  -0.101063   0.090732
    115      -0.026074  -0.027209  -0.073334  -0.116619  -0.122891  -0.072529
    116       0.041409  -0.014402  -0.095725  -0.093608  -0.281409   0.063148
    117       0.016212  -0.007451  -0.028662  -0.084277  -0.329169   0.113791
    118       0.030868   0.019256  -0.068557  -0.060591  -0.100391  -0.095421
    119      -0.022876  -0.030298   0.011006   0.015046   0.069616   0.061263
    120       0.020411   0.043351   0.092921   0.110111   0.096359   0.045373
    121      -0.042198  -0.037054   0.001441  -0.099426  -0.278075   0.194137
    122       0.038135   0.024320  -0.036382   0.074223   0.305400  -0.220958
    123       0.038908   0.026718   0.037343   0.101758   0.139951  -0.007760
    124       0.017243   0.026634  -0.001408   0.058027   0.220351  -0.153212
    125       0.035066   0.034077  -0.019832   0.083358   0.318147  -0.231720
    126       0.007474  -0.046976  -0.087649  -0.014092   0.008038  -0.042213
    127       0.117866   0.048393  -0.062095   0.128218   0.005711   0.125435
    128      -0.013852   0.017831   0.033182  -0.004814  -0.009391  -0.094203
    129      -0.005290  -0.042778  -0.061425  -0.055068  -0.015781  -0.117702
    130       0.070485   0.028791  -0.008418   0.036168  -0.036291  -0.038538
    131       0.040073   0.053324  -0.034412  -0.002363  -0.008272  -0.083911
    132       0.055729   0.006275  -0.128563  -0.059053  -0.033476  -0.125230
    133       0.032585   0.030596   0.059373   0.042140  -0.048181  -0.006759
    134       0.032126   0.043130  -0.032439  -0.004706  -0.005250  -0.091093
    135       0.066210  -0.000012  -0.160292  -0.041380  -0.000358  -0.053466
    136       0.064012   0.030210  -0.002714   0.093978   0.021136   0.151045
    137      -0.019417   0.012529   0.043478   0.004224  -0.008768  -0.091024
    138       0.034939   0.052558  -0.062616   0.047172   0.003131   0.054746
    139       0.068128   0.104405  -0.050300  -0.005517  -0.000802   0.046275
    140      -0.249150  -0.236650   0.195243  -0.088280   0.013589  -0.170545
    141       0.202094   0.249570  -0.235111   0.084029   0.000118   0.184719
    142       0.091649   0.081085  -0.007129   0.057155  -0.006703   0.145430
    143       0.009185   0.019267   0.002168   0.019034   0.004820   0.110878
    144      -0.121327  -0.087315   0.012828   0.053428   0.005523  -0.007460
    145       0.081107   0.245499  -0.274133   0.252142  -0.027506   0.083507
    146       0.062800   0.249754  -0.299986   0.215781  -0.017010   0.096358
    147      -0.053846  -0.188818   0.112662  -0.038917   0.008125  -0.078383
    148      -0.088241  -0.191692   0.245809  -0.065462   0.004846  -0.062469
    149       0.088598   0.232813  -0.282478   0.200518  -0.018032   0.076196
    150      -0.036533   0.180215   0.170074   0.146280  -0.051178  -0.081369
    151      -0.054404  -0.160785  -0.210936  -0.132011   0.057331   0.134513
    152       0.118058  -0.095358   0.000501  -0.137921   0.024676   0.031409
    153       0.011726  -0.037945  -0.030047  -0.017647   0.012228   0.040876
    154      -0.000222  -0.152549  -0.158420  -0.156118   0.053378   0.119835
    155      -0.035455  -0.083281  -0.111703  -0.049329   0.026287   0.055980
    156       0.000355  -0.052341  -0.004107   0.052726   0.003970   0.080420
    157      -0.010788   0.070317  -0.014303  -0.067751  -0.000642  -0.060418
    158      -0.042107   0.073877  -0.063514  -0.010613   0.003250   0.005013
    159      -0.065496   0.137411   0.019428  -0.074963  -0.012866  -0.095529
    160      -0.073232   0.007113  -0.078543   0.051107   0.007074   0.041242
    161       0.097872   0.021796   0.040011  -0.063560  -0.004511  -0.046903
    162       0.004361   0.055633   0.053592  -0.083870  -0.001531  -0.033558
    163       0.089923  -0.126101   0.009581   0.075657   0.000891   0.051765
    164       0.148951  -0.036107   0.067807  -0.069258   0.001975  -0.008410
    165       0.120290  -0.100401   0.051456   0.028211   0.002333   0.076409
    166       0.158412  -0.104949   0.067792  -0.030405   0.001663  -0.003179
    167       0.053408   0.022216  -0.016748  -0.020540   0.002646   0.011502
    168      -0.097680   0.009912  -0.047528   0.010879   0.001112  -0.014318
    169       0.038954   0.310977   0.039368  -0.228899  -0.007442  -0.102802
    170      -0.056267   0.161953   0.005232  -0.080569  -0.004112  -0.036314
    171       0.357777   0.105969   0.135257  -0.210217  -0.003445  -0.049290
    172      -0.132687  -0.099102  -0.083380   0.089136   0.007728   0.040809
    173      -0.200519   0.246386  -0.035581  -0.084025  -0.006739  -0.065990
    174      -0.140249  -0.056267  -0.086515   0.080854   0.006028   0.030583
    175      -0.250979   0.034552  -0.118595   0.057635   0.005298   0.012741
    176      -0.363223  -0.087051  -0.134830   0.173567   0.003888   0.035146
                 36         37         38         39         40         41    
      0      -0.025877  -0.058533   0.033327   0.022154   0.007452   0.002090
      1       0.012837   0.001467  -0.012346   0.001384   0.006477  -0.001133
      2      -0.002363   0.002635  -0.003776  -0.006095   0.003778   0.000647
      3      -0.007917  -0.007597  -0.035286  -0.003140   0.036333   0.001343
      4      -0.002416   0.015005  -0.009170  -0.000562  -0.003379  -0.002511
      5      -0.025749  -0.013485   0.034045   0.008318  -0.019756  -0.000877
      6       0.034635   0.036733  -0.004491  -0.023332  -0.018542   0.006130
      7       0.007745   0.065732   0.051350  -0.026802  -0.077777   0.003258
      8       0.071605  -0.002570   0.033221  -0.004404  -0.036334   0.008441
      9       0.134937   0.094903  -0.015903  -0.054691  -0.047361   0.012245
     10       0.073105   0.057572   0.065696  -0.027361  -0.088933   0.010076
     11       0.157969   0.054086   0.042200  -0.031447  -0.076176   0.013255
     12      -0.005335  -0.007037   0.001975  -0.004132   0.004607  -0.000530
     13      -0.044831  -0.014093   0.004380   0.010054   0.007723  -0.002019
     14       0.092189   0.023080  -0.017903  -0.019506  -0.003076   0.006179
     15      -0.016454  -0.029781   0.020280   0.011420   0.000538  -0.000367
     16      -0.012595  -0.026333   0.014047   0.017387   0.002277   0.000886
     17       0.005341   0.037662  -0.012747  -0.013285  -0.010723  -0.000341
     18       0.082229   0.021873  -0.094889  -0.016150   0.059374   0.001213
     19       0.017058  -0.094750  -0.078194   0.034372   0.118462  -0.002763
     20      -0.126019  -0.031462   0.027730   0.038548   0.006045  -0.017176
     21       0.060795   0.006583  -0.115471   0.054678  -0.016614  -0.007594
     22      -0.001228  -0.111933  -0.190333   0.150447  -0.043947  -0.000035
     23      -0.143539  -0.020140   0.025928   0.009560   0.031979  -0.012767
     24       0.006843   0.066691   0.066501  -0.074172   0.029777  -0.004004
     25      -0.059798   0.051214   0.219695  -0.138491   0.037348   0.004073
     26      -0.100292  -0.013981  -0.049106   0.003947   0.001924   0.009518
     27       0.001962   0.056909   0.041333  -0.016661  -0.053696   0.001139
     28      -0.053388   0.077814   0.076341  -0.015186  -0.108158   0.001126
     29      -0.064871  -0.014096  -0.027423  -0.017663   0.016992   0.012668
     30       0.040293   0.070532  -0.042201   0.014810  -0.125900   0.009160
     31      -0.102599   0.001901  -0.028082   0.133836  -0.229201  -0.006912
     32      -0.124557  -0.030647   0.012098  -0.016353   0.041109   0.005880
     33       0.059233   0.019241  -0.011380  -0.081242   0.111028   0.006841
     34      -0.012876  -0.090982   0.076020  -0.083100   0.234693  -0.005284
     35      -0.160741  -0.038746   0.016533   0.057345  -0.010500  -0.017086
     36       0.019405  -0.049468   0.008228   0.013284   0.010310   0.003977
     37       0.000259  -0.071671  -0.070886  -0.005586   0.067698   0.013919
     38       0.178820   0.074606   0.068103  -0.012762  -0.090256  -0.004568
     39       0.020292  -0.122478   0.103359   0.053772  -0.043244  -0.002972
     40       0.076195   0.077613  -0.026567  -0.033163  -0.001200   0.003531
     41       0.140267  -0.034907   0.015241  -0.002206  -0.021528   0.005751
     42       0.007718  -0.166608   0.093882   0.065923  -0.022391  -0.005345
     43       0.052760   0.072953  -0.028698  -0.004981   0.032163  -0.010327
     44       0.002900   0.011981   0.025931   0.021249  -0.003542  -0.008204
     45      -0.010366  -0.037969   0.053117   0.043770  -0.010344  -0.009018
     46       0.062737  -0.009674   0.025864   0.041859   0.017219  -0.019069
     47      -0.043272  -0.085330  -0.044990  -0.068521  -0.005511   0.029126
     48      -0.024244  -0.025176   0.035665   0.021261  -0.013328  -0.003332
     49       0.085125  -0.075657   0.014099  -0.021774  -0.023419   0.010159
     50      -0.046386   0.075504  -0.024915   0.076756   0.090295  -0.035100
     51      -0.001430  -0.021283   0.009238   0.016524   0.006051   0.001439
     52       0.126245  -0.107623  -0.030117  -0.017832   0.019095   0.014303
     53       0.095932   0.039344   0.014479   0.032470   0.006408  -0.015914
     54      -0.159811  -0.027494   0.078804   0.031563  -0.031830  -0.012245
     55      -0.032451   0.033020   0.001950  -0.011191  -0.013457  -0.003285
     56       0.075692  -0.035203  -0.068176   0.001128   0.070020   0.004993
     57      -0.010680  -0.019528  -0.052548   0.041192   0.072746  -0.004469
     58       0.143763  -0.053177  -0.014483   0.005105   0.019116   0.000057
     59       0.077733  -0.072627  -0.018409  -0.011777   0.014940   0.013254
     60      -0.023685   0.004107   0.010889   0.010456  -0.003731  -0.003197
     61      -0.018299   0.027637  -0.002520   0.024404   0.022397  -0.011357
     62       0.002954  -0.054570  -0.030254  -0.093653  -0.048322   0.030997
     63      -0.036843  -0.033738   0.032569   0.021193  -0.010436  -0.003002
     64       0.004963  -0.031997  -0.024008  -0.039209  -0.007129   0.015323
     65       0.036418   0.102474   0.025626   0.083290   0.038780  -0.036455
     66      -0.048106  -0.020086   0.023677   0.015222  -0.008119  -0.001805
     67       0.037375  -0.047147  -0.012285  -0.045792  -0.022016   0.013869
     68      -0.024106   0.119341   0.016063   0.131400   0.092437  -0.054812
     69      -0.127912   0.046497  -0.043495  -0.040585   0.001082   0.004631
     70       0.069685   0.033476   0.027824   0.077194   0.040999  -0.029463
     71      -0.024652  -0.093987  -0.013396  -0.081530  -0.050577   0.028423
     72       0.006186   0.068286  -0.065452  -0.057546   0.005378   0.011361
     73      -0.089499   0.070302  -0.041900  -0.028563   0.007516   0.005552
     74      -0.023419  -0.005721  -0.031036  -0.067319  -0.029679   0.021942
     75       0.007614   0.072239  -0.072349  -0.066038   0.004154   0.014046
     76      -0.110787  -0.049661   0.073267   0.050568  -0.024218  -0.007149
     77      -0.044816  -0.001995   0.023220   0.029311   0.002780  -0.006740
     78       0.104880  -0.008133  -0.025016  -0.013619   0.016833   0.000371
     79      -0.158371   0.114472  -0.081328  -0.089435  -0.015777   0.022941
     80      -0.054154   0.053411  -0.026761  -0.014675   0.006693   0.001967
     81      -0.087936   0.036462  -0.069033  -0.092275  -0.017075  -0.148470
     82       0.054823   0.031479   0.046943   0.114115   0.053276   0.081690
     83      -0.001412  -0.110803  -0.023572  -0.113110  -0.065954  -0.047967
     84       0.062914   0.038138   0.047617   0.111376   0.049453   0.130131
     85      -0.037441  -0.029743  -0.033622  -0.070531  -0.026261  -0.100937
     86       0.040909  -0.003250   0.030290   0.046102   0.011443   0.075699
     87       0.061821   0.003322   0.042303   0.073452   0.024912  -0.033027
     88      -0.053274   0.025601  -0.033386  -0.041121  -0.007949   0.018748
     89       0.017835   0.033909   0.020902   0.048106   0.018328  -0.019936
     90       0.052034   0.016285   0.007080   0.024359   0.016685  -0.194237
     91      -0.069803   0.074316  -0.012556   0.031547   0.031673   0.113307
     92       0.024455   0.008310   0.004826   0.001614  -0.004355  -0.095285
     93      -0.090614   0.097294  -0.032443   0.016132   0.034919   0.159202
     94       0.018637   0.043265   0.013532   0.047066   0.026535  -0.145484
     95      -0.013188  -0.056563  -0.008371  -0.054798  -0.037196   0.117102
     96      -0.052329  -0.026858  -0.026246  -0.070395  -0.036670   0.031564
     97       0.029207   0.022475   0.016395   0.032284   0.009554  -0.012731
     98      -0.049347   0.068913  -0.020296   0.019265   0.030154  -0.009442
     99      -0.001482  -0.034390  -0.001263  -0.039279  -0.032435   0.022532
    100       0.023146  -0.069536   0.005672  -0.053001  -0.048252   0.023659
    101       0.012781  -0.029747   0.000761  -0.013476  -0.009550   0.007996
    102      -0.040556  -0.069901   0.093337   0.037494  -0.037307   0.005218
    103       0.031785   0.011825  -0.046109  -0.007255   0.028482  -0.001697
    104      -0.007855   0.001696  -0.008634  -0.007631   0.009065  -0.000385
    105      -0.015443  -0.043984  -0.005082   0.009359   0.032228  -0.000841
    106       0.014231   0.011277  -0.025435  -0.006644   0.012739  -0.004222
    107       0.021483   0.019163  -0.073051  -0.021557   0.052542  -0.000401
    108      -0.109655  -0.061833  -0.153831   0.034395   0.172335  -0.017736
    109      -0.032542   0.012969  -0.047932   0.010068   0.030108  -0.009767
    110       0.007268  -0.004910   0.073705  -0.003391  -0.058464   0.006215
    111       0.027286   0.055044  -0.023112  -0.035734  -0.009331   0.006512
    112      -0.059431  -0.053149  -0.056425   0.038544   0.075746  -0.012598
    113      -0.101456  -0.028240  -0.084727   0.028884   0.091756  -0.017707
    114      -0.048187  -0.052639   0.006294   0.019314   0.027605  -0.004086
    115      -0.023481   0.029373  -0.026488  -0.016019   0.011331  -0.001957
    116      -0.044489  -0.071547  -0.078686   0.021349   0.109423  -0.009756
    117      -0.049871  -0.050734  -0.042758   0.008398   0.067824  -0.007475
    118      -0.173659  -0.079183  -0.043901   0.044656   0.093550  -0.015821
    119       0.168409   0.069042   0.021120  -0.039869  -0.066345   0.015133
    120      -0.048178  -0.038490   0.032067   0.019358  -0.003578  -0.002484
    121       0.045971  -0.062819   0.029797   0.018658   0.009936   0.008607
    122      -0.019493   0.067421  -0.029335  -0.018183  -0.014404  -0.004628
    123       0.023564   0.014214  -0.015692  -0.006548   0.001594  -0.001284
    124      -0.067823   0.009504  -0.002971   0.014520  -0.003952  -0.006464
    125      -0.056898   0.056136  -0.016384  -0.010354  -0.016869  -0.006646
    126       0.042013  -0.040229  -0.157928   0.140745  -0.058451  -0.019852
    127       0.049188  -0.154508  -0.363438   0.267001  -0.175189   0.013341
    128      -0.165236  -0.023854   0.061811   0.004916   0.056625  -0.020915
    129      -0.003783   0.080608   0.138073  -0.129205   0.082524  -0.009842
    130      -0.100709   0.067380   0.412062  -0.301400   0.140055   0.018178
    131      -0.102832  -0.021885  -0.063379   0.012828  -0.015831   0.016529
    132       0.050753   0.088925  -0.125082   0.043034  -0.230497   0.026821
    133      -0.152581  -0.017344  -0.117096   0.267790  -0.420897  -0.007790
    134      -0.106746  -0.017771   0.009324  -0.046248   0.062054   0.012027
    135       0.085735   0.019034   0.057432  -0.171578   0.185967   0.021022
    136       0.010006  -0.110068   0.193441  -0.217041   0.417133  -0.002751
    137      -0.176805  -0.042591  -0.011204   0.097544  -0.029758  -0.026979
    138       0.015289  -0.127237   0.116705   0.058825  -0.043187  -0.006132
    139       0.089824   0.092709  -0.024815  -0.040285  -0.031714   0.009682
    140       0.141978  -0.065310  -0.117345  -0.021289   0.102393   0.013181
    141      -0.011806  -0.105852   0.209480   0.074562  -0.142000  -0.007377
    142       0.141003   0.139111   0.037090  -0.040160  -0.071232  -0.002982
    143       0.156934  -0.005819   0.073878   0.001063  -0.080913   0.001989
    144       0.067932  -0.192327   0.131805   0.118979  -0.021846  -0.019768
    145      -0.011417   0.287806   0.001930   0.066163   0.064560  -0.057127
    146      -0.013252   0.152870   0.065565   0.096721   0.019609  -0.048311
    147      -0.044897  -0.300783   0.080276   0.033715  -0.030277   0.015650
    148       0.117091  -0.103546  -0.054845  -0.072156  -0.001305   0.032078
    149      -0.061297   0.137551   0.045688   0.072625   0.023657  -0.040440
    150       0.061949   0.175938  -0.196974  -0.166000   0.029537   0.033370
    151      -0.145208  -0.070056   0.162559   0.164340  -0.010012  -0.039109
    152      -0.056176  -0.127854   0.025294  -0.066428  -0.072572   0.034594
    153      -0.050581  -0.033517   0.059726   0.040345  -0.023056  -0.006269
    154      -0.136350  -0.113218   0.122306   0.066872  -0.052850  -0.003739
    155      -0.067490   0.023455   0.100128   0.174007   0.052956  -0.057400
    156      -0.116357   0.028668  -0.116321  -0.179356  -0.045853  -0.300059
    157       0.092157  -0.005119   0.084362   0.155950   0.055693   0.205393
    158      -0.000542  -0.156462  -0.045506  -0.181515  -0.100500  -0.115289
    159       0.111191   0.035493   0.070662   0.159718   0.071148   0.286168
    160      -0.037055  -0.115342  -0.042349  -0.135968  -0.065791  -0.205954
    161       0.053733   0.026563   0.039646   0.082202   0.031072   0.155710
    162       0.071093   0.010842  -0.015089  -0.017769   0.002892  -0.334877
    163      -0.094666   0.104671   0.001451   0.074686   0.052475   0.207116
    164       0.023766   0.031998  -0.008930  -0.007403  -0.000248  -0.178496
    165      -0.131968   0.195248  -0.041670   0.067321   0.077019   0.349273
    166       0.010881   0.072383   0.010969   0.051241   0.030142  -0.298102
    167      -0.021562  -0.041179  -0.009931  -0.042762  -0.027332   0.225362
    168       0.015511  -0.072181   0.013405  -0.042210  -0.046036   0.060252
    169       0.142185  -0.133867   0.038161  -0.048973  -0.068777  -0.029439
    170       0.052161  -0.038358   0.006887  -0.011206  -0.012022  -0.029327
    171       0.067048   0.047469   0.017977   0.051632   0.024196  -0.077960
    172      -0.059832  -0.023914  -0.016443  -0.053949  -0.032889   0.066258
    173       0.093473  -0.123464   0.021806  -0.049833  -0.053123  -0.006453
    174      -0.044403  -0.077890  -0.016006  -0.094226  -0.063969   0.070297
    175      -0.017773  -0.134889  -0.013229  -0.130781  -0.094049   0.067506
    176      -0.051426  -0.032954  -0.007383  -0.028966  -0.016604   0.083594
                 42         43         44         45         46         47    
      0      -0.083914  -0.018418  -0.002228   0.023667  -0.138044   0.038498
      1       0.016087  -0.075995  -0.015120   0.000705   0.068866  -0.052900
      2       0.003837   0.107685   0.021181  -0.004768  -0.066080   0.049190
      3      -0.007363  -0.111489  -0.006007  -0.025611   0.039385   0.106189
      4       0.034259  -0.028358  -0.008954   0.001975   0.053900  -0.060693
      5      -0.016737   0.121736   0.012547   0.024896  -0.109534  -0.040483
      6      -0.030498  -0.031343  -0.012253  -0.008635   0.031971   0.040077
      7      -0.002603   0.162027   0.003862   0.014921  -0.046415  -0.015696
      8      -0.098343   0.000279  -0.018137   0.031371  -0.049975  -0.057400
      9      -0.024788   0.038070  -0.002636  -0.025747   0.081554   0.057154
     10      -0.075017   0.059989  -0.005847   0.006115   0.006764   0.022228
     11      -0.086960  -0.025581  -0.023355   0.005828   0.084425  -0.031515
     12       0.034067   0.170454   0.033843  -0.018338   0.029835   0.005342
     13      -0.013205  -0.045890  -0.005516   0.010699  -0.081075   0.038605
     14      -0.025831  -0.077123  -0.020772  -0.004515   0.107497  -0.045288
     15      -0.008866   0.083427   0.017528  -0.000387  -0.011495  -0.010835
     16      -0.077408  -0.246075  -0.050298   0.038250  -0.092098  -0.005251
     17       0.032426   0.019172   0.003104  -0.011153   0.035612   0.009108
     18       0.047348  -0.015761   0.023172  -0.034894  -0.015215   0.054330
     19       0.004773  -0.007900   0.054548  -0.040497  -0.058268   0.070819
     20       0.131836  -0.020143   0.010942   0.003987  -0.037404  -0.013997
     21       0.093014  -0.013517   0.007144  -0.001192  -0.051042  -0.043528
     22      -0.040798   0.055455   0.019373  -0.001401   0.016596  -0.023275
     23       0.103012  -0.020991   0.010794  -0.007015  -0.018259   0.035925
     24       0.060822  -0.033178  -0.021686   0.019790  -0.041989  -0.027510
     25      -0.028363   0.000884  -0.028973   0.023347   0.043371   0.018724
     26      -0.124384   0.020543  -0.022507   0.009873   0.054686   0.029294
     27      -0.025226  -0.039468  -0.006687   0.007642  -0.070785   0.011327
     28       0.019383  -0.047104   0.011863  -0.042454  -0.006814   0.119791
     29      -0.147514   0.027974  -0.025465   0.019161   0.049387  -0.000233
     30      -0.074739  -0.009539  -0.035031   0.028447  -0.027639  -0.012482
     31       0.025723  -0.004357  -0.028168   0.014276   0.028949   0.008055
     32      -0.123564   0.014776  -0.020686   0.024201   0.019010  -0.000746
     33      -0.037748   0.011524  -0.003182   0.013754  -0.038812  -0.022585
     34       0.035444   0.037943   0.027513  -0.003546   0.014852  -0.035398
     35       0.105831  -0.028719   0.009781   0.007695  -0.061911  -0.000554
     36      -0.052539  -0.003602   0.020710   0.051487  -0.033707  -0.037733
     37      -0.077696   0.026302   0.038038   0.053671   0.040938   0.006044
     38       0.150799  -0.043538   0.020540  -0.025077  -0.036289  -0.010082
     39       0.024701   0.004671   0.010110   0.138148   0.031343   0.009355
     40       0.031549  -0.017394   0.038863  -0.083732  -0.011810   0.016401
     41       0.074033  -0.015209   0.049252   0.031111   0.001331  -0.004599
     42       0.001395   0.016746  -0.011624   0.040096   0.048673   0.066678
     43       0.006643  -0.005598   0.001356  -0.198248  -0.012819   0.062803
     44       0.009332   0.000230  -0.000158  -0.012073   0.010965   0.021831
     45      -0.008772   0.002581   0.021381  -0.050521   0.029665   0.065853
     46       0.022856   0.005023  -0.035595  -0.027845  -0.004838   0.023552
     47      -0.024902   0.012768  -0.045670  -0.078050   0.004576  -0.001867
     48      -0.028518  -0.005416   0.029549  -0.115305  -0.007520   0.001453
     49       0.035385   0.002652  -0.047546  -0.005914  -0.010425  -0.017966
     50      -0.046516   0.012652   0.009558  -0.032717   0.003815   0.036116
     51      -0.027613  -0.004411   0.012655  -0.025623  -0.025492  -0.022029
     52       0.009658   0.010189   0.034731   0.105036   0.000068  -0.068795
     53       0.062691  -0.015174   0.035728   0.034696  -0.019403  -0.008059
     54       0.059675  -0.091894  -0.027670   0.025539   0.086498  -0.142300
     55       0.059544   0.104603   0.018830  -0.013070  -0.001434   0.031401
     56      -0.043761  -0.093196   0.004909  -0.020726   0.000676   0.073988
     57       0.058451   0.029966  -0.090525   0.012138   0.012781   0.000129
     58       0.032444  -0.000584   0.051730   0.108430  -0.008872  -0.056609
     59       0.021083   0.007316   0.008831   0.063681  -0.002446  -0.045853
     60      -0.014097   0.000216   0.029670  -0.043553   0.022944   0.047386
     61       0.003227   0.007592  -0.039361   0.034062   0.003376   0.023186
     62       0.016831  -0.006168  -0.027739  -0.080617  -0.012194   0.010921
     63      -0.033125  -0.001716   0.050479  -0.127013   0.013238   0.027534
     64       0.017187   0.011085  -0.110000  -0.001804   0.004498   0.060588
     65       0.014528  -0.000933   0.016904   0.089616   0.009850   0.036424
     66      -0.028580  -0.004507   0.051188  -0.134124  -0.004854  -0.024928
     67       0.030703   0.006623  -0.114612  -0.025484  -0.007265   0.034552
     68      -0.029471   0.015836  -0.016555   0.049116   0.014698   0.020750
     69       0.010506   0.003704  -0.015802  -0.037352  -0.006307  -0.105576
     70      -0.003507   0.010878  -0.096136   0.005466   0.001544   0.091205
     71       0.011712   0.005179  -0.092001  -0.096068  -0.014587  -0.080844
     72       0.003333  -0.008035   0.042312   0.022300  -0.010845  -0.041914
     73      -0.005843  -0.005530   0.036054   0.044462  -0.012962  -0.043898
     74       0.010324  -0.008673   0.004291  -0.043034  -0.017179  -0.016976
     75       0.003760  -0.009874   0.052949   0.020361  -0.013422  -0.052560
     76      -0.027451  -0.003230   0.048695  -0.053989   0.015179   0.020056
     77      -0.013808   0.000289   0.022130  -0.003787   0.007052   0.002661
     78       0.025773   0.007571  -0.076642   0.029740  -0.013435  -0.000143
     79      -0.016112  -0.020589   0.122284   0.018363  -0.018532  -0.081529
     80      -0.008515  -0.005277   0.041924   0.018105  -0.005454  -0.029461
     81       0.017185   0.007640  -0.085008   0.102176   0.005735   0.044149
     82      -0.011424   0.012797  -0.093930  -0.060137  -0.009242  -0.056576
     83       0.015447   0.005849  -0.124576  -0.050102  -0.010017   0.009251
     84      -0.005410   0.009515  -0.085724  -0.029540  -0.007492  -0.037087
     85       0.007659   0.010630  -0.124934  -0.004431  -0.007266  -0.025344
     86      -0.005815  -0.004571   0.051592  -0.023099   0.002552   0.029460
     87      -0.029734   0.003310   0.000154  -0.103168  -0.013526  -0.160057
     88       0.019086   0.001700  -0.047654   0.099524   0.005307   0.071847
     89      -0.022722  -0.010716   0.141704  -0.010318   0.003308  -0.051988
     90      -0.020295   0.010141  -0.083299  -0.025369  -0.005720  -0.019250
     91       0.016328   0.006676  -0.067103   0.016141  -0.003496  -0.020760
     92      -0.018555  -0.012145   0.135564   0.030283   0.008543   0.027852
     93       0.034682   0.006252  -0.064869   0.081212   0.005486   0.052426
     94      -0.025975   0.002688   0.005262  -0.038353  -0.003713  -0.036110
     95       0.021210  -0.001833  -0.042767  -0.013576  -0.005721   0.002252
     96       0.012471  -0.010781   0.079057   0.048484   0.007510   0.054168
     97      -0.016831  -0.008377   0.095601   0.020999   0.002540  -0.035428
     98       0.006858   0.011479  -0.104235   0.055469  -0.002417  -0.026363
     99      -0.002639  -0.017506   0.158598   0.024384   0.008495   0.034187
    100      -0.005973  -0.021869   0.196407   0.013944   0.009341   0.035890
    101       0.003251   0.003237  -0.039500  -0.014401  -0.002479  -0.003811
    102      -0.203973  -0.162441  -0.051516   0.095856  -0.370414  -0.004936
    103       0.063611  -0.090310  -0.005150  -0.035909   0.211758  -0.023589
    104       0.027357   0.182248   0.036747  -0.013399  -0.053258   0.048570
    105       0.018642   0.134371   0.040526  -0.030085   0.046415   0.046431
    106       0.103043   0.139150   0.030811  -0.033453   0.182670  -0.083191
    107       0.082638   0.050822   0.034090  -0.068680   0.161319   0.127615
    108       0.199605  -0.281002   0.025043  -0.107565   0.295580   0.161880
    109       0.124055  -0.129705  -0.009181  -0.030098   0.241977  -0.096530
    110      -0.100258   0.204454   0.008233   0.055348  -0.257918  -0.025355
    111      -0.009871   0.011247   0.000967  -0.029864   0.031136   0.132690
    112       0.099712  -0.205457  -0.009518  -0.020407   0.164567  -0.076887
    113       0.200776  -0.057329   0.034231  -0.065463   0.241025  -0.009478
    114       0.025815   0.129192   0.030998  -0.006391  -0.012543  -0.008858
    115       0.058487   0.110647   0.027286  -0.024789   0.007097   0.058682
    116       0.117048   0.110695   0.046150  -0.039691   0.134747  -0.054611
    117       0.129977   0.372066   0.091095  -0.056821   0.107277  -0.001684
    118       0.088835  -0.024180   0.019884  -0.000350  -0.104799   0.030670
    119      -0.108774  -0.162806  -0.053705   0.014759   0.088662  -0.037193
    120       0.001152   0.160769   0.035202  -0.000696  -0.061571   0.007997
    121      -0.197891  -0.369004  -0.086021   0.079049  -0.225423  -0.006213
    122       0.111437   0.071512   0.020122  -0.039616   0.152135   0.000938
    123       0.064961   0.047024   0.012356  -0.031679   0.216363  -0.081195
    124       0.042736  -0.102594  -0.011199  -0.003223   0.033712   0.000004
    125       0.117577   0.161882   0.040315  -0.038952   0.078760   0.035808
    126       0.177706  -0.005287   0.010766   0.025744  -0.088971  -0.133101
    127      -0.192644   0.150786  -0.022478   0.052572   0.143512  -0.139636
    128       0.176198  -0.046161   0.024364  -0.013572  -0.070122   0.040296
    129       0.143567  -0.027866  -0.028400   0.038298  -0.019166  -0.071261
    130      -0.194370   0.062656  -0.090827   0.116861   0.154999  -0.100777
    131      -0.219936   0.029519  -0.030548   0.015729   0.060510   0.037309
    132      -0.242897   0.040025  -0.087646   0.076095   0.078803  -0.051675
    133      -0.012340   0.039637  -0.077795   0.089928   0.093618  -0.124857
    134      -0.168119   0.018440  -0.023943   0.017630   0.035390   0.024441
    135      -0.192499   0.067492  -0.038411   0.063922   0.015598  -0.107860
    136       0.023981   0.096552   0.002219   0.049986   0.097504  -0.166737
    137       0.217056  -0.056807   0.031033  -0.019125  -0.084486   0.037357
    138       0.031411   0.006596   0.004004   0.092463   0.043227   0.043114
    139       0.043756  -0.026344   0.050838   0.067353  -0.029414  -0.064600
    140      -0.045509   0.005116   0.061047  -0.122951  -0.035479  -0.000093
    141       0.096313  -0.006356  -0.001883   0.339583   0.066276  -0.018726
    142       0.133454  -0.044157   0.030339  -0.104526  -0.027789   0.023780
    143       0.137537  -0.029235   0.040911   0.085849   0.005705  -0.010802
    144       0.031177   0.016270   0.011962   0.116981   0.065038   0.075252
    145      -0.022095  -0.017568   0.010251  -0.291990  -0.042876   0.104381
    146       0.003595  -0.008651   0.017487  -0.043902  -0.002916   0.055719
    147      -0.026170   0.038660  -0.092378   0.046613   0.052125   0.040444
    148       0.039308   0.000863   0.003187  -0.096519   0.011395   0.018250
    149      -0.023039  -0.001484  -0.015572  -0.097385  -0.009198   0.055005
    150       0.040608  -0.012342   0.008364   0.118847  -0.056017  -0.127422
    151      -0.057527   0.002057   0.098318  -0.042166   0.056350   0.070507
    152      -0.006064  -0.007852  -0.017179  -0.195565  -0.016331   0.011885
    153      -0.035589  -0.008039   0.105818  -0.087644   0.033123   0.029461
    154      -0.040047  -0.005704   0.062285  -0.151597   0.025236   0.052237
    155      -0.044434   0.012566   0.075375   0.137560   0.059736   0.043628
    156       0.031885   0.010087  -0.143631   0.246499   0.022237   0.267526
    157      -0.019643   0.014183  -0.111528  -0.187901  -0.029467  -0.259663
    158       0.025412   0.009647  -0.210532   0.003382  -0.009344   0.087650
    159       0.019070   0.022066  -0.253679   0.029027  -0.002372   0.167927
    160       0.002045   0.021672  -0.249164  -0.162590  -0.031188  -0.212385
    161       0.002651  -0.005501   0.054229   0.050128   0.012690   0.152206
    162      -0.013553   0.011157  -0.116608   0.107044   0.011397   0.213666
    163       0.009851   0.001796   0.020205  -0.064978  -0.008711  -0.150268
    164      -0.016268  -0.014686   0.168658   0.113331   0.023775   0.186422
    165       0.062598   0.003035  -0.039736   0.271953   0.029074   0.281191
    166      -0.056764  -0.007145   0.150746  -0.070923  -0.005587  -0.175858
    167       0.040192   0.000844  -0.088936   0.049835   0.001423   0.116420
    168      -0.006323  -0.023518   0.216617  -0.017482   0.008408   0.027416
    169      -0.022751  -0.032256   0.299603  -0.033297   0.012411   0.061196
    170      -0.001664   0.001490  -0.021790  -0.013098  -0.001025   0.010402
    171      -0.021070  -0.004557   0.064161   0.038724   0.002849  -0.025558
    172       0.006083  -0.014358   0.122689   0.043768   0.006924   0.015126
    173      -0.005005  -0.012016   0.096948  -0.059152   0.003099   0.048034
    174       0.009250  -0.023401   0.197400   0.022041   0.011838   0.074130
    175       0.008612  -0.030558   0.254760   0.013460   0.014767   0.100583
    176       0.011123   0.000906  -0.021443  -0.021716  -0.002769  -0.013921
                 48         49         50         51         52         53    
      0       0.019302  -0.028314   0.007668   0.020447   0.047291   0.016090
      1      -0.044642   0.039252  -0.010471  -0.024760  -0.049830  -0.010087
      2       0.040127  -0.034934   0.009746   0.026429   0.033077   0.010289
      3       0.111280  -0.100174   0.028972   0.072986   0.005073  -0.040641
      4      -0.055786   0.045814  -0.011682  -0.023144  -0.081983  -0.018932
      5      -0.057093   0.045280  -0.013318  -0.028519  -0.020650   0.018903
      6       0.036692  -0.043746   0.012876   0.043516  -0.130915  -0.065457
      7      -0.031235  -0.007590   0.006859   0.038881  -0.136290  -0.054118
      8      -0.070185   0.052035  -0.015665  -0.032525  -0.130763  -0.038290
      9       0.063081  -0.051478   0.013171   0.033094  -0.012090  -0.009061
     10       0.027679  -0.015011  -0.000044  -0.022887   0.152873   0.049244
     11      -0.018171   0.018919  -0.006646  -0.031075   0.080771   0.028138
     12       0.016426   0.013406  -0.006041  -0.025300   0.036576   0.011800
     13       0.026183  -0.035921   0.009843   0.024145   0.061369   0.021608
     14      -0.033959   0.029414  -0.006837  -0.012500  -0.085261  -0.030285
     15      -0.006255   0.026748  -0.010159  -0.035488   0.035809   0.016357
     16      -0.028248  -0.025945   0.011938   0.046884  -0.014481   0.003278
     17       0.013016  -0.011727   0.004184   0.012821  -0.009881  -0.006544
     18       0.051248   0.008689  -0.013155  -0.034727  -0.105971  -0.009732
     19       0.084988   0.071352  -0.047001  -0.167037  -0.009549   0.012265
     20      -0.011241  -0.013508   0.011446   0.044432   0.009854  -0.014427
     21      -0.059061   0.015943   0.005804   0.045781  -0.024529   0.014197
     22      -0.017524   0.024916  -0.000723   0.003125  -0.022116  -0.020439
     23       0.037800  -0.034218   0.010216   0.034496  -0.069142  -0.031937
     24      -0.045224  -0.017862   0.009016   0.038335   0.006135   0.029694
     25       0.027341  -0.051801   0.009648   0.009487   0.015207  -0.004913
     26       0.018153  -0.023458   0.002979  -0.003341  -0.058540   0.009129
     27       0.006849   0.047018  -0.029342  -0.106725   0.054577   0.023862
     28       0.127530   0.020349  -0.038700  -0.140049  -0.080224   0.001230
     29      -0.007364  -0.012376   0.003537   0.001344  -0.003132   0.011180
     30      -0.028055   0.002653  -0.006377  -0.025307   0.005938   0.021014
     31       0.005862  -0.055228   0.014629   0.031428   0.037127   0.006716
     32      -0.008073   0.002330  -0.004218  -0.034286   0.042837   0.024575
     33      -0.034656   0.028760  -0.007730  -0.013884  -0.043705   0.002360
     34      -0.025770   0.021506   0.003835   0.022777  -0.007727  -0.014268
     35       0.000247  -0.004700   0.002863   0.006906   0.033689  -0.007729
     36       0.001298   0.052415  -0.005443  -0.029745   0.080843  -0.008858
     37       0.054250   0.035206   0.008950   0.027277  -0.081247  -0.009346
     38       0.014152   0.015720  -0.005606  -0.000159   0.033022  -0.020608
     39       0.082357  -0.014475   0.010684  -0.021245  -0.040205   0.017012
     40      -0.004973   0.063840  -0.006578   0.044790  -0.048275  -0.003630
     41       0.059180   0.048059   0.001044   0.038485  -0.066077  -0.029297
     42       0.003647  -0.045454   0.014582  -0.010534  -0.073124   0.121963
     43      -0.136280   0.011338  -0.001916   0.045246  -0.039600   0.136871
     44      -0.004838  -0.012592  -0.005453   0.006587  -0.032311   0.016994
     45      -0.002395   0.034194   0.013540   0.027840  -0.065464   0.046747
     46      -0.088295  -0.069514   0.018213  -0.032137   0.015976   0.085308
     47      -0.035060  -0.045604  -0.069052   0.028829   0.009915  -0.028160
     48      -0.016871   0.042116  -0.013376   0.018898   0.060014  -0.052735
     49      -0.036305  -0.064170  -0.011051  -0.019566   0.033263  -0.006679
     50      -0.087945  -0.018194   0.014456  -0.005260   0.009756   0.081746
     51      -0.012718   0.040400  -0.011451  -0.015579   0.083196  -0.039226
     52       0.035899   0.008972   0.008886   0.023225   0.040892  -0.049444
     53      -0.012120   0.013873   0.021349  -0.001209   0.018995   0.062396
     54      -0.126947   0.092773  -0.021822  -0.055111   0.003905   0.017843
     55       0.031957  -0.034600   0.012239   0.034200   0.047431   0.011232
     56       0.078599  -0.033060   0.002949  -0.010001   0.083812   0.025094
     57      -0.076773  -0.101770   0.007356  -0.005890  -0.004359   0.033887
     58       0.028883   0.022219   0.022081   0.017156   0.039414  -0.004168
     59       0.011231  -0.010879   0.004342   0.012234   0.029909  -0.024080
     60       0.010450   0.050365   0.004562   0.039856  -0.056878  -0.004661
     61      -0.041764  -0.057166  -0.002738  -0.037164  -0.001055   0.007628
     62      -0.030643   0.004040  -0.005448   0.007528  -0.005566   0.062683
     63      -0.007493   0.066645   0.001837   0.049548   0.018717  -0.038611
     64      -0.056421  -0.039280   0.018737  -0.039968  -0.057080   0.030586
     65      -0.018653  -0.037675  -0.057637   0.004877  -0.017402   0.023438
     66      -0.008099   0.025250  -0.012626   0.030152   0.068810  -0.067580
     67      -0.051468  -0.050769  -0.030954  -0.019673  -0.014404   0.005364
     68      -0.026625  -0.024470   0.049617  -0.039797  -0.001669  -0.092285
     69       0.035275  -0.149406  -0.003328  -0.053462  -0.038757  -0.062259
     70      -0.062173   0.054201  -0.012061   0.003944   0.047431  -0.149743
     71       0.055053  -0.041838  -0.014395  -0.005826  -0.004762  -0.002814
     72       0.030157   0.021302  -0.002621   0.020777   0.003046  -0.023345
     73       0.000088  -0.052803  -0.028606  -0.027580   0.048190   0.019679
     74      -0.010625   0.015674   0.071712  -0.036442   0.011786   0.038346
     75       0.038251   0.032855   0.000890   0.030356   0.003422  -0.034658
     76       0.027168   0.050879   0.013868   0.021964  -0.014678  -0.007597
     77       0.013449   0.011086  -0.008955   0.012297  -0.002532  -0.012719
     78      -0.059033  -0.082312  -0.006376  -0.054628   0.033419   0.041361
     79       0.061701   0.031367  -0.002960   0.018174   0.031874  -0.007992
     80       0.019384   0.005459   0.013291  -0.006134   0.014212  -0.018599
     81       0.004606   0.017539   0.010315  -0.014213  -0.031631  -0.034095
     82       0.057274   0.014859   0.004688   0.000429   0.020877  -0.137261
     83       0.011936   0.033025  -0.020652   0.011858   0.021586  -0.061961
     84       0.069128   0.064076   0.005244   0.027057   0.012669   0.032416
     85       0.054109   0.023545   0.000262  -0.000372  -0.003440  -0.084724
     86      -0.060842  -0.037669  -0.006040  -0.024557   0.024975  -0.214128
     87       0.116243  -0.065455   0.005423  -0.010340  -0.044000   0.095998
     88       0.007817   0.118597   0.008244   0.039863   0.018201   0.077653
     89      -0.000221  -0.082529   0.009525  -0.029227  -0.032184   0.001603
     90       0.039990   0.039461  -0.007166   0.017408   0.027196  -0.016812
     91       0.029922  -0.008588  -0.008809  -0.003100  -0.001338  -0.016766
     92      -0.044754  -0.014955   0.005302  -0.006875   0.005418  -0.030825
     93      -0.036052  -0.025252  -0.003979  -0.025665  -0.017341  -0.072950
     94       0.014973  -0.020096  -0.010177  -0.002645   0.028075  -0.079511
     95       0.023893   0.047188  -0.014289   0.029219   0.007831   0.085501
     96      -0.050750   0.004812  -0.000774   0.000750   0.002975   0.007349
     97       0.038015   0.010982   0.015917   0.011452  -0.025569   0.148370
     98       0.090214   0.082163   0.019254   0.030946  -0.022381   0.176080
     99      -0.060531  -0.030031   0.000204  -0.007486  -0.004397   0.032820
    100      -0.072960  -0.040182  -0.000118  -0.010059  -0.004628   0.029409
    101       0.009241   0.008119  -0.000981   0.001640   0.002712  -0.021097
    102      -0.075631  -0.024111   0.013987   0.076031  -0.068544   0.017047
    103       0.013579   0.021638  -0.008408  -0.040673   0.036395  -0.005530
    104       0.043988  -0.024575   0.005358   0.011378   0.027001   0.006182
    105       0.068394  -0.005560  -0.004983  -0.042705   0.127846   0.021490
    106      -0.046122   0.098902  -0.033238  -0.106521  -0.000748   0.007672
    107       0.162229  -0.096527   0.023593   0.033165   0.132143  -0.011203
    108       0.233222  -0.117036   0.026753   0.008411   0.464690   0.114690
    109      -0.052753   0.085947  -0.026706  -0.089147   0.044121   0.019482
    110      -0.074416   0.022419  -0.003716   0.020532  -0.158201  -0.025396
    111       0.128334  -0.134737   0.041375   0.121417  -0.131623  -0.103677
    112      -0.039645   0.078432  -0.025586  -0.092967   0.167809   0.077076
    113       0.051341   0.041214  -0.018937  -0.101105   0.350400   0.127115
    114      -0.002228   0.026136  -0.009074  -0.032384   0.048707   0.018706
    115       0.063082  -0.033844   0.005760   0.003881   0.053922   0.012464
    116      -0.022211   0.086976  -0.029137  -0.089723  -0.054254  -0.024216
    117       0.035984   0.069376  -0.030215  -0.114614   0.079246   0.021291
    118       0.018053  -0.018839   0.006501   0.024221   0.003530   0.003175
    119      -0.035656  -0.000795   0.004045   0.021207  -0.071329  -0.024680
    120       0.009765   0.025339  -0.012430  -0.049536   0.092595   0.038238
    121      -0.062142  -0.053506   0.026916   0.116462  -0.101972  -0.009409
    122       0.029135   0.008462  -0.005327  -0.029466   0.023793  -0.008106
    123      -0.042076   0.086998  -0.028307  -0.088188  -0.069378  -0.030759
    124       0.008698  -0.000951  -0.002301  -0.020206   0.074644   0.017960
    125       0.057792  -0.007747  -0.003108  -0.031828   0.104209   0.021388
    126      -0.148934   0.008087   0.038449   0.173600   0.075788   0.006184
    127      -0.141351  -0.050706   0.075224   0.265382   0.070182  -0.034113
    128       0.043934  -0.014674  -0.001212   0.000087  -0.063275  -0.030631
    129      -0.087649  -0.076286   0.054557   0.207278   0.001753   0.003229
    130      -0.090772  -0.140760   0.086000   0.250893   0.165902  -0.005254
    131       0.024971   0.000932  -0.014853  -0.078838  -0.024262   0.028872
    132      -0.078090  -0.062431   0.034024   0.101039  -0.001759   0.032465
    133      -0.129999  -0.144562   0.096177   0.307956   0.176014  -0.008027
    134       0.013795   0.006391  -0.014121  -0.071015  -0.000272   0.032707
    135      -0.126125   0.020524   0.017295   0.065080   0.063613   0.027872
    136      -0.157559  -0.055254   0.084806   0.314371   0.073117  -0.042548
    137       0.042780  -0.013725   0.000106   0.004865  -0.030006  -0.032055
    138       0.058982  -0.026252   0.011445  -0.011130  -0.077325   0.067924
    139       0.096010   0.075962  -0.008176   0.010232   0.020284  -0.161244
    140      -0.112660   0.112142   0.001495   0.077931  -0.002444   0.125231
    141       0.268262  -0.073960   0.010126  -0.079115  -0.078758  -0.165313
    142      -0.001157   0.044023  -0.008135   0.034649  -0.032686  -0.002847
    143       0.117212   0.019880   0.000309   0.015814  -0.069433  -0.083831
    144       0.043097  -0.048181   0.053298  -0.025360  -0.120697   0.138167
    145      -0.254586   0.045132   0.047169   0.018301   0.032172   0.284192
    146      -0.071548   0.010243   0.047775  -0.018961  -0.003820   0.131243
    147      -0.038604  -0.167743  -0.034621  -0.048348  -0.000657   0.109947
    148      -0.007532  -0.000539  -0.044094   0.071012  -0.107371  -0.021767
    149      -0.122028  -0.024112   0.021350  -0.021637   0.037617   0.150297
    150      -0.023143  -0.116853  -0.027412  -0.066291   0.105271   0.049061
    151       0.084831   0.090097  -0.225836   0.204231  -0.076871  -0.003089
    152      -0.015524   0.172960   0.590567  -0.244310  -0.031616  -0.164145
    153       0.107597   0.203763   0.037687   0.139404  -0.114024  -0.127071
    154       0.046148   0.169827   0.221002  -0.017139  -0.069325  -0.091604
    155       0.076953  -0.089321  -0.675956   0.356748  -0.029065   0.112238
    156      -0.100688   0.224210   0.014875   0.046216   0.054678  -0.077234
    157       0.208792  -0.068737   0.003318  -0.008237  -0.040476   0.002851
    158       0.028481   0.205848  -0.016675   0.077615   0.068541   0.018449
    159      -0.011935   0.313633  -0.006574   0.110955   0.149253  -0.096645
    160       0.177266  -0.104187  -0.018741  -0.036703  -0.057902  -0.097990
    161      -0.127462   0.075428  -0.002306   0.011282   0.081215  -0.242760
    162      -0.080098   0.255911  -0.006790   0.083795   0.139645  -0.113928
    163       0.039519  -0.235846  -0.014207  -0.089055  -0.076274  -0.117399
    164      -0.176637   0.038214   0.000452  -0.005156   0.072141  -0.238704
    165      -0.157143   0.157269   0.010857   0.021714   0.053058  -0.137781
    166       0.071158  -0.179001   0.000768  -0.055563  -0.048373  -0.035567
    167      -0.030742   0.154617  -0.014377   0.061313   0.055058   0.051619
    168      -0.097013  -0.090322  -0.008741  -0.029041  -0.001563  -0.054369
    169      -0.150952  -0.104133  -0.013985  -0.035062   0.015191  -0.118504
    170      -0.006603   0.009662  -0.002431   0.001350   0.009215  -0.038967
    171       0.050933   0.046390   0.019285   0.024688  -0.022983   0.200447
    172      -0.018311  -0.001605   0.009047   0.004834  -0.019958   0.123287
    173      -0.108347  -0.073939  -0.020632  -0.031089   0.030066  -0.211804
    174      -0.122684  -0.063488  -0.010348  -0.023040   0.009082  -0.067887
    175      -0.166428  -0.081408  -0.015207  -0.030223   0.018025  -0.116434
    176       0.002454  -0.021568  -0.003227  -0.008570  -0.003829  -0.033840
                 54         55         56         57         58         59    
      0      -0.031866   0.024319   0.015849  -0.011133  -0.046722   0.010717
      1       0.017810  -0.011597  -0.005188   0.004750   0.016168  -0.008254
      2      -0.025950   0.023244   0.020557  -0.014924  -0.061387   0.009311
      3       0.084221  -0.077231  -0.045827   0.048088   0.041508   0.038208
      4       0.030180  -0.019264  -0.003292   0.013760   0.003337  -0.004288
      5      -0.043497   0.041013   0.027204  -0.016986  -0.013980  -0.025130
      6       0.121798  -0.097655  -0.050373   0.060257   0.081318   0.009174
      7       0.089480  -0.066634  -0.022146   0.043340  -0.003611   0.026154
      8       0.080885  -0.067992  -0.052624   0.052040   0.169353  -0.024806
      9       0.011290  -0.001771   0.001720  -0.029007  -0.026984  -0.005028
     10      -0.068760   0.044326  -0.008504  -0.057986   0.041957  -0.018459
     11      -0.039555   0.028370  -0.003257  -0.052545  -0.006811  -0.003769
     12      -0.015887   0.010956   0.001416  -0.010190   0.005187  -0.006473
     13      -0.034944   0.021402  -0.003388   0.014087   0.107744  -0.030335
     14       0.046344  -0.025901   0.006020  -0.037711  -0.173940   0.047628
     15      -0.024221   0.017785   0.008104  -0.013210  -0.027013  -0.000678
     16      -0.020447   0.021318   0.014794  -0.013228  -0.003752  -0.006031
     17       0.006960  -0.002000   0.006100  -0.011738  -0.053479   0.014083
     18       0.009512   0.011736   0.022711  -0.008241  -0.047960  -0.043328
     19       0.022768  -0.019634  -0.019963   0.029941  -0.002890  -0.043735
     20       0.017537  -0.009276  -0.033593  -0.088325   0.019015   0.015725
     21      -0.066049   0.052099   0.092640   0.182331   0.001241   0.001465
     22       0.028930  -0.024210  -0.034738  -0.110630  -0.018235   0.042713
     23       0.053235  -0.022407  -0.051771  -0.181884  -0.015491  -0.011985
     24      -0.068836   0.052269   0.096604   0.241855   0.007471  -0.040174
     25       0.041757  -0.025541  -0.049839  -0.075599  -0.007988  -0.045934
     26      -0.019130   0.010383   0.063911   0.127541  -0.040215  -0.016044
     27      -0.008212  -0.012035  -0.020302   0.024785   0.015319   0.022946
     28       0.021865  -0.002029   0.021243   0.025126  -0.050596   0.007782
     29      -0.018850   0.007639   0.032055   0.083122  -0.009394  -0.010831
     30      -0.011999   0.017253  -0.057547  -0.196534   0.012170  -0.039010
     31       0.016729  -0.010448   0.015623   0.140526   0.000568  -0.038524
     32      -0.024666  -0.012174   0.037672   0.198451   0.013464   0.015909
     33      -0.008148   0.012103  -0.059324  -0.253925   0.006979  -0.002732
     34       0.004275  -0.010747   0.032623   0.105627  -0.011144   0.044424
     35       0.028950  -0.028944  -0.070591  -0.122371   0.045200   0.016285
     36      -0.000348  -0.039296  -0.033360  -0.010396   0.030609   0.073346
     37      -0.084051   0.007921   0.042887  -0.056363   0.017418   0.083962
     38       0.030761   0.028385  -0.004539   0.036709  -0.003326  -0.035882
     39      -0.018050   0.023137   0.027066  -0.007778   0.011792   0.046896
     40      -0.070758   0.100435   0.070342  -0.036089   0.053252   0.077134
     41      -0.079270   0.128501   0.122337  -0.033791   0.066267   0.127671
     42       0.006328   0.033643  -0.017733   0.007841  -0.015772  -0.037880
     43      -0.002892   0.099620   0.000597  -0.016512   0.023438  -0.042876
     44       0.007992   0.071504   0.051280  -0.015519   0.013804  -0.008483
     45      -0.075175   0.000863  -0.017356  -0.007097   0.006661   0.008818
     46       0.063409  -0.020341  -0.026761   0.033336  -0.024772  -0.014045
     47       0.111828   0.181642   0.088346  -0.047780   0.020034  -0.149618
     48       0.076366   0.014194   0.013954   0.009010  -0.000733   0.041550
     49       0.092631   0.071037   0.001638   0.020062  -0.016868  -0.085932
     50      -0.031737  -0.171037  -0.036244   0.010569  -0.014986   0.019181
     51       0.052521  -0.002861  -0.012327   0.000100   0.016216   0.050221
     52       0.060279   0.023114  -0.037233   0.014770  -0.025645  -0.123371
     53      -0.084237  -0.226681  -0.078625   0.070880  -0.025458   0.079963
     54      -0.034309   0.029597   0.014202  -0.025002  -0.020060  -0.007798
     55      -0.032635   0.031098   0.034287  -0.026919  -0.140617   0.032105
     56      -0.032776   0.019106  -0.005911  -0.009636   0.061315  -0.023463
     57       0.028563  -0.023018  -0.018567   0.016456  -0.023825  -0.069717
     58      -0.011686  -0.124596  -0.082584   0.054655  -0.037912  -0.054211
     59       0.038581  -0.004722  -0.030741   0.017380  -0.020703  -0.084207
     60      -0.091390   0.001416  -0.004427  -0.020664   0.013222  -0.030380
     61       0.023738   0.014073   0.064086  -0.035519   0.023345   0.019910
     62      -0.031556  -0.005612  -0.133439   0.056667  -0.025644   0.084080
     63       0.041812   0.002753  -0.001259   0.011582  -0.010467   0.049194
     64      -0.098443   0.049462  -0.044739  -0.018731   0.022017   0.008366
     65      -0.058971  -0.113716   0.095183  -0.054487   0.035544  -0.021990
     66       0.099913  -0.035694   0.021700   0.024078  -0.022705   0.039215
     67      -0.085815  -0.085307  -0.002029  -0.012749   0.014213  -0.007113
     68       0.060040   0.185829   0.013718  -0.012819  -0.002592  -0.049057
     69      -0.073144   0.003233  -0.010088   0.001282  -0.003227   0.000840
     70      -0.024152  -0.041205   0.009458  -0.002011   0.000626   0.004210
     71      -0.019123  -0.074298   0.041167  -0.015276  -0.001610  -0.007902
     72      -0.023717  -0.009284  -0.018624   0.007638  -0.009349  -0.093500
     73       0.128779   0.030028   0.076520  -0.016409   0.014211   0.128922
     74       0.000320  -0.038062  -0.090975   0.052512  -0.027544   0.131273
     75      -0.040122  -0.017487  -0.039169   0.017295  -0.019137  -0.161982
     76      -0.021787  -0.005946  -0.006623   0.001716  -0.001069   0.011525
     77       0.003891   0.008953   0.024139  -0.011969   0.005884  -0.021933
     78       0.094855   0.019401   0.036885  -0.004051   0.009041   0.146535
     79       0.039523  -0.008947  -0.017541   0.022584  -0.015332   0.014654
     80       0.033709   0.006935   0.048083  -0.016996   0.007765  -0.023232
     81      -0.066379   0.131840  -0.109667   0.030625   0.009483   0.031432
     82      -0.008129   0.112982  -0.105651   0.061042  -0.020592   0.034079
     83      -0.032468  -0.087650   0.027033  -0.010330   0.001707   0.006978
     84       0.046031   0.021357  -0.012765   0.016521  -0.010000   0.005742
     85      -0.048043   0.090909  -0.101817   0.043052  -0.003896   0.038479
     86      -0.055400   0.073287  -0.088959   0.048336  -0.015229   0.032697
     87      -0.027864   0.002047  -0.000032  -0.017742   0.017310   0.000906
     88       0.076407   0.019045   0.003916   0.010794  -0.009807  -0.002583
     89      -0.038134   0.071086  -0.048307   0.008248   0.008403   0.009969
     90       0.024856  -0.134485   0.107008  -0.036111  -0.004839  -0.026124
     91      -0.038551  -0.159698   0.113435  -0.055738   0.009856  -0.026868
     92       0.007607   0.030976  -0.017560   0.012488  -0.006448   0.003888
     93      -0.087906  -0.031887   0.005500  -0.019238   0.013556   0.000595
     94      -0.001679  -0.157998   0.117998  -0.039803  -0.006566  -0.026235
     95       0.015375  -0.158653   0.105093  -0.046367   0.007687  -0.021631
     96       0.006939  -0.006507   0.006753  -0.001919  -0.000626  -0.002699
     97       0.049321   0.064872  -0.018959   0.002819   0.005650  -0.003421
     98       0.068405   0.088422  -0.033394   0.010911   0.003975  -0.000413
     99       0.010367  -0.012174   0.020893  -0.011342   0.003490  -0.009768
    100       0.009586  -0.003287   0.013510  -0.008166   0.003228  -0.007793
    101      -0.006042   0.016923  -0.020288   0.010132  -0.002365   0.007501
    102      -0.085697   0.097646   0.105777  -0.078085  -0.313131   0.025546
    103       0.035749  -0.041488  -0.048943   0.020278   0.126366  -0.006450
    104      -0.012006   0.008597   0.007874   0.005766  -0.011551   0.001338
    105      -0.004447  -0.017443  -0.041068   0.027278   0.125877  -0.004569
    106       0.008583  -0.014038  -0.025900   0.017884   0.110657  -0.033882
    107       0.058180  -0.072925  -0.077106   0.052193   0.175395   0.020879
    108      -0.181729   0.124301   0.040543  -0.105014  -0.129506   0.030397
    109      -0.014561   0.003536  -0.022879  -0.007770   0.100896  -0.027316
    110       0.019916  -0.000509   0.026734   0.016798  -0.048467  -0.010084
    111       0.193950  -0.161682  -0.079328   0.101085   0.061402   0.062199
    112      -0.129369   0.099070   0.036344  -0.068144  -0.020914  -0.031075
    113      -0.206626   0.151834   0.046637  -0.111768  -0.023860  -0.035949
    114      -0.027966   0.018379   0.004188  -0.003454   0.016607  -0.007730
    115      -0.008078  -0.003718  -0.022338   0.037266   0.164204  -0.040274
    116       0.061725  -0.056354  -0.026918   0.053787   0.010235   0.019242
    117       0.000060  -0.019574  -0.039923   0.050572   0.176113  -0.037341
    118      -0.011177   0.005127   0.007342   0.058466   0.084566  -0.019412
    119       0.029137  -0.007293   0.015118  -0.078690  -0.218166   0.052316
    120      -0.054712   0.034257   0.004356   0.006939   0.064612  -0.027997
    121      -0.045493   0.072373   0.099187  -0.110355  -0.403572   0.066016
    122       0.038902  -0.045341  -0.050775   0.045985   0.180335  -0.023058
    123       0.076616  -0.065659  -0.042097   0.025218   0.036750   0.006993
    124      -0.001132  -0.023707  -0.064190   0.078410   0.381530  -0.078047
    125      -0.006710  -0.017015  -0.049862   0.058643   0.272926  -0.052447
    126      -0.091968   0.057944   0.043823   0.038406   0.104638   0.076437
    127      -0.035582  -0.000088  -0.027581  -0.240066   0.060551   0.164394
    128       0.063739  -0.027804  -0.070370  -0.191755  -0.003410  -0.023145
    129      -0.086608   0.076631   0.093617   0.109015   0.050993  -0.016174
    130      -0.019591  -0.027845  -0.076016  -0.178076   0.112498   0.042759
    131      -0.018135  -0.009549   0.060085   0.204941  -0.048052  -0.015596
    132      -0.083869   0.060928   0.001009  -0.195489   0.018097  -0.041847
    133      -0.048943  -0.001435  -0.016531  -0.029808   0.119457   0.046230
    134      -0.030196  -0.000246   0.065937   0.246444  -0.018210  -0.009323
    135      -0.083565   0.034459  -0.048720  -0.263485   0.069777   0.059313
    136      -0.061224   0.016509   0.030248  -0.086976   0.065589   0.169729
    137       0.072351  -0.040973  -0.078923  -0.150423   0.014431  -0.004715
    138      -0.016140   0.060111   0.027668  -0.011482   0.007733   0.016063
    139      -0.073846   0.034420   0.114425  -0.027719   0.063007   0.174347
    140      -0.091300   0.061032  -0.049300  -0.049337   0.072358   0.048857
    141      -0.004928   0.048165   0.189738   0.000059   0.003005   0.148991
    142      -0.037969   0.093378   0.048784   0.006941   0.029910   0.013818
    143      -0.058915   0.129433   0.158681  -0.012096   0.051325   0.126421
    144      -0.055205  -0.001223   0.012492   0.025393  -0.011625   0.100244
    145      -0.035769  -0.181522  -0.284004   0.062786  -0.050316  -0.108217
    146      -0.044164  -0.143947  -0.138045   0.049574  -0.036836   0.007427
    147       0.221940   0.115952   0.021197   0.013448  -0.052917  -0.226041
    148       0.000034   0.351992   0.269828  -0.095295   0.102129   0.053726
    149       0.043751  -0.125096  -0.167639   0.051396  -0.058081  -0.123522
    150       0.209442   0.019954   0.033062   0.027146  -0.012655   0.173348
    151      -0.201829  -0.010113  -0.188821   0.055393  -0.033186  -0.132938
    152      -0.004808  -0.045379   0.319921  -0.151680   0.068464  -0.259217
    153      -0.331672  -0.063760  -0.132017   0.010221  -0.029459  -0.555348
    154      -0.141827  -0.046869   0.044457  -0.041976   0.012421  -0.215831
    155      -0.114562   0.068681  -0.328845   0.128978  -0.060598   0.055272
    156       0.062465   0.133703  -0.083568   0.047959  -0.011198   0.025731
    157      -0.052498   0.092542  -0.113020   0.048877  -0.007780   0.040019
    158       0.081458  -0.107228   0.052527  -0.000948  -0.011257   0.006203
    159       0.210831  -0.069461   0.060796   0.041871  -0.055892  -0.005982
    160      -0.187632   0.002992  -0.088427   0.009205   0.021518   0.047666
    161       0.039772   0.080674  -0.074040   0.067413  -0.036743   0.026247
    162       0.187091  -0.142501   0.145952  -0.004855  -0.044205  -0.036647
    163      -0.227304  -0.145360   0.063443  -0.070552   0.035411  -0.012486
    164       0.029530   0.030623  -0.014596   0.035708  -0.030265   0.004411
    165       0.019289   0.029152  -0.002980   0.006948  -0.004940   0.003046
    166      -0.094055  -0.104855   0.070851  -0.041843   0.006585  -0.017026
    167       0.078180  -0.161809   0.119999  -0.038494  -0.002142  -0.024262
    168      -0.036498  -0.048209   0.029079  -0.016297   0.003435  -0.008073
    169      -0.042993  -0.065613   0.036359  -0.014814  -0.000800  -0.007528
    170      -0.005183   0.008069  -0.014064   0.009300  -0.003778   0.006549
    171       0.082142   0.069427  -0.008635  -0.000180   0.006124  -0.009607
    172       0.038120   0.039250  -0.004958  -0.003302   0.006274  -0.007094
    173      -0.072595  -0.070478   0.014776  -0.000360  -0.007454   0.006621
    174      -0.027573  -0.056370   0.035298  -0.015231   0.000360  -0.009238
    175      -0.039631  -0.066784   0.035455  -0.013062  -0.002166  -0.007378
    176      -0.025942   0.006759  -0.017134   0.005588   0.000200   0.007372
                 60         61         62         63         64         65    
      0      -0.008936  -0.022549  -0.038458  -0.006990   0.021514   0.008157
      1       0.005702   0.016183   0.029538   0.007863   0.002953  -0.002052
      2      -0.006165  -0.009215  -0.004324   0.000789   0.001164  -0.001084
      3      -0.027407  -0.083731  -0.140529  -0.026040   0.018897   0.011763
      4       0.002275   0.008212   0.020638   0.007709   0.012782   0.000108
      5       0.018391   0.054608   0.092908   0.017494  -0.014297  -0.007895
      6      -0.006413  -0.023375  -0.031939  -0.001859   0.008070   0.000840
      7      -0.019480  -0.054127  -0.081404  -0.013102   0.020099   0.007132
      8       0.017675   0.025633   0.012764  -0.003286  -0.007152   0.001608
      9       0.005964   0.029109   0.066540   0.014216  -0.035871  -0.015162
     10       0.011290   0.025212   0.011787  -0.005126  -0.018620   0.002231
     11       0.001091   0.003773  -0.008713  -0.008140  -0.026263  -0.001474
     12       0.005010   0.014763   0.025265   0.003658  -0.020065  -0.006966
     13       0.025990   0.054806   0.067154   0.001715  -0.055500  -0.010754
     14      -0.040505  -0.084822  -0.107961  -0.004674   0.085778   0.017962
     15      -0.002171  -0.003091  -0.003870   0.002247   0.020510   0.003359
     16       0.008780   0.025204   0.040289   0.001105  -0.046764  -0.010284
     17      -0.010274  -0.019999  -0.020953  -0.000306   0.012574   0.001175
     18       0.022409   0.074219   0.157951   0.049086   0.080413  -0.002323
     19       0.001762  -0.000656   0.019209   0.046050   0.287148   0.041165
     20      -0.003802  -0.010640  -0.028191  -0.010797  -0.024907  -0.001014
     21       0.009977   0.002358   0.014607  -0.015038  -0.075349  -0.010485
     22      -0.014992  -0.022158  -0.057671  -0.027570  -0.127229  -0.009414
     23       0.013466   0.067413   0.117385   0.028666  -0.040312  -0.019835
     24       0.018045   0.019942   0.061126   0.015331   0.048386  -0.001770
     25       0.005804   0.023887   0.060169   0.033752   0.121210   0.007747
     26       0.013290   0.058727   0.107936   0.020430  -0.083301  -0.022904
     27      -0.023191  -0.075609  -0.158255  -0.048730  -0.076837   0.010023
     28      -0.000884   0.010040  -0.010704  -0.044527  -0.288444  -0.028804
     29       0.004103   0.010059   0.027218   0.011898   0.036993  -0.000376
     30       0.011367   0.042326   0.024777   0.006759   0.058030   0.011884
     31      -0.000288  -0.012917   0.019064   0.031845   0.139694  -0.010103
     32      -0.018963  -0.066680  -0.128506  -0.028423   0.017333   0.020125
     33       0.007086   0.040278   0.000100  -0.019688  -0.058345   0.014322
     34      -0.015765  -0.049259  -0.070911  -0.027919  -0.122022  -0.026165
     35      -0.014424  -0.042661  -0.109268  -0.022964   0.053381   0.028751
     36      -0.026658  -0.083020  -0.123261  -0.011552   0.042348  -0.012407
     37       0.003661   0.065855   0.026948  -0.000223   0.009960   0.044115
     38       0.016783  -0.072096   0.004495  -0.010078  -0.025317  -0.093074
     39      -0.001241   0.071816  -0.089046   0.031937   0.022258  -0.063786
     40       0.005956  -0.013615  -0.047075  -0.010218   0.055966  -0.034664
     41       0.023650   0.056834  -0.090167   0.012349   0.075457  -0.002970
     42      -0.023576   0.124168  -0.094113   0.058271  -0.020793  -0.112233
     43      -0.049431   0.088027  -0.151718   0.059357   0.035045  -0.045258
     44      -0.018106   0.054496  -0.047516   0.019942   0.001595   0.057610
     45       0.008173  -0.033162   0.045100  -0.028334   0.012306  -0.056742
     46       0.005315   0.120269  -0.068291   0.046340  -0.025043   0.098371
     47      -0.095910  -0.068702  -0.021534  -0.010626  -0.020771   0.041613
     48      -0.018046  -0.027663   0.027925   0.024340  -0.008763   0.066829
     49       0.014379   0.024380  -0.040741   0.000582  -0.038516   0.154106
     50      -0.070984   0.049660   0.006090   0.024466   0.021107  -0.125632
     51      -0.010804  -0.097548  -0.069011   0.001612   0.019411  -0.044187
     52       0.050705  -0.096376   0.070020  -0.002102   0.004096  -0.165409
     53      -0.081820   0.077224   0.040213  -0.004997  -0.035615   0.259540
     54       0.005470   0.017318   0.025265   0.003138  -0.008062  -0.001928
     55      -0.023653  -0.048715  -0.058247  -0.006740   0.019384   0.003989
     56       0.017255   0.040977   0.054535   0.007197  -0.019550  -0.004768
     57       0.001999   0.038763   0.026661   0.004013  -0.011685   0.030896
     58      -0.002573  -0.034039   0.091222  -0.008150  -0.021215   0.016733
     59       0.021974  -0.054782   0.051248  -0.004705  -0.004853  -0.080690
     60       0.004181  -0.134356   0.122162  -0.083034   0.010948  -0.003020
     61      -0.050576  -0.100397   0.077585  -0.060542   0.004725   0.047768
     62       0.186213   0.000318   0.019547  -0.017110   0.001426  -0.020766
     63       0.022009  -0.102672   0.225044  -0.011443  -0.013817   0.048274
     64       0.141245  -0.174630   0.029416  -0.130503   0.022906   0.021435
     65      -0.238227  -0.086187   0.069087  -0.056944   0.010795   0.009875
     66      -0.027331   0.037310   0.097805   0.033680  -0.020072   0.067610
     67      -0.102726  -0.036523  -0.001541  -0.059831   0.008957   0.040550
     68       0.310832  -0.070734  -0.051793  -0.008803  -0.011407   0.067791
     69       0.005858   0.075662  -0.006741  -0.245504   0.042205  -0.019334
     70       0.015292  -0.038612  -0.007676   0.158866  -0.027425   0.045236
     71       0.032193   0.038130  -0.007735  -0.131044   0.021756  -0.001128
     72      -0.014058   0.033647  -0.070691   0.008721  -0.008214   0.023006
     73      -0.072678   0.007589   0.076898   0.031184   0.005080  -0.077772
     74       0.187615   0.072262   0.005155   0.019571   0.010889   0.030228
     75      -0.008403   0.066159  -0.133453   0.018618  -0.018262   0.066968
     76       0.009879  -0.005417   0.024212   0.002089   0.002541  -0.012090
     77      -0.043616  -0.012322   0.006719   0.000720  -0.001861  -0.012746
     78       0.004990  -0.004091   0.074086   0.011031   0.009101  -0.040812
     79       0.012163   0.079918  -0.035268   0.045001  -0.002828  -0.016276
     80      -0.080301   0.006053  -0.003316   0.014090  -0.003394  -0.023825
     81      -0.100324  -0.049903   0.011917   0.109658  -0.012143  -0.029910
     82      -0.107903   0.110253   0.013583  -0.050403   0.011019  -0.041598
     83      -0.001654  -0.003881  -0.008191   0.082222  -0.010543   0.009382
     84      -0.028729   0.060353   0.005262  -0.089592   0.016214  -0.033846
     85      -0.116286   0.019440   0.015037   0.098372  -0.011499  -0.026658
     86      -0.091115   0.090755   0.004480  -0.035965   0.010195  -0.021796
     87       0.009182  -0.115027   0.007231   0.212893  -0.037031   0.031470
     88      -0.016839   0.063655   0.003003  -0.150769   0.025057  -0.024814
     89      -0.025739  -0.059132   0.008206   0.104605  -0.017875   0.013717
     90       0.108361   0.056257  -0.034710  -0.091772   0.019657  -0.027979
     91       0.131829  -0.022736  -0.048185   0.113798  -0.011242  -0.034823
     92      -0.011955   0.043279  -0.002867  -0.044611   0.010693  -0.045974
     93       0.030086  -0.057145  -0.020413   0.089591  -0.007554  -0.009692
     94       0.126361   0.073125  -0.044648  -0.031177   0.011157  -0.052342
     95       0.076080  -0.028078  -0.020816   0.098988  -0.011288  -0.041266
     96       0.003425   0.007291  -0.000823  -0.028245   0.004867  -0.005130
     97      -0.017647  -0.053561   0.021534  -0.016386  -0.004778   0.052527
     98      -0.037688  -0.046642   0.026962  -0.057446   0.000999   0.061695
     99       0.024439  -0.023879   0.001184  -0.021127   0.000322   0.027723
    100       0.016553  -0.025449   0.004237  -0.017922  -0.000730   0.030857
    101      -0.024034   0.013046   0.003079   0.006489   0.000057  -0.011643
    102      -0.017851  -0.002868   0.058509   0.027017   0.037140  -0.004577
    103       0.003990  -0.008496  -0.045490  -0.015925  -0.007758   0.005322
    104      -0.000942  -0.001934   0.000830   0.000948   0.001087  -0.000164
    105      -0.000280  -0.026838  -0.087676  -0.024942   0.019982   0.016918
    106       0.021163   0.044887   0.055066   0.010464   0.010023   0.000821
    107      -0.014193  -0.072414  -0.168264  -0.047079  -0.019540   0.013717
    108      -0.021307  -0.049768  -0.087255  -0.020921  -0.008521   0.003190
    109       0.018736   0.037019   0.031423  -0.001475  -0.017209  -0.000871
    110       0.007572   0.032260   0.078236   0.022072   0.007381  -0.006080
    111      -0.044727  -0.131613  -0.206357  -0.034100   0.031957   0.014346
    112       0.021705   0.060435   0.084273   0.011760  -0.011447  -0.003453
    113       0.026714   0.072609   0.091821   0.005108  -0.055882  -0.012583
    114       0.006047   0.013357   0.016198  -0.000645  -0.024643  -0.006165
    115       0.032216   0.065824   0.082700   0.007833  -0.036255  -0.007272
    116      -0.022006  -0.067896  -0.114092  -0.008639   0.117856   0.030454
    117       0.022076   0.033264   0.019917   0.000801   0.015349   0.006809
    118       0.018756   0.035237   0.050927   0.006504  -0.012136  -0.004721
    119      -0.042088  -0.080196  -0.095936  -0.006033   0.049183   0.009285
    120       0.018434   0.038740   0.045420   0.005210  -0.003843   0.000075
    121      -0.045534  -0.065735  -0.031794   0.010974   0.039885  -0.003523
    122       0.017626   0.023316   0.005815  -0.008434  -0.035472  -0.001844
    123      -0.011554  -0.033929  -0.054986  -0.000211   0.062666   0.013228
    124       0.063319   0.119442   0.121655  -0.006472  -0.136639  -0.019219
    125       0.041116   0.072634   0.064941  -0.006879  -0.079716  -0.009357
    126      -0.004430  -0.051561  -0.130405  -0.058751  -0.094758   0.003291
    127      -0.018851  -0.003532  -0.084074  -0.056997  -0.351323  -0.046798
    128       0.010032   0.044877   0.078096   0.022953   0.017432  -0.004501
    129       0.041070   0.092421   0.182247   0.050160   0.085246  -0.015726
    130      -0.001235   0.028424   0.020374   0.065631   0.355695   0.042912
    131      -0.005389   0.007026   0.012053   0.001777  -0.064723  -0.005856
    132       0.043303   0.161880   0.205170   0.053492   0.110219   0.055147
    133       0.005816   0.011589   0.038132   0.052700   0.344761   0.112329
    134      -0.010152  -0.034481  -0.075158  -0.019786  -0.023823   0.000242
    135      -0.004094   0.008173  -0.121397  -0.071607  -0.144648   0.063488
    136      -0.014598  -0.023485  -0.081447  -0.071912  -0.360779   0.016405
    137      -0.006378  -0.015254  -0.024708   0.006020   0.071297   0.001480
    138      -0.011930   0.120225  -0.116307   0.057719   0.017178  -0.121122
    139       0.055200  -0.091215   0.045777  -0.071058   0.054991   0.166729
    140      -0.067753  -0.065255  -0.232749   0.021574   0.135111  -0.282631
    141       0.088524   0.179898   0.060396   0.009719  -0.044180   0.291639
    142       0.018797  -0.047506  -0.000311  -0.019755   0.011517  -0.093922
    143       0.055926   0.072521  -0.020676   0.000909   0.033836   0.076459
    144       0.045741   0.278755  -0.121607   0.093194  -0.001490  -0.030548
    145      -0.031800  -0.063618  -0.069391   0.030988   0.010220  -0.432689
    146       0.026375   0.019957  -0.004589   0.017148  -0.006804  -0.184214
    147      -0.123282   0.184587  -0.154916   0.110084  -0.120907   0.097416
    148      -0.049687   0.194421  -0.210649   0.066957   0.076410   0.291639
    149      -0.037516  -0.023699  -0.012862   0.023645  -0.049523  -0.190905
    150      -0.002841   0.145376  -0.013002   0.101941  -0.002789  -0.053639
    151       0.187823  -0.021566  -0.065123  -0.045149  -0.004993   0.077119
    152      -0.461923  -0.107330   0.004360  -0.031359  -0.010950  -0.012487
    153      -0.001300  -0.021424  -0.281233  -0.080066  -0.037231   0.222876
    154      -0.108968  -0.063679  -0.037065  -0.046228  -0.007452   0.056254
    155       0.391222   0.027140  -0.043109  -0.013016  -0.001021   0.031227
    156      -0.058620  -0.018335   0.026964   0.257849  -0.050359   0.034775
    157      -0.156543   0.098581   0.008102  -0.131323   0.036256  -0.123974
    158       0.002217   0.024331   0.004376   0.188611  -0.033226   0.009054
    159       0.014337   0.286615   0.000414  -0.251674   0.033276  -0.018862
    160      -0.120202  -0.084235  -0.000761   0.269055  -0.028142  -0.048762
    161      -0.078745   0.188912   0.009207  -0.141067   0.020692  -0.008856
    162       0.130551   0.246766  -0.038337  -0.203824   0.023977  -0.003358
    163       0.121432  -0.128125  -0.062496   0.192963  -0.009119  -0.072946
    164       0.005826   0.175886  -0.020711  -0.103814   0.017623  -0.053964
    165       0.056726  -0.024983  -0.018198   0.333197  -0.057692   0.005796
    166       0.093745   0.068225  -0.057998  -0.176964   0.052180  -0.161085
    167       0.095273  -0.017909  -0.015089   0.218592  -0.039969   0.002495
    168       0.039085  -0.010699  -0.011662   0.020179  -0.001721  -0.004894
    169       0.048016   0.014828  -0.018269   0.026113  -0.001149  -0.021069
    170      -0.017446   0.022228  -0.000092   0.003710   0.001018  -0.016627
    171      -0.011363  -0.066702   0.028616  -0.052373  -0.003548   0.090150
    172      -0.006129  -0.052799   0.018616  -0.043026  -0.000439   0.060701
    173       0.019257   0.065975  -0.026365   0.051395   0.001209  -0.075224
    174       0.042465   0.009765  -0.014491  -0.008549   0.003428  -0.011834
    175       0.042826   0.026570  -0.017911  -0.003746   0.003987  -0.024664
    176      -0.017587   0.004484  -0.001022   0.020998  -0.000732  -0.017968
                 66         67         68         69         70         71    
      0      -0.003669  -0.013529  -0.003568   0.054621  -0.001907   0.036166
      1       0.001269   0.010412   0.002631  -0.041372   0.014543  -0.059312
      2       0.000423   0.002118   0.000637  -0.010590   0.002381  -0.016786
      3      -0.005133  -0.016063  -0.003177   0.044015   0.006310  -0.011108
      4       0.000287   0.008234   0.002020  -0.031829   0.017355  -0.058231
      5       0.003369   0.013981   0.003225  -0.047073   0.008300  -0.035042
      6       0.000188   0.006523   0.001699  -0.026422   0.003183  -0.015548
      7      -0.003118  -0.013604  -0.003326   0.050530  -0.014025   0.060593
      8      -0.000763  -0.008220  -0.002390   0.037705  -0.014733   0.060598
      9       0.006630   0.021034   0.005200  -0.077841   0.001373  -0.044732
     10      -0.000911  -0.007206  -0.001545   0.023881  -0.000088   0.005807
     11      -0.000087  -0.009510  -0.001797   0.027677  -0.004357   0.009743
     12       0.002997   0.006895   0.001811  -0.026714  -0.007906   0.004837
     13       0.003265   0.001147   0.000210  -0.000501  -0.009110   0.028014
     14      -0.005697  -0.007830  -0.002150   0.030052   0.002443   0.009518
     15      -0.000956  -0.000719  -0.000399   0.006355  -0.006199   0.025246
     16       0.003604   0.002761   0.000909  -0.011946  -0.008907   0.009073
     17      -0.000038   0.001083   0.000120  -0.002786  -0.005775   0.012457
     18       0.001729   0.024926   0.004743  -0.067005   0.018655  -0.032958
     19      -0.014280   0.006581   0.000149  -0.007460   0.028422  -0.037771
     20       0.001500  -0.003053  -0.000633   0.008533  -0.003150   0.004807
     21      -0.000988  -0.014307  -0.003469   0.055095   0.018056   0.029021
     22       0.007571  -0.002691  -0.001895   0.038721   0.043392   0.026165
     23       0.011281   0.029519   0.005812  -0.077809   0.010847  -0.009614
     24      -0.005019  -0.011374  -0.002889   0.046889   0.020670   0.031646
     25      -0.004334  -0.005322  -0.001839   0.037065   0.044444   0.026806
     26       0.004967   0.019069   0.004317  -0.054766   0.002391   0.003053
     27      -0.001460  -0.005663  -0.000469   0.001023   0.005084  -0.033292
     28       0.012860   0.006544   0.000603  -0.006546   0.028085  -0.037206
     29      -0.001411  -0.000761  -0.000141   0.002277  -0.003769   0.010673
     30      -0.006639  -0.022235  -0.003620   0.051736  -0.048926   0.044397
     31      -0.005796  -0.005248   0.002342  -0.041839  -0.076450   0.019137
     32      -0.008889  -0.018152  -0.003751   0.048579   0.001921  -0.015507
     33      -0.002538  -0.024315  -0.004869   0.070159  -0.053979   0.043575
     34       0.007220   0.000492   0.002430  -0.042483  -0.074741   0.018252
     35      -0.010201  -0.022165  -0.004596   0.061370  -0.003806  -0.005936
     36      -0.005243   0.026379   0.006971  -0.114652   0.014563  -0.039701
     37      -0.047408  -0.015221  -0.000660   0.013280  -0.002284   0.021550
     38       0.023153   0.001401   0.000811  -0.030904   0.017882  -0.009709
     39      -0.028660  -0.011460   0.003190  -0.049789   0.010564   0.025090
     40      -0.012935  -0.016035  -0.000242  -0.014620   0.001092   0.016636
     41       0.061288   0.061775  -0.002421   0.012602  -0.008036   0.003584
     42      -0.082860  -0.058694   0.002499  -0.018901   0.019991   0.036033
     43      -0.043073  -0.052209   0.002591   0.002273  -0.000315   0.012494
     44       0.038218  -0.011800  -0.000106   0.034484  -0.011682  -0.013805
     45      -0.047225  -0.033437  -0.003210   0.019544   0.000939   0.020463
     46       0.117683   0.131963  -0.002098   0.045083  -0.019197  -0.060517
     47      -0.074701  -0.188728   0.006747  -0.044219   0.012742   0.011470
     48       0.025663   0.035983   0.005151  -0.042375   0.005931  -0.022220
     49      -0.014926   0.005377   0.003205  -0.007497  -0.006559  -0.035272
     50       0.269355   0.178678  -0.010295   0.051717  -0.009954  -0.025878
     51       0.065162   0.067300   0.007033  -0.109827   0.024001  -0.048687
     52       0.103065   0.020696  -0.005373   0.047668  -0.001564   0.015541
     53      -0.264155  -0.111025   0.009123  -0.047410  -0.000679   0.000865
     54       0.000780   0.001006   0.000224  -0.002805   0.001001  -0.004820
     55      -0.001725  -0.006685  -0.001467   0.021108  -0.003596   0.011162
     56       0.002003   0.008252   0.002000  -0.029608   0.007378  -0.028125
     57       0.004202  -0.005200  -0.002246   0.038903  -0.010696   0.006176
     58      -0.086965  -0.058399   0.000453   0.013414  -0.003050   0.019010
     59       0.042924   0.001863  -0.002969   0.026772  -0.002057   0.009834
     60      -0.014937  -0.077410  -0.004948   0.039006  -0.009313   0.002893
     61       0.088725  -0.104256  -0.000727  -0.007295  -0.003492  -0.023841
     62      -0.162090   0.312401  -0.008313   0.057800  -0.018264  -0.033930
     63       0.000710  -0.015712  -0.001223   0.085962  -0.023250  -0.007444
     64      -0.017036   0.039199  -0.006782  -0.015990  -0.003611  -0.038897
     65       0.078134  -0.068247  -0.001141  -0.008424  -0.000229  -0.009997
     66       0.053582   0.044491  -0.000545   0.021412  -0.006224   0.004382
     67       0.091422   0.073494  -0.002297  -0.025977   0.002086  -0.011105
     68      -0.082147  -0.000231   0.005859  -0.021672   0.001776  -0.010456
     69      -0.004231   0.014961  -0.021400  -0.021971   0.005517   0.038832
     70       0.033149   0.063806   0.012934  -0.041622   0.015907   0.052750
     71       0.002525   0.021002  -0.012036  -0.021000   0.005773   0.031914
     72       0.007563   0.038728   0.000330  -0.004825  -0.000147  -0.007500
     73      -0.155148   0.088986  -0.001599   0.023786  -0.001590   0.016285
     74       0.295112  -0.380567   0.007107  -0.047440   0.014092   0.028544
     75       0.060603   0.059901   0.001516  -0.014235  -0.001255  -0.024771
     76       0.003809  -0.038809   0.000406   0.003503   0.001030   0.010684
     77      -0.062584   0.064348  -0.001180   0.010632  -0.002236  -0.001068
     78      -0.028239  -0.036525   0.000038   0.005544   0.001468   0.014326
     79       0.016833  -0.041866   0.002264  -0.007477   0.004597   0.015894
     80      -0.092205   0.098402  -0.001301   0.012920  -0.002330  -0.000170
     81      -0.020610  -0.065509  -0.035835   0.038440  -0.018076  -0.104156
     82      -0.021709  -0.039965   0.029030   0.037619  -0.010689  -0.025662
     83       0.019053   0.049042  -0.020660  -0.051521   0.022522   0.094386
     84      -0.021062  -0.051492  -0.043558   0.024873  -0.014017  -0.094642
     85      -0.008302  -0.024153   0.032953   0.028075  -0.004834   0.009433
     86       0.001944   0.027110  -0.024037  -0.046177   0.021970   0.094351
     87       0.007997   0.001069  -0.016036   0.016143  -0.005190   0.017558
     88      -0.008699  -0.024066   0.013058   0.010733  -0.005834  -0.058028
     89       0.001803  -0.004487  -0.009591   0.010630  -0.003960   0.002810
     90      -0.020694   0.016473   0.071498  -0.028108   0.017044   0.059176
     91      -0.046757  -0.036261  -0.048756   0.000236   0.001390   0.022852
     92      -0.034967  -0.075777   0.040446   0.065822  -0.025875  -0.130345
     93      -0.003495   0.021510   0.056305  -0.021925   0.013013   0.048984
     94      -0.054925  -0.054365  -0.039869   0.017596  -0.006829  -0.023056
     95      -0.039035  -0.085328   0.035303   0.077422  -0.029319  -0.135694
     96      -0.001269  -0.004160   0.006447   0.002498  -0.001191  -0.013447
     97       0.039843   0.057051  -0.006280  -0.034028   0.011729   0.056808
     98       0.052458   0.079189   0.000756  -0.053353   0.018937   0.077136
     99       0.019708   0.038231  -0.001293  -0.028715   0.010234   0.042213
    100       0.022617   0.040715  -0.001006  -0.028646   0.010235   0.044084
    101      -0.006353  -0.016634   0.000797   0.013875  -0.005027  -0.021202
    102       0.003171   0.031235   0.007891  -0.125470   0.044293  -0.190110
    103      -0.002495  -0.022369  -0.006139   0.097148  -0.043217   0.170612
    104      -0.000201   0.003335   0.001198  -0.019908   0.019412  -0.065398
    105      -0.008005  -0.041104  -0.011012   0.172745  -0.038080   0.210578
    106       0.000084   0.004074   0.000267  -0.000990  -0.001905   0.032879
    107      -0.007431  -0.051376  -0.012539   0.193296  -0.053495   0.224952
    108      -0.001715  -0.016043  -0.003491   0.050588  -0.021097   0.056273
    109       0.000204  -0.013853  -0.004457   0.074349  -0.047360   0.180225
    110       0.002927   0.027057   0.007116  -0.111160   0.050689  -0.186929
    111      -0.005929  -0.016626  -0.003023   0.040199   0.000130   0.000225
    112       0.001330   0.001881  -0.000069   0.003157   0.001285   0.004132
    113       0.004804  -0.007519  -0.002845   0.051393  -0.068522   0.215457
    114       0.002190   0.000656   0.000420  -0.004856  -0.017642   0.036365
    115       0.002391   0.009872   0.002219  -0.034128   0.027328  -0.075647
    116      -0.011734  -0.014451  -0.003469   0.045069   0.049205  -0.108363
    117      -0.003365  -0.000265   0.000743  -0.015993   0.036863  -0.128475
    118       0.001343   0.005667   0.000729  -0.009675   0.001765   0.013407
    119      -0.002260  -0.007325  -0.001962   0.029674  -0.019479   0.064096
    120      -0.000485   0.003174   0.001028  -0.016709   0.018123  -0.058557
    121       0.003432   0.009837   0.001430  -0.021040  -0.042424   0.103597
    122      -0.000182  -0.005590  -0.000890   0.013997   0.006402  -0.014966
    123      -0.004003   0.003858   0.001276  -0.024391   0.026105  -0.082622
    124       0.004740  -0.001861   0.000897  -0.010132   0.019477  -0.074248
    125       0.001702  -0.005167  -0.000578   0.010785   0.009877  -0.028433
    126      -0.005364  -0.008754   0.001730  -0.063264  -0.146645  -0.066955
    127       0.023173   0.081286   0.025114  -0.430142  -0.294589  -0.219167
    128       0.005419   0.006922  -0.000400   0.021262   0.057171   0.031947
    129       0.003796   0.041786   0.010770  -0.181668  -0.126133  -0.065839
    130      -0.018793   0.075148   0.024114  -0.419331  -0.301660  -0.217420
    131      -0.004495  -0.002521  -0.000112   0.015709   0.039185   0.024021
    132      -0.011837   0.017357  -0.005788   0.117423   0.259143  -0.039091
    133      -0.027899   0.058623  -0.002622   0.072945   0.536288  -0.224086
    134      -0.005222  -0.024829  -0.003318   0.041142  -0.071251   0.026734
    135      -0.012881  -0.031926  -0.014037   0.223020   0.221763  -0.048691
    136       0.012917   0.058387  -0.001025   0.056266   0.524424  -0.214730
    137      -0.001826  -0.006152   0.001345  -0.030451  -0.091897   0.015845
    138      -0.076391  -0.062949   0.004036  -0.046985   0.011623   0.058933
    139       0.187382   0.177126  -0.006554   0.040450  -0.017480  -0.086623
    140      -0.287676  -0.217550   0.014905  -0.239172   0.056102   0.101423
    141       0.347590   0.299365  -0.013750   0.201141  -0.064297  -0.100881
    142      -0.011159  -0.028794  -0.002480  -0.000951   0.010120   0.018774
    143       0.172490   0.145871  -0.008516   0.094328  -0.025836  -0.032525
    144       0.101821   0.207998  -0.008638   0.110868  -0.015676  -0.020455
    145      -0.311975  -0.145080   0.007286  -0.162687   0.067028   0.106381
    146      -0.069450   0.045385  -0.001856  -0.023919   0.020435   0.027937
    147      -0.009650  -0.147342   0.012331  -0.034003   0.019697  -0.039682
    148       0.200344   0.034094  -0.002304   0.140938  -0.062235  -0.064126
    149      -0.152743  -0.102621   0.005872  -0.086318   0.040715   0.037419
    150      -0.017402  -0.034224   0.004808  -0.007213   0.007529   0.026946
    151       0.122332  -0.052673  -0.000542  -0.010862  -0.002033  -0.018332
    152      -0.200115   0.255030  -0.004278   0.030520  -0.009843  -0.022553
    153       0.187445   0.144360  -0.001987  -0.025316  -0.012001  -0.091395
    154       0.043096   0.019071  -0.001616   0.000710  -0.004514  -0.020756
    155       0.028614   0.013662  -0.000736   0.002308  -0.002831  -0.011372
    156       0.004770  -0.003907   0.275351   0.120964  -0.026265   0.039806
    157      -0.067934  -0.158337  -0.192960   0.040768  -0.028616  -0.235326
    158       0.005891   0.013196   0.144508   0.048462  -0.002767   0.077462
    159      -0.001977   0.032339   0.303228   0.077136  -0.006199   0.148851
    160      -0.017429  -0.037518  -0.216119  -0.059354   0.016322  -0.029477
    161       0.011529   0.057066   0.158919  -0.002891   0.017540   0.179274
    162      -0.045617  -0.022435  -0.500753  -0.081054   0.011627   0.143915
    163      -0.043919   0.000994   0.361471   0.012721   0.018051   0.022238
    164      -0.064208  -0.094054  -0.268755   0.019380  -0.019483  -0.040550
    165      -0.064437  -0.082118  -0.348224   0.012724  -0.015211   0.001091
    166      -0.100162  -0.139954   0.256638   0.106777  -0.030002  -0.185544
    167      -0.039414  -0.084282  -0.183147   0.056927  -0.029856  -0.095744
    168      -0.007642  -0.004106   0.006215   0.001713  -0.000360  -0.003216
    169      -0.023488  -0.028087  -0.008132   0.016246  -0.006256  -0.024449
    170      -0.011584  -0.023467  -0.004669   0.016784  -0.006379  -0.026782
    171       0.069612   0.111998  -0.025644  -0.078491   0.027511   0.124996
    172       0.050598   0.082239   0.013624  -0.053903   0.020066   0.083441
    173      -0.062430  -0.099689  -0.008439   0.066530  -0.024664  -0.104955
    174      -0.011972  -0.009135   0.004339   0.002828  -0.001013  -0.008221
    175      -0.022332  -0.026456   0.002064   0.015588  -0.005759  -0.026417
    176      -0.011542  -0.023550   0.012100   0.018669  -0.006369  -0.030520
                 72         73         74         75         76         77    
      0      -0.005538  -0.001496  -0.056307   0.199099  -0.116261  -0.019226
      1       0.055945  -0.025726   0.003041  -0.037182  -0.040836   0.055081
      2       0.021110  -0.011835   0.005261  -0.010424  -0.002082   0.062296
      3       0.066418  -0.045497  -0.012294   0.082771   0.057852  -0.025435
      4       0.066102  -0.032984  -0.012998   0.038381  -0.113780  -0.059439
      5       0.013926  -0.003322   0.021917  -0.070767   0.052537  -0.072954
      6      -0.014723   0.015583   0.012731  -0.098279  -0.038702   0.032763
      7      -0.053674   0.024783  -0.007767   0.034100   0.053436   0.047136
      8      -0.068849   0.036848  -0.015387   0.027316   0.008106   0.058550
      9       0.004856   0.003600   0.044813  -0.134600  -0.083855  -0.004948
     10       0.017648  -0.014176  -0.009098   0.045502  -0.017013   0.013267
     11       0.036628  -0.033989   0.018100   0.067062   0.043999   0.011663
     12      -0.032173   0.018603   0.048066  -0.141840   0.060732  -0.040465
     13      -0.040011   0.020392   0.010379  -0.001973  -0.082711  -0.067170
     14      -0.004120   0.005565  -0.037191   0.054242   0.028203  -0.058610
     15      -0.049075   0.031316   0.000504  -0.057710   0.041432   0.002988
     16      -0.008447  -0.001842   0.048933  -0.081772   0.189161   0.008161
     17      -0.033792   0.023584  -0.005783  -0.036859  -0.108701   0.045362
     18      -0.023815   0.027367  -0.016324   0.002138   0.005352  -0.008080
     19      -0.016944   0.039056  -0.103559  -0.000280   0.055432  -0.001941
     20       0.004648  -0.005730   0.007909  -0.000467   0.000933   0.002247
     21       0.003907  -0.011856   0.005002   0.016698   0.003789   0.000849
     22      -0.002272  -0.022391   0.106043   0.008061  -0.014317  -0.000806
     23      -0.035567   0.018261   0.037739   0.135502   0.017853   0.007815
     24      -0.005159  -0.008108   0.010397   0.063875   0.014866   0.005859
     25      -0.000856  -0.023316   0.101377  -0.017309  -0.030132   0.003450
     26      -0.029766   0.014886   0.009987   0.141713   0.035251   0.005835
     27       0.003623   0.015401  -0.039110  -0.039234  -0.001726  -0.003718
     28      -0.007686   0.032310  -0.114300  -0.002313   0.020351  -0.000351
     29      -0.000298  -0.005648   0.018100   0.006754   0.001130   0.000092
     30       0.019830  -0.025650  -0.003475   0.034022   0.010913   0.003089
     31       0.015516  -0.021944   0.048175  -0.031959  -0.032817  -0.002928
     32       0.028585  -0.006351  -0.035619  -0.165925  -0.040874  -0.008521
     33       0.029800  -0.030318  -0.016986  -0.022849  -0.001431   0.000218
     34       0.010852  -0.020152   0.054226   0.007980  -0.007427   0.001465
     35       0.032173  -0.010918  -0.044630  -0.141080  -0.038184  -0.009657
     36      -0.030269   0.024359   0.078167   0.052625  -0.002592   0.000655
     37       0.007103  -0.006455  -0.005174   0.000219   0.004158   0.001373
     38      -0.006600   0.015501  -0.025034   0.009228   0.008579   0.000253
     39      -0.001014   0.000838   0.027562   0.018487  -0.003791   0.001960
     40       0.005408   0.001538   0.016068   0.003808  -0.001367   0.001335
     41       0.003699  -0.003313   0.023216  -0.000420  -0.004823   0.000913
     42       0.008116  -0.002815  -0.032905  -0.011496   0.005092   0.000072
     43       0.003416  -0.014003  -0.000967  -0.018996  -0.006369  -0.003031
     44       0.000927  -0.009667  -0.008070  -0.019528  -0.003477  -0.002741
     45       0.013641  -0.001695  -0.018591  -0.018830  -0.000868  -0.001469
     46      -0.016409   0.001309   0.007755   0.006798   0.001347   0.000633
     47      -0.001218   0.003437  -0.004774   0.003353   0.002209   0.000683
     48      -0.023601  -0.001802   0.033488   0.032554   0.001017   0.001095
     49      -0.013467   0.006666   0.013728   0.015366   0.001684   0.001513
     50      -0.001657   0.003566   0.001338   0.002399   0.000699   0.000527
     51      -0.037801   0.023978   0.075765   0.064048   0.001099   0.000102
     52       0.013413  -0.007855  -0.026925  -0.023188  -0.001546  -0.001239
     53      -0.009189  -0.003018   0.022795   0.012115  -0.002017   0.000074
     54       0.010849  -0.007473   0.000411   0.020941  -0.011546  -0.006285
     55       0.007319  -0.008385  -0.003595   0.036870   0.053145  -0.010269
     56       0.015794  -0.005052   0.009197  -0.041937  -0.043726  -0.012884
     57       0.009329  -0.007270  -0.018291  -0.018292  -0.001393  -0.000239
     58       0.007444  -0.010644  -0.017147  -0.015964  -0.002120  -0.001201
     59       0.007769  -0.005323  -0.020269  -0.014918  -0.000686  -0.000891
     60       0.015094   0.003048  -0.017406  -0.022167  -0.001852  -0.001627
     61      -0.002974   0.014806   0.014167   0.011305   0.000569   0.000885
     62      -0.002447   0.005321   0.008635   0.001889  -0.000571  -0.000013
     63       0.004432  -0.025479  -0.033315  -0.029887  -0.001378  -0.000359
     64      -0.002393   0.034210   0.037262   0.023735  -0.000400   0.000226
     65       0.001799   0.013665   0.010297   0.006695  -0.000099   0.000158
     66      -0.000635  -0.009082  -0.004297   0.001964   0.001061   0.001424
     67      -0.003080   0.018705   0.025543   0.022536   0.000973   0.001436
     68      -0.014507  -0.010234   0.009036   0.009477   0.000376   0.000471
     69       0.044579   0.062105   0.013682   0.004543  -0.000221   0.000553
     70      -0.022010  -0.062752  -0.020353  -0.003812   0.000608   0.000646
     71       0.026475   0.033849   0.007720   0.003525  -0.000076   0.000456
     72      -0.003571   0.001742   0.004644   0.003995   0.000181   0.000008
     73       0.006034  -0.008739  -0.012043  -0.010390  -0.000522  -0.000392
     74       0.003925  -0.004319  -0.008473  -0.003642   0.000181  -0.000019
     75      -0.011832   0.005841   0.015570   0.015659   0.001155   0.001077
     76       0.003587  -0.004704  -0.007968  -0.006830  -0.000298  -0.000352
     77       0.000453  -0.001334  -0.001586  -0.001801  -0.000106  -0.000095
     78       0.005034  -0.004950  -0.008334  -0.007332  -0.000431  -0.000394
     79       0.001542  -0.007539  -0.007808  -0.004949  -0.000101  -0.000250
     80       0.000175  -0.002554  -0.001929  -0.001975  -0.000139  -0.000133
     81      -0.046642  -0.023968   0.015674   0.012388   0.000295  -0.000169
     82       0.021847   0.048160   0.013292   0.003873   0.000006   0.000328
     83      -0.003399  -0.062205  -0.039515  -0.022327  -0.000472  -0.000821
     84      -0.057820  -0.048581   0.007882   0.009582   0.000605   0.000795
     85       0.036667   0.052789   0.004891  -0.003114  -0.000453  -0.000688
     86      -0.005165  -0.070374  -0.047643  -0.029859  -0.000773  -0.000984
     87       0.057836   0.091011   0.018888   0.005600  -0.000093  -0.000090
     88      -0.048724  -0.051989   0.000091   0.004176   0.000286   0.000141
     89       0.030702   0.052572   0.013146   0.004671  -0.000062  -0.000062
     90      -0.021252  -0.075742  -0.038322  -0.022487  -0.000531  -0.000019
     91       0.026439   0.027596  -0.004988  -0.009041  -0.000775  -0.001542
     92      -0.037302   0.007969   0.030670   0.020782   0.000732   0.001219
     93      -0.006264  -0.039748  -0.021929  -0.012531  -0.000566  -0.001747
     94       0.007900   0.022499   0.005927   0.000234  -0.000083   0.000733
     95      -0.029396   0.022494   0.032846   0.020430   0.000539  -0.000117
     96      -0.013500  -0.016134  -0.001354   0.000263   0.000020   0.000066
     97       0.016280   0.000333  -0.008425  -0.004601  -0.000108  -0.000063
     98       0.003832  -0.031527  -0.019356  -0.008806  -0.000023   0.000049
     99       0.003822  -0.014348  -0.009893  -0.004627  -0.000021   0.000010
    100       0.006113  -0.011305  -0.009456  -0.004498  -0.000009   0.000027
    101      -0.003105   0.005272   0.004616   0.002327   0.000020   0.000016
    102       0.192533  -0.091543  -0.001947  -0.076165  -0.150073   0.363981
    103      -0.206079   0.112048  -0.030463   0.040753  -0.086727   0.139977
    104       0.103853  -0.061827   0.002901   0.063068   0.044892  -0.172295
    105      -0.193184   0.095799  -0.102833   0.352065  -0.202406  -0.278657
    106      -0.079590   0.054716  -0.033745   0.022914  -0.231819  -0.196068
    107      -0.170294   0.067734  -0.031635   0.232019   0.170046  -0.073176
    108      -0.041541   0.016047   0.011271  -0.033935   0.136018   0.149714
    109      -0.245346   0.137558  -0.019543  -0.003978  -0.101702   0.135644
    110       0.215459  -0.114090   0.022633  -0.029484   0.035791  -0.209438
    111       0.033861  -0.025616   0.023084  -0.064365   0.180717  -0.000823
    112       0.001351   0.000248  -0.042940   0.144285  -0.202134   0.006754
    113      -0.325186   0.182725   0.051161  -0.250587   0.195959   0.239694
    114      -0.057625   0.027602   0.063972  -0.160907   0.197046  -0.079741
    115       0.092982  -0.045883  -0.050177   0.141880  -0.303142   0.158818
    116       0.216476  -0.120963  -0.122260   0.344318   0.064118   0.323912
    117       0.222829  -0.131234  -0.025587   0.151119   0.122202   0.340538
    118      -0.050764   0.038765  -0.037771   0.031305  -0.137345  -0.005179
    119      -0.089313   0.049451   0.014165  -0.067416   0.030222  -0.221589
    120       0.086792  -0.048591  -0.005916   0.017667   0.094026   0.367370
    121      -0.232200   0.147874   0.027472  -0.296848  -0.135025   0.105672
    122       0.059444  -0.043787   0.011872   0.078412   0.092120  -0.193575
    123       0.099674  -0.050612   0.007045  -0.078558   0.303901  -0.132884
    124       0.186163  -0.133048   0.076710   0.096684   0.462493  -0.111242
    125       0.096449  -0.070001   0.015182   0.136849   0.055904  -0.019954
    126       0.029663   0.051169  -0.327497  -0.056225   0.024201   0.006919
    127      -0.014729   0.145579  -0.484513   0.041944   0.039822   0.004771
    128      -0.024651  -0.010233   0.103800   0.109219   0.010374   0.008895
    129      -0.033213   0.080011  -0.263574   0.195825   0.118336   0.000305
    130      -0.014416   0.149737  -0.478880  -0.004121   0.135745  -0.028803
    131      -0.013858  -0.013231   0.093601   0.055957  -0.004739   0.003710
    132      -0.061925   0.067019  -0.126205   0.132862   0.121510   0.011376
    133      -0.111133   0.168010  -0.190804  -0.111476   0.085613  -0.004480
    134       0.039541  -0.030716  -0.010778  -0.118469  -0.040124  -0.005781
    135       0.017059   0.030629  -0.191801  -0.135562   0.004733   0.011264
    136      -0.109007   0.162563  -0.194053  -0.072075  -0.032990  -0.019818
    137       0.021159  -0.021752   0.034550  -0.083922  -0.050116  -0.021290
    138       0.010526  -0.009784   0.009919   0.006103  -0.005399   0.001496
    139      -0.020222   0.021118   0.037504   0.015403   0.003261   0.000972
    140      -0.002368   0.018095   0.106965   0.074051  -0.007687   0.007154
    141      -0.004464  -0.018155  -0.034441  -0.044373  -0.002174  -0.005008
    142       0.011216   0.007963  -0.043224  -0.015202   0.008256   0.001226
    143       0.005606  -0.006262  -0.023394  -0.028562   0.000126  -0.001266
    144       0.007970  -0.014607  -0.046587  -0.043608   0.002807  -0.003624
    145       0.010271   0.019866  -0.006491   0.036376   0.009616   0.006019
    146       0.005862   0.009085  -0.018748   0.005114   0.007001   0.002051
    147      -0.026098   0.001098  -0.042334   0.002535   0.014074  -0.001629
    148      -0.000267  -0.042559   0.018581  -0.061975  -0.023380  -0.010020
    149      -0.002152   0.015145  -0.025392   0.019304   0.012277   0.002834
    150      -0.000069  -0.017904  -0.014891  -0.007624   0.000484   0.000085
    151      -0.004005   0.009454   0.010649   0.007985   0.000189   0.000302
    152      -0.002502   0.006465   0.007812   0.004239  -0.000024   0.000122
    153      -0.027521   0.035481   0.054151   0.045698   0.002220   0.002520
    154      -0.003488   0.009362   0.009868   0.006997   0.000179   0.000326
    155      -0.002444   0.003246   0.005046   0.003165   0.000027   0.000081
    156       0.210003   0.340576   0.073248   0.022554   0.000522   0.003989
    157      -0.178812  -0.186533  -0.001968   0.010287  -0.000007  -0.002736
    158       0.117329   0.151860   0.011801  -0.006673  -0.000307   0.001134
    159       0.271165   0.388507   0.064167   0.008973  -0.002001  -0.003108
    160      -0.177736  -0.309272  -0.088316  -0.037279   0.000640   0.001139
    161       0.161447   0.175809  -0.000957  -0.019090  -0.001909  -0.002753
    162       0.177011   0.229058   0.025628  -0.006220  -0.002381  -0.007093
    163      -0.105145  -0.209806  -0.072781  -0.036080  -0.000093   0.002890
    164       0.077724   0.158750   0.048740   0.017890  -0.000770  -0.003083
    165       0.085330   0.137524   0.021811  -0.000023   0.000506   0.007538
    166      -0.088110  -0.055316   0.020597   0.013686  -0.000857  -0.006519
    167       0.029513   0.101265   0.041831   0.020646   0.001177   0.005148
    168      -0.003347  -0.004270  -0.000627  -0.000096   0.000003   0.000171
    169       0.001371   0.014877   0.007761   0.003572   0.000007   0.000038
    170      -0.002221   0.009852   0.006927   0.003425   0.000029  -0.000044
    171       0.025022  -0.019804  -0.025195  -0.013283  -0.000199  -0.000209
    172       0.005047  -0.033324  -0.021554  -0.010173  -0.000040   0.000112
    173      -0.010077   0.035950   0.026250   0.013017   0.000121  -0.000004
    174      -0.005416  -0.005014   0.000369   0.000507  -0.000011  -0.000000
    175      -0.004858   0.005180   0.005787   0.003010  -0.000000  -0.000029
    176      -0.008515   0.000843   0.005376   0.003162   0.000083   0.000120
                 78         79         80         81         82         83    
      0      -0.000509  -0.010107  -0.002009   0.000561  -0.001959   0.054238
      1       0.000850   0.002580   0.003126  -0.000652   0.001118  -0.074115
      2       0.000791  -0.008699  -0.000291   0.000347  -0.007719   0.093165
      3      -0.000347   0.003068  -0.001031   0.000063   0.001997  -0.029198
      4      -0.001460  -0.015601  -0.002283   0.000622  -0.007767   0.104162
      5      -0.000750   0.014248   0.000761  -0.000495   0.010316  -0.110107
      6       0.000561   0.004331   0.004182  -0.000880   0.001379  -0.059218
      7       0.000886   0.001310   0.000227   0.000046  -0.000870   0.010405
      8       0.000955   0.000592  -0.001031   0.000286  -0.001194   0.029748
      9      -0.000408  -0.012700   0.001062   0.000047  -0.004943   0.036974
     10       0.000320   0.007761   0.002599  -0.000744   0.003902  -0.084388
     11       0.000004  -0.013049  -0.000129   0.000298  -0.006588   0.048248
     12      -0.000878  -0.008886  -0.002137   0.000582  -0.008734   0.119969
     13      -0.001276  -0.005829   0.001540  -0.000380   0.001086  -0.065063
     14      -0.000537   0.015701  -0.000989  -0.000171   0.010393  -0.068485
     15       0.000400   0.014719   0.002561  -0.000784   0.007631  -0.105779
     16       0.000414   0.003261  -0.003278   0.000738  -0.000786   0.083444
     17       0.000200  -0.011928   0.000638   0.000015  -0.007071   0.035812
     18       0.000441   0.004213   0.001410   0.000027  -0.000236   0.056705
     19       0.000355   0.023053  -0.005826   0.000725   0.006147   0.025470
     20      -0.000141  -0.003671  -0.002188   0.000461  -0.001115   0.002929
     21      -0.002077  -0.021656  -0.023621   0.003478  -0.047815  -0.018801
     22       0.000309  -0.026633   0.016553  -0.002347  -0.097965  -0.022649
     23       0.004677   0.026036   0.055705  -0.008097   0.012070  -0.018281
     24       0.000520   0.025382  -0.003610   0.000412   0.051231  -0.025058
     25       0.000901   0.029082   0.001296  -0.000112   0.096047   0.023692
     26       0.002639   0.014792   0.027664  -0.004090  -0.013684  -0.035739
     27       0.003419   0.001510   0.059016  -0.008737  -0.005235  -0.002236
     28      -0.000936  -0.019089  -0.004490   0.000295  -0.006569  -0.002659
     29      -0.000770  -0.001038  -0.015170   0.002512   0.001231   0.007517
     30      -0.000255   0.039949  -0.019849   0.002391  -0.017809  -0.013001
     31       0.000655   0.091136  -0.032089   0.004140  -0.043366   0.018617
     32      -0.002340  -0.023543  -0.012442   0.001384   0.006739   0.027777
     33      -0.003451  -0.047387  -0.027726   0.004016   0.021966  -0.010208
     34      -0.000445  -0.095517   0.037839  -0.004741   0.044615  -0.019647
     35      -0.003525   0.000581  -0.046689   0.006407  -0.001689  -0.002782
     36       0.003094   0.007489   0.041222  -0.004945  -0.000648   0.002787
     37      -0.007232  -0.018403  -0.094452   0.013997   0.002864   0.004737
     38      -0.001895  -0.018219  -0.027737   0.004850  -0.004050   0.003854
     39      -0.005060   0.017094  -0.030855   0.001598   0.007589  -0.018996
     40      -0.009536  -0.009553  -0.103538   0.014388   0.005729  -0.001159
     41      -0.005418   0.005292  -0.045931   0.005364   0.006096  -0.010933
     42      -0.004823  -0.022554  -0.068274   0.010381   0.000379   0.007704
     43       0.016873   0.026293   0.191619  -0.027352  -0.007262   0.003877
     44       0.012632   0.011208   0.123430  -0.016515  -0.007098   0.011403
     45       0.001757   0.001265   0.056024  -0.008664  -0.003352   0.007926
     46       0.001091  -0.005217  -0.043714   0.008744   0.000741  -0.004862
     47      -0.003516  -0.008825  -0.046367   0.006869   0.001536  -0.002408
     48       0.003715  -0.001363  -0.010756   0.002862   0.001844   0.006939
     49      -0.004968  -0.005851  -0.074657   0.010867   0.003567  -0.007557
     50      -0.003011  -0.001823  -0.028220   0.004684   0.001942  -0.002545
     51       0.006162   0.001107   0.062833  -0.007797  -0.001560   0.019456
     52       0.002753   0.004966   0.034786  -0.005434  -0.000804  -0.000087
     53       0.002906   0.005320   0.023090  -0.003234  -0.000054   0.003261
     54      -0.000170  -0.004295  -0.000172   0.000132  -0.002369   0.029219
     55      -0.000088   0.000795  -0.001812   0.000347   0.001986   0.008028
     56      -0.000267   0.000203   0.001534  -0.000359  -0.000576  -0.025845
     57      -0.000823   0.002050  -0.006308   0.000577  -0.000035  -0.004872
     58       0.006295   0.009377   0.066521  -0.009076  -0.003453   0.002194
     59       0.003294   0.004371   0.036982  -0.005164  -0.002448   0.000187
     60       0.002145   0.005814   0.065278  -0.009432  -0.004163   0.002592
     61      -0.005545  -0.001333  -0.034661   0.005091   0.001823  -0.005276
     62      -0.000330   0.002104   0.002845  -0.000250  -0.000226  -0.001300
     63       0.011801   0.003015  -0.020477   0.005835   0.000393  -0.012510
     64      -0.009713   0.003899   0.026675  -0.005431  -0.000689   0.003923
     65      -0.004262   0.001284   0.004801  -0.001480  -0.000038   0.000121
     66      -0.008380  -0.004057  -0.069586   0.008979   0.004221  -0.004970
     67      -0.007853  -0.002396  -0.045674   0.003665   0.003461  -0.001438
     68       0.007344  -0.001487  -0.022213   0.004976   0.001563  -0.000780
     69      -0.029614   0.001615   0.002458  -0.006235   0.000479   0.000529
     70       0.015741  -0.003294  -0.046000   0.010252   0.003405  -0.001742
     71      -0.017999   0.000883  -0.002230  -0.003527   0.000672   0.000349
     72       0.000110  -0.000098   0.002562  -0.000461  -0.000216   0.000987
     73       0.001875   0.000960   0.012379  -0.001736  -0.000637   0.000863
     74      -0.000022  -0.000719  -0.001601   0.000160   0.000108  -0.000015
     75      -0.002605  -0.003541  -0.045337   0.006722   0.002426  -0.004044
     76       0.001810   0.000574   0.010004  -0.001271  -0.000590   0.000603
     77       0.000613   0.000186   0.002381  -0.000235  -0.000147   0.000074
     78       0.001296   0.001188   0.015226  -0.002174  -0.000798   0.001296
     79       0.001860   0.000206   0.008782  -0.001209  -0.000471   0.001270
     80       0.000898   0.000390   0.005200  -0.000682  -0.000279   0.000570
     81       0.030954  -0.001172   0.008200   0.084344   0.000672  -0.001103
     82      -0.023849   0.000622  -0.010597  -0.061451  -0.000221   0.000539
     83       0.021798   0.000108   0.020871   0.046103  -0.000628  -0.000060
     84      -0.025536  -0.000700  -0.032382  -0.072688   0.000969   0.000175
     85       0.016939   0.000772   0.028836   0.049542  -0.001130   0.000287
     86      -0.008081   0.002211   0.030903  -0.046852  -0.003344   0.001165
     87       0.005884  -0.000058   0.002349   0.006530  -0.000052   0.000187
     88      -0.004605  -0.000191  -0.002272  -0.005699  -0.000069   0.000348
     89       0.003223   0.000138   0.003209   0.003344  -0.000100   0.000349
     90      -0.056735   0.003922   0.051823   0.025535  -0.002806   0.001117
     91       0.050135   0.000228   0.019047  -0.025093  -0.002153   0.001185
     92      -0.035374  -0.000303  -0.014822   0.020302   0.001815  -0.000404
     93       0.090223  -0.002371  -0.012685  -0.038272  -0.000355   0.000337
     94      -0.062047   0.002848   0.026541   0.026675  -0.000716   0.000507
     95       0.043572  -0.002953  -0.032400  -0.020626   0.001178  -0.000991
     96      -0.004376   0.000149   0.001670  -0.003287  -0.000243   0.000173
     97       0.002750  -0.000009   0.000880   0.000967  -0.000098  -0.000029
     98      -0.002542  -0.000080  -0.003492   0.000035   0.000315  -0.000352
     99       0.000307  -0.000113  -0.003230   0.001105   0.000336  -0.000289
    100      -0.000353  -0.000111  -0.003078   0.001795   0.000315  -0.000309
    101      -0.000487   0.000011   0.001092  -0.001302  -0.000186   0.000115
    102       0.005254  -0.012207   0.008916  -0.001158  -0.014059  -0.017599
    103       0.002103  -0.003762   0.003326  -0.000495  -0.003527  -0.026319
    104      -0.002728  -0.003557  -0.005587   0.001056   0.000916   0.095418
    105      -0.004536  -0.007096  -0.005586   0.000794   0.009093  -0.013952
    106      -0.003157   0.007847   0.004692  -0.001577   0.014987  -0.267471
    107      -0.001096  -0.012030  -0.012027   0.002742  -0.008479   0.317387
    108       0.002884   0.017064   0.004277  -0.000953   0.008368  -0.159513
    109       0.001833  -0.015040   0.001153   0.000293  -0.013097   0.156253
    110      -0.003091   0.012079  -0.001927  -0.000172   0.012574  -0.124079
    111       0.000425   0.020874   0.002870  -0.001104   0.009651  -0.204526
    112      -0.000624  -0.029114  -0.003999   0.001425  -0.014983   0.253086
    113       0.004863   0.032369   0.009011  -0.001963   0.013125  -0.229290
    114      -0.001339  -0.008439  -0.004080   0.001004  -0.008943   0.195016
    115       0.002310  -0.000079   0.006786  -0.001317   0.001138  -0.209982
    116       0.006192   0.029982   0.003576  -0.000637   0.010329  -0.106771
    117       0.005605  -0.004057   0.002663   0.000165  -0.008498   0.110051
    118       0.000269   0.014031   0.005070  -0.001222   0.012254  -0.165654
    119      -0.003580   0.003066  -0.004293   0.000392   0.004560  -0.015041
    120       0.006477   0.015629   0.009302  -0.001487  -0.002184  -0.096231
    121       0.000922  -0.010350   0.002891  -0.000509  -0.007844   0.003002
    122      -0.003006  -0.002956  -0.006791   0.001210   0.002426   0.088764
    123      -0.000270   0.070235   0.002097  -0.001832   0.042826  -0.440054
    124      -0.000667   0.010447  -0.008749   0.001897   0.003773   0.172818
    125      -0.000566  -0.022729  -0.004317   0.001420  -0.013989   0.223393
    126      -0.001579   0.083404  -0.058666   0.008248   0.263411   0.028998
    127       0.009513   0.245429   0.038285  -0.006283   0.586654   0.131530
    128       0.002365  -0.018302   0.040824  -0.005833  -0.088659  -0.051799
    129      -0.002069  -0.085015  -0.004206   0.000535  -0.259744  -0.094345
    130      -0.003796  -0.232824   0.034551  -0.004171  -0.587051  -0.055474
    131       0.003971   0.043801   0.039985  -0.005758   0.073005  -0.004352
    132      -0.003005  -0.288686   0.088416  -0.011759   0.114962  -0.039368
    133      -0.004764  -0.549230   0.184701  -0.023328   0.214017  -0.030266
    134      -0.002110   0.049196  -0.043520   0.005256  -0.022388   0.034269
    135      -0.000883   0.285280  -0.138751   0.017249  -0.114153   0.060962
    136       0.009481   0.567964  -0.121150   0.013953  -0.224334   0.100885
    137      -0.003753  -0.117204   0.000944   0.000759   0.046690  -0.028644
    138      -0.003226   0.032545   0.003878  -0.005252   0.005883  -0.022963
    139      -0.008871  -0.048926  -0.142542   0.025657   0.005399   0.015167
    140      -0.026678   0.018095  -0.233673   0.027189   0.025429  -0.042559
    141       0.022518   0.014825   0.218836  -0.027853  -0.016275   0.019234
    142      -0.015873  -0.042692  -0.202273   0.030897  -0.000345   0.001071
    143       0.000023  -0.010533  -0.015476   0.003981  -0.003731   0.001364
    144       0.006457  -0.028532   0.039281  -0.001342  -0.008301   0.032531
    145      -0.029234  -0.030098  -0.277436   0.036510   0.015793  -0.026495
    146      -0.015343  -0.032701  -0.165079   0.024153   0.005491   0.001409
    147       0.012655  -0.052830  -0.021313   0.011639  -0.013725   0.043174
    148       0.053295   0.087857   0.580948  -0.082095  -0.022846   0.017084
    149      -0.014891  -0.045706  -0.195514   0.029740   0.003602   0.006336
    150       0.004254  -0.003224  -0.025259   0.004651   0.001325  -0.002695
    151      -0.002622   0.000196  -0.003913   0.000418   0.000175  -0.000338
    152      -0.000690   0.000272  -0.001946  -0.000315   0.000082  -0.000202
    153      -0.011795  -0.004829  -0.084882   0.011844   0.004531  -0.008161
    154      -0.002600   0.000016  -0.008158   0.001048   0.000370  -0.001316
    155      -0.000608   0.000205  -0.001799   0.000306   0.000084  -0.000421
    156      -0.241167   0.004877  -0.104295  -0.520984  -0.000562   0.005099
    157       0.173635  -0.003680   0.074387   0.375178   0.000550  -0.003021
    158      -0.118112   0.003546  -0.029352  -0.269574  -0.001756   0.004170
    159       0.167686  -0.000619   0.114540   0.439070   0.000418  -0.002493
    160      -0.116652   0.001677  -0.056225  -0.319020  -0.002074   0.002069
    161       0.092239   0.002012   0.103197   0.223183  -0.003335  -0.000148
    162       0.386098  -0.009622  -0.054800  -0.167169  -0.002059   0.000997
    163      -0.263412   0.011381   0.117388   0.114182  -0.003807   0.002092
    164       0.207096  -0.006533  -0.056519  -0.082495   0.001499   0.000158
    165      -0.544381   0.021414   0.181787   0.207244  -0.004046   0.003367
    166       0.406845  -0.013319  -0.090819  -0.150926   0.000370   0.000255
    167      -0.300745   0.009249   0.060124   0.111332   0.000019  -0.000177
    168      -0.008464   0.000278   0.001086   0.006073   0.000179  -0.000168
    169       0.000127   0.000046  -0.000187   0.002772   0.000166   0.000006
    170       0.003347  -0.000112   0.000021  -0.002944  -0.000141   0.000185
    171       0.009999  -0.000352  -0.004673  -0.001979   0.000258  -0.000567
    172      -0.007790   0.000108  -0.001532   0.003532   0.000252  -0.000465
    173       0.005240  -0.000168  -0.000269  -0.002406  -0.000081   0.000413
    174       0.002093  -0.000084  -0.002389  -0.001489   0.000222  -0.000091
    175       0.005482  -0.000205  -0.003287  -0.003549   0.000196  -0.000064
    176      -0.007539   0.000258   0.003372   0.002915  -0.000173   0.000242
                 84         85         86         87         88         89    
      0      -0.004013   0.159341   0.033721   0.000446  -0.031748   0.020302
      1      -0.007863  -0.001851  -0.000212   0.000123  -0.000159   0.001411
      2       0.014237  -0.056405  -0.010016  -0.000104   0.006383  -0.003347
      3       0.001917  -0.113041  -0.024787  -0.000332   0.025126  -0.016604
      4       0.019636  -0.110618  -0.021009  -0.000177   0.017628  -0.010198
      5      -0.018474   0.110309   0.021442   0.000263  -0.017457   0.010434
      6      -0.007116   0.037957   0.008790   0.000107  -0.010817   0.008687
      7      -0.002338   0.030047   0.005646  -0.000049  -0.005982   0.002937
      8       0.003179  -0.018048  -0.004168  -0.000157   0.002836  -0.002940
      9       0.000725   0.124428   0.029657   0.000800  -0.030187   0.021509
     10      -0.004411  -0.086736  -0.020994  -0.000512   0.022329  -0.015241
     11       0.003752   0.001161   0.000150  -0.000102  -0.000810  -0.000431
     12       0.024187  -0.129346  -0.022817   0.000044   0.016342  -0.006303
     13      -0.007338  -0.023951  -0.006174   0.000093   0.012419  -0.007975
     14      -0.010216   0.060542   0.011120   0.000162  -0.007439   0.004384
     15      -0.008598  -0.073432  -0.018217  -0.000380   0.021826  -0.016055
     16       0.005091   0.080487   0.017630   0.000159  -0.018948   0.011531
     17       0.011285  -0.110883  -0.022190  -0.000271   0.018446  -0.010886
     18      -0.003472   0.119324   0.025108   0.000579  -0.014848   0.009803
     19       0.008839  -0.064899  -0.013614  -0.000441   0.004850  -0.004131
     20      -0.005175  -0.014093  -0.002625  -0.000260   0.000419  -0.001596
     21      -0.010911  -0.000571  -0.015439  -0.003115   0.001544  -0.021523
     22       0.011000   0.006251   0.014039   0.004224   0.025723   0.008169
     23       0.015536   0.002778   0.040935   0.018789   0.196453  -0.022921
     24      -0.006943  -0.079359  -0.017290  -0.002994  -0.034760   0.009522
     25      -0.011483   0.019774   0.009001   0.000458  -0.005434   0.005758
     26       0.019931  -0.108919  -0.023851  -0.009516  -0.155112   0.056527
     27       0.027954  -0.008415   0.039796   0.010898   0.031625   0.052426
     28       0.038876   0.006493  -0.022607  -0.004977  -0.016254  -0.023604
     29      -0.023131   0.000308  -0.003180  -0.001516  -0.004361  -0.006860
     30      -0.005643  -0.042274  -0.011516   0.000000   0.018878  -0.011160
     31      -0.020464   0.036148   0.008098   0.000961   0.014093  -0.005785
     32       0.019037   0.125702   0.023258   0.009870   0.157052  -0.057264
     33      -0.006856  -0.000679  -0.030543  -0.009253  -0.058833  -0.016219
     34       0.008750  -0.001379   0.007861   0.001795   0.002388   0.009952
     35      -0.007637  -0.001375  -0.035744  -0.017019  -0.186741   0.027475
     36       0.000068  -0.012793   0.065584   0.013657   0.014367   0.070284
     37      -0.068683  -0.000563  -0.014853  -0.004887  -0.004568  -0.036377
     38      -0.043146  -0.001681   0.002813  -0.000457  -0.004339   0.004748
     39       0.216639   0.022405  -0.002006   0.002058  -0.018377   0.000664
     40      -0.063736  -0.022030   0.054909   0.013850   0.031010   0.085413
     41       0.073348   0.002800   0.000412   0.000281   0.001640  -0.032662
     42      -0.120030  -0.011492   0.000305  -0.000981   0.013531   0.003027
     43       0.052209   0.018192  -0.049963  -0.011913  -0.020638  -0.053697
     44      -0.064943  -0.005763   0.011121   0.003681   0.004748   0.068331
     45      -0.061624   0.005155  -0.050220  -0.012775  -0.006321  -0.040012
     46       0.018451  -0.020752   0.096541   0.023375   0.020858   0.088862
     47      -0.005559  -0.004946   0.012146   0.003398   0.005934  -0.016390
     48      -0.040297   0.020686  -0.083157  -0.021255  -0.031710  -0.102787
     49       0.038618  -0.005721   0.031171   0.009006   0.006512   0.009864
     50       0.014186  -0.001224   0.007975   0.000518  -0.001106   0.002122
     51      -0.120175   0.011574  -0.038765  -0.013825  -0.029443  -0.055426
     52       0.006950   0.002442  -0.011797  -0.002689  -0.002045  -0.002954
     53      -0.014207   0.003012  -0.006802  -0.001570  -0.001523  -0.009501
     54       0.004114  -0.019998  -0.003734  -0.000010   0.003870  -0.002205
     55      -0.002779   0.051530   0.010419   0.000055  -0.010345   0.005574
     56       0.000415  -0.035229  -0.007281  -0.000070   0.006711  -0.003684
     57       0.033663  -0.001368   0.009239   0.004474   0.006389   0.011976
     58      -0.001920   0.005726  -0.032964  -0.007085  -0.006500  -0.023025
     59       0.004621   0.003177  -0.017874  -0.003773  -0.002831  -0.012324
     60      -0.015661  -0.007428   0.019714   0.004660   0.008333   0.028228
     61       0.036861  -0.009924   0.064161   0.016947   0.008357   0.045481
     62       0.013250  -0.005292   0.031811   0.006472   0.004212   0.028723
     63       0.089739  -0.019467   0.101293   0.023260   0.028276   0.108804
     64      -0.015244   0.002663   0.001523   0.005729  -0.010998  -0.017054
     65       0.003204  -0.000562   0.008925   0.006316  -0.001364   0.003525
     66       0.028802   0.013416  -0.051313  -0.009340  -0.013090  -0.063374
     67       0.013687   0.017129  -0.072876  -0.024392  -0.015630  -0.070379
     68       0.005910   0.007594  -0.032683  -0.004753  -0.007492  -0.033596
     69       0.001670   0.009596  -0.048842   0.000311  -0.004919  -0.027057
     70       0.012225   0.026428  -0.132461  -0.009332  -0.014583  -0.086320
     71       0.002144   0.009462  -0.046466  -0.013136  -0.005178  -0.028293
     72      -0.007629   0.002052  -0.012775  -0.004758  -0.002934  -0.013854
     73      -0.004896   0.000280  -0.003863   0.000113   0.000392   0.001637
     74      -0.001300   0.000430  -0.003497  -0.001167   0.000014  -0.003044
     75       0.024775  -0.003978   0.029016   0.009275   0.004979   0.023904
     76      -0.004497   0.000364  -0.004995  -0.000985   0.001423   0.001318
     77      -0.000577  -0.000097  -0.000287   0.000168   0.000751   0.001932
     78      -0.007725   0.001505  -0.010375  -0.003755  -0.002155  -0.009755
     79      -0.009057   0.002837  -0.018331  -0.005934  -0.002912  -0.015601
     80      -0.003542   0.000982  -0.006396  -0.001934  -0.001101  -0.005051
     81       0.004599  -0.005208   0.052856  -0.188418  -0.009352  -0.040122
     82      -0.000933  -0.000760   0.006352  -0.143206   0.006416   0.009341
     83      -0.002483   0.010678  -0.095373   0.158953   0.022831   0.072941
     84       0.001597   0.014748  -0.099120   0.042773   0.014902   0.035642
     85      -0.004238  -0.006718   0.030231   0.004140   0.005657   0.026939
     86      -0.010383  -0.036785   0.225170  -0.074293  -0.019434  -0.028071
     87      -0.001693  -0.003553   0.025597   0.078023  -0.010773  -0.024004
     88      -0.003232  -0.006503   0.048216   0.138814  -0.020136  -0.045359
     89      -0.002051  -0.001855   0.013897   0.041635  -0.005805  -0.012062
     90      -0.009167  -0.025406   0.151706  -0.064191  -0.009078  -0.005189
     91      -0.009152  -0.016069   0.084632  -0.016541   0.003043   0.028085
     92       0.004561   0.025567  -0.167704   0.099303   0.020577   0.046656
     93      -0.002899   0.006261  -0.057618   0.088568   0.014982   0.048000
     94      -0.001995   0.000261  -0.005912  -0.037649   0.005812   0.014979
     95       0.005167  -0.009724   0.091695  -0.217550  -0.021277  -0.077457
     96      -0.001746  -0.010399   0.071679   0.237631  -0.029692  -0.064535
     97      -0.000264  -0.007396   0.051787   0.196659  -0.023786  -0.052609
     98       0.002877   0.009194  -0.062322  -0.174087   0.022689   0.048011
     99       0.002660   0.011405  -0.077353  -0.251514   0.030576   0.064805
    100       0.002605   0.008772  -0.058027  -0.207362   0.023057   0.046875
    101      -0.001405  -0.009224   0.064427   0.184370  -0.025319  -0.056311
    102       0.001239  -0.048286  -0.007892  -0.000192  -0.002004   0.003184
    103      -0.014269   0.152688   0.029174  -0.000490  -0.035465   0.018645
    104       0.016413  -0.066530  -0.011005   0.000597   0.016695  -0.007296
    105      -0.021981   0.314397   0.063604   0.000815  -0.052992   0.033146
    106      -0.038843   0.153172   0.030314   0.000777  -0.020845   0.017372
    107       0.032487   0.018416   0.003305  -0.000523  -0.005550  -0.002781
    108      -0.023514   0.071015   0.014583   0.000901  -0.005429   0.007172
    109       0.011530   0.089139   0.018385  -0.000660  -0.027889   0.013904
    110      -0.010181  -0.035284  -0.007643   0.000409   0.014266  -0.007297
    111      -0.015033  -0.185237  -0.043621  -0.001213   0.038277  -0.028486
    112       0.029371   0.019011   0.009103   0.000733  -0.006917   0.008372
    113      -0.045893   0.295027   0.056877   0.000210  -0.053954   0.031063
    114       0.036988  -0.204580  -0.038060  -0.000232   0.029199  -0.013428
    115      -0.038736   0.191078   0.036196   0.000364  -0.027000   0.012169
    116      -0.033935   0.279312   0.052608  -0.000264  -0.050787   0.024473
    117       0.002537   0.159172   0.032844   0.000061  -0.035773   0.020815
    118      -0.022345  -0.024678  -0.008509  -0.000626   0.009561  -0.010752
    119       0.004776  -0.039378  -0.006924   0.000519   0.011489  -0.003350
    120      -0.018402   0.038031   0.002297  -0.001215  -0.007360  -0.004639
    121       0.018073  -0.269740  -0.055846  -0.000729   0.050529  -0.031715
    122       0.006943   0.082450   0.019757   0.000753  -0.016569   0.014169
    123      -0.050183  -0.006357  -0.010333   0.000071   0.031449  -0.026806
    124      -0.003379   0.383402   0.082439   0.001238  -0.078640   0.050840
    125       0.016984   0.141355   0.033822   0.000562  -0.038662   0.028069
    126      -0.046316  -0.017677  -0.016054   0.012182   0.304838  -0.144600
    127      -0.002725  -0.022523   0.014278   0.000084  -0.057751   0.044073
    128       0.009093  -0.001592   0.041268   0.025882   0.329651  -0.074622
    129       0.018203  -0.065718  -0.036009   0.005824   0.200522  -0.109184
    130       0.085170   0.031163  -0.008161  -0.006244  -0.126974   0.053328
    131       0.023614  -0.125005  -0.012636  -0.016974  -0.354827   0.158134
    132       0.096965  -0.023652  -0.033830   0.009527   0.280027  -0.151286
    133       0.112628   0.030009   0.015548  -0.002076  -0.119689   0.076036
    134       0.014188   0.140272   0.012951   0.013573   0.282326  -0.129981
    135      -0.010127   0.004678  -0.030277   0.002529   0.158678  -0.101613
    136      -0.040547   0.014517   0.016398  -0.006235  -0.156914   0.074221
    137      -0.014555   0.007420  -0.034576  -0.027811  -0.382151   0.101777
    138       0.299611   0.049269  -0.075099  -0.014503  -0.044990  -0.082806
    139      -0.323474  -0.085072   0.197090   0.044003   0.089379   0.220980
    140       0.362762   0.000592   0.132700   0.038852   0.019522   0.222192
    141      -0.105688   0.011527  -0.088102  -0.025401  -0.021210  -0.175398
    142      -0.163244  -0.032951   0.050331   0.010556   0.038461   0.035034
    143      -0.063723  -0.004512  -0.027121  -0.009262   0.003717  -0.106676
    144      -0.372215  -0.033545  -0.013839  -0.009775   0.030076  -0.039220
    145       0.156533   0.017020  -0.036285  -0.010813  -0.010642  -0.162817
    146      -0.112100  -0.017273   0.013269   0.000092   0.019934  -0.032120
    147      -0.484653  -0.079918   0.182334   0.042413   0.068859   0.295755
    148       0.102414   0.032447  -0.061459  -0.011132  -0.036666   0.042709
    149      -0.170059  -0.030282   0.055343   0.011257   0.028801   0.041215
    150       0.013212  -0.002707   0.016763   0.008930   0.011646   0.035928
    151       0.003263  -0.000413   0.002770  -0.000747  -0.002725  -0.006228
    152       0.001886  -0.000705   0.004328   0.000805  -0.000473   0.000966
    153       0.055270  -0.010695   0.076587   0.019995   0.003692   0.040218
    154       0.009783  -0.002727   0.016631   0.003945   0.000730   0.008475
    155       0.003472  -0.001337   0.008387   0.001686   0.000344   0.004512
    156      -0.012676  -0.004242   0.026107  -0.173596   0.005159   0.011169
    157       0.004754   0.018338  -0.145310  -0.075675   0.055753   0.158201
    158      -0.019355   0.027911  -0.263831   0.265741   0.089160   0.287129
    159       0.006605   0.039375  -0.307518   0.152850   0.077745   0.220513
    160      -0.008497   0.023687  -0.237327   0.156053   0.087658   0.269198
    161      -0.008074  -0.043125   0.277194  -0.090275  -0.033313  -0.066526
    162      -0.009393  -0.023419   0.132373  -0.046495  -0.002005   0.017249
    163      -0.012640   0.005059  -0.101700   0.122905   0.059316   0.200637
    164       0.002136   0.049876  -0.375411   0.237173   0.081083   0.228975
    165      -0.014372   0.014525  -0.161373   0.254819   0.063786   0.222300
    166      -0.006943   0.017050  -0.162921   0.153939   0.060523   0.196143
    167       0.004716  -0.012139   0.114310  -0.250869  -0.028900  -0.101806
    168       0.001934   0.006811  -0.048638  -0.110807   0.017797   0.040946
    169       0.000873   0.007858  -0.057179  -0.096419   0.019899   0.048594
    170      -0.001705  -0.006310   0.043878   0.139047  -0.017774  -0.038529
    171       0.003939   0.005865  -0.037840  -0.169025   0.015913   0.028838
    172       0.003370   0.005529  -0.035174  -0.156199   0.014519   0.026213
    173      -0.002799  -0.003491   0.023521   0.101014  -0.010227  -0.019042
    174       0.001531   0.009401  -0.067401  -0.149805   0.024890   0.058118
    175       0.001232   0.006061  -0.044220  -0.069361   0.015009   0.036637
    176      -0.001985  -0.004979   0.034293   0.118790  -0.014152  -0.029656
                 90         91         92         93         94         95    
      0       0.006870   0.032562  -0.002135   0.016105   0.019219  -0.002055
      1       0.004404   0.103160   0.002448  -0.002844   0.067099  -0.000592
      2      -0.002239  -0.061780  -0.002223   0.009992   0.096285  -0.000716
      3      -0.004108   0.039243   0.004413  -0.024214  -0.045430   0.002275
      4      -0.004389  -0.057335  -0.000624  -0.001631  -0.056379   0.000561
      5       0.003721   0.039072   0.000273  -0.000242  -0.108013  -0.000212
      6       0.004350   0.003876  -0.002905   0.024415   0.026232  -0.003753
      7       0.001036   0.014804   0.000388  -0.001403   0.059197   0.000421
      8      -0.001297   0.000721   0.000733  -0.005025   0.078411   0.000388
      9       0.005704  -0.037515  -0.004658   0.018147  -0.015540   0.000504
     10      -0.004664  -0.019299   0.000163   0.009683  -0.033382  -0.005989
     11      -0.000094   0.032190   0.002824  -0.022601  -0.019786   0.005757
     12       0.002572   0.072904   0.001039   0.007247   0.037842  -0.002473
     13      -0.004137  -0.032708   0.001561  -0.018632   0.082702   0.004813
     14       0.000490  -0.032193  -0.002644   0.018463   0.057250  -0.003448
     15      -0.009135  -0.105949   0.000226  -0.014353  -0.022292   0.002770
     16       0.002415  -0.021059  -0.002373   0.011398  -0.067806  -0.001267
     17      -0.001384   0.043646   0.002675  -0.010910  -0.090136   0.000125
     18       0.000033  -0.022409   0.000442  -0.013612  -0.006566   0.003840
     19      -0.000217   0.028937   0.000787  -0.000221   0.003576   0.000051
     20       0.000197   0.011200   0.002775  -0.026021   0.005616   0.004954
     21      -0.014118  -0.002414   0.009366  -0.060525   0.003108   0.003844
     22       0.007868  -0.003686  -0.006296   0.040298  -0.002085  -0.002521
     23       0.008726   0.002772  -0.010637   0.075328  -0.004487  -0.003796
     24       0.004644   0.008982  -0.002854   0.028170  -0.001453  -0.006198
     25       0.001838  -0.003605   0.000562  -0.011797   0.000999   0.002594
     26       0.015706   0.007727  -0.008722   0.057149  -0.001198  -0.003184
     27       0.037827   0.001961  -0.024937   0.153451  -0.001774   0.002500
     28      -0.021246   0.001071   0.008199  -0.045681   0.001122  -0.000989
     29      -0.005408   0.002508   0.008031  -0.064575   0.005429   0.005034
     30      -0.001488   0.011125   0.001469  -0.009930   0.005543   0.003924
     31       0.000175  -0.007259   0.001162  -0.006809  -0.003387  -0.001924
     32      -0.015886  -0.015263   0.002485  -0.001754  -0.005062  -0.003768
     33      -0.013750  -0.005626   0.007392  -0.030051  -0.002894  -0.006298
     34       0.005396  -0.002757  -0.002821   0.011303   0.000391   0.001817
     35      -0.004230  -0.014806   0.004318  -0.024217  -0.003256  -0.003204
     36       0.037567  -0.002690  -0.015706   0.033480  -0.000432   0.004544
     37       0.012571   0.000188   0.018093  -0.164959   0.005245   0.004837
     38      -0.038420   0.000366   0.019160  -0.127074   0.003666   0.003432
     39      -0.066214   0.000223   0.009182  -0.075050   0.001201  -0.000857
     40      -0.107413   0.003579  -0.004918   0.136299  -0.003729  -0.005157
     41       0.120375  -0.003174  -0.025405   0.059656  -0.002592  -0.000957
     42       0.016157   0.000354   0.001451   0.045266  -0.001043  -0.000703
     43       0.084327  -0.003082   0.008183  -0.055036   0.001399   0.001612
     44      -0.159463   0.003876   0.023725   0.006963   0.000408  -0.001208
     45      -0.026713   0.003223  -0.007960   0.109202  -0.001158   0.001380
     46       0.003221  -0.001696  -0.018370  -0.039884   0.000177   0.001844
     47       0.100302  -0.002433  -0.019589   0.028021  -0.001033   0.000670
     48      -0.032210   0.001223   0.006614  -0.030608   0.000402   0.000148
     49       0.019129   0.000315  -0.030828   0.056016  -0.001456   0.002063
     50      -0.015436   0.000863  -0.009379   0.012449  -0.000245   0.001012
     51       0.010353  -0.004464   0.032764  -0.154461   0.000647  -0.004246
     52      -0.006283   0.000470   0.000050   0.020398  -0.000644  -0.000293
     53       0.006061  -0.000904   0.002528  -0.006189  -0.000497  -0.001424
     54      -0.000839  -0.004877   0.000364  -0.003716  -0.001621   0.000795
     55       0.001367   0.012129   0.000311  -0.004624  -0.008278   0.001525
     56      -0.000840  -0.009456  -0.000458   0.005323  -0.013961  -0.001591
     57       0.001418   0.000589  -0.009273   0.045181  -0.000773  -0.000569
     58      -0.003278   0.000685   0.002046   0.045107  -0.000944  -0.001867
     59      -0.001316   0.000484   0.000090   0.030026  -0.000655  -0.001265
     60       0.002214   0.000746  -0.028912   0.043573  -0.000548   0.001391
     61       0.032168  -0.003394  -0.001078  -0.096717   0.000549  -0.006841
     62      -0.003389  -0.000926  -0.002601  -0.040381   0.000350  -0.001899
     63       0.035687  -0.003118   0.024263  -0.034952   0.000618   0.015220
     64       0.012341  -0.002683   0.043265  -0.072728   0.000267  -0.018372
     65       0.008219  -0.001348   0.018799  -0.031146   0.000118  -0.006432
     66      -0.022335   0.002099   0.001742   0.008638  -0.000068  -0.014061
     67      -0.041974   0.003900  -0.001553   0.068963   0.000304   0.016584
     68      -0.017757   0.001748  -0.001024   0.030020   0.000110  -0.002810
     69      -0.022263   0.002084   0.006992   0.041161   0.000271  -0.017136
     70      -0.057115   0.005874   0.005111   0.113411   0.000300   0.006023
     71      -0.021718   0.002009   0.008317   0.040111   0.000324   0.040497
     72      -0.015362   0.002087  -0.064112   0.013685  -0.000169   0.002631
     73      -0.001320  -0.000075   0.002154  -0.007639   0.000132  -0.001097
     74       0.004747  -0.000035  -0.002339   0.000721  -0.000018   0.000167
     75       0.029499  -0.004141   0.141386  -0.013299   0.000240  -0.003320
     76       0.010398  -0.001726   0.127581   0.058950  -0.000328   0.001379
     77       0.004374  -0.000782   0.051170   0.019858  -0.000097   0.000318
     78      -0.015645   0.002428  -0.110478  -0.017167   0.000028   0.001512
     79      -0.017832   0.002693  -0.099070   0.001601  -0.000085   0.003182
     80      -0.008390   0.001071  -0.039528  -0.001211  -0.000010   0.001053
     81      -0.012620   0.001037   0.002675   0.015363   0.000065   0.032602
     82       0.000732  -0.000044   0.001293   0.001702   0.000060   0.051263
     83       0.020364  -0.001554  -0.004453  -0.020171  -0.000158   0.007501
     84       0.003937  -0.000161  -0.000355   0.001278   0.000041  -0.007791
     85       0.015655  -0.001511  -0.001880  -0.027350  -0.000095  -0.050506
     86       0.014315  -0.001736  -0.002627  -0.039244  -0.000190  -0.053245
     87      -0.004634   0.000324   0.000329   0.002295  -0.000044  -0.014397
     88      -0.008297   0.000534   0.001813   0.002846  -0.000095   0.011252
     89      -0.001782   0.000031   0.002027  -0.001432  -0.000006   0.042204
     90       0.015002  -0.001714  -0.000615  -0.034124  -0.000108   0.038902
     91       0.022078  -0.002207  -0.001812  -0.038917  -0.000101   0.052649
     92       0.001384   0.000226  -0.000742   0.011128   0.000065  -0.002147
     93       0.013761  -0.001076  -0.001288  -0.013430  -0.000043   0.000178
     94       0.002589  -0.000193   0.000858   0.000082   0.000024  -0.043016
     95      -0.023659   0.002054   0.000571   0.029595   0.000042  -0.057635
     96      -0.014071   0.001113   0.000711   0.015058   0.000052   0.003230
     97      -0.012728   0.001061   0.000353   0.015612   0.000068   0.001405
     98       0.008755  -0.000620  -0.000903  -0.006578   0.000005  -0.004153
     99       0.012864  -0.000974  -0.000775  -0.011900  -0.000030  -0.003850
    100       0.008349  -0.000593  -0.000664  -0.006380  -0.000024  -0.019007
    101      -0.012394   0.000988   0.000467   0.013187   0.000030  -0.017860
    102       0.007689   0.151241   0.002651   0.004566   0.192296  -0.001428
    103       0.008802   0.145599   0.003175  -0.007850  -0.317648  -0.000119
    104      -0.005712  -0.145835  -0.004878   0.018219   0.269225  -0.001274
    105       0.011849   0.110916  -0.000184   0.007255  -0.159351  -0.000276
    106       0.017542   0.359715   0.008497  -0.015733   0.000459   0.001809
    107      -0.015774  -0.379540  -0.009723   0.016090  -0.214971  -0.001515
    108       0.009398   0.197461   0.004199  -0.004670   0.432149   0.000301
    109      -0.001264  -0.155370  -0.006940   0.029435  -0.184040  -0.003015
    110       0.000141   0.079379   0.004140  -0.021379  -0.085879   0.002136
    111      -0.004150   0.191153   0.013323  -0.070966  -0.261047   0.010076
    112      -0.001668  -0.185437  -0.009800   0.049662   0.227006  -0.007587
    113       0.012396   0.135005   0.000607   0.007734   0.077096  -0.000085
    114       0.003440   0.154941   0.004209   0.000408  -0.021357  -0.002622
    115      -0.005446  -0.195886  -0.004240  -0.011954   0.050028   0.006296
    116       0.001428  -0.073503  -0.002873   0.001615  -0.277358   0.000730
    117       0.006612   0.041434  -0.002097   0.020339  -0.198824  -0.004470
    118      -0.009781  -0.134442   0.001325  -0.036566  -0.085513   0.007661
    119       0.001868   0.027431  -0.001381   0.021149   0.222599  -0.003561
    120      -0.012750  -0.257016  -0.003520  -0.015591  -0.052078   0.007946
    121      -0.009257  -0.001277   0.004903  -0.030965  -0.253398   0.002217
    122       0.008577   0.100791  -0.000742   0.020103   0.058681  -0.004855
    123      -0.026019  -0.478654  -0.009030   0.002888   0.151834  -0.000864
    124       0.015461   0.018526  -0.007609   0.047649   0.140612  -0.003868
    125       0.015736   0.195738   0.000739   0.017472   0.047034  -0.001326
    126      -0.051836   0.039301   0.035802  -0.253055   0.033333   0.032360
    127       0.025146   0.010737  -0.014623   0.103189  -0.013750  -0.010639
    128      -0.007738   0.013564  -0.000439   0.001019   0.008594   0.007373
    129      -0.042939   0.009337   0.015762  -0.033145  -0.016494  -0.036530
    130       0.009614  -0.002845  -0.011338   0.062941   0.006093   0.016833
    131       0.054849   0.008496  -0.026800   0.131334   0.010433   0.021188
    132      -0.058624   0.038579   0.034012  -0.233826   0.032579   0.027468
    133       0.005320  -0.019621  -0.020247   0.159079  -0.017886  -0.016449
    134      -0.039014  -0.004206   0.020260  -0.127265   0.007321   0.007409
    135      -0.035842   0.039838   0.010364   0.009572  -0.021364  -0.030588
    136       0.026148  -0.010724  -0.003756  -0.031665   0.015209   0.022303
    137       0.014704  -0.051607   0.002413  -0.063215   0.011615   0.017686
    138      -0.091652   0.001294   0.037849  -0.172560   0.002961  -0.006010
    139       0.085407  -0.001883  -0.081532   0.363402  -0.007892   0.007924
    140      -0.408144   0.008519   0.013270   0.035467  -0.001305  -0.003470
    141       0.389316  -0.009179  -0.025543  -0.045657   0.001485   0.005782
    142       0.067539  -0.000029  -0.029153   0.104059  -0.002529   0.002790
    143       0.327932  -0.007455  -0.044714   0.042725  -0.001613   0.004924
    144       0.255861  -0.005419  -0.010897   0.223893  -0.006333  -0.009204
    145       0.389728  -0.009922  -0.048394  -0.042340  -0.000301   0.004342
    146       0.178754  -0.003870  -0.023718   0.103942  -0.003407  -0.003181
    147      -0.267452   0.001763   0.049601  -0.238213   0.005995   0.006798
    148      -0.240351   0.004624   0.053951  -0.050614   0.002221  -0.002099
    149       0.066537  -0.002520  -0.006898  -0.044866   0.000843   0.003097
    150       0.091387  -0.014150   0.771836   0.218359  -0.000990  -0.001125
    151      -0.026809   0.004385  -0.260316  -0.085117   0.000444  -0.000002
    152      -0.010108   0.001356  -0.086102  -0.032564   0.000175  -0.000450
    153      -0.008876   0.002945  -0.443308  -0.298059   0.001777  -0.010655
    154      -0.009144   0.001858  -0.159809  -0.077362   0.000409  -0.001997
    155      -0.002887   0.000537  -0.055970  -0.031287   0.000169  -0.000960
    156       0.003094  -0.000485   0.005450  -0.008283   0.000288   0.087020
    157       0.058391  -0.005513  -0.006603  -0.102293  -0.000739   0.365233
    158       0.100494  -0.009195  -0.009913  -0.158683  -0.000723   0.361195
    159       0.056551  -0.004282  -0.014209  -0.055804  -0.000107  -0.347436
    160       0.084602  -0.006770  -0.020400  -0.098501  -0.000228  -0.475366
    161       0.004997  -0.001102  -0.000059  -0.032402  -0.000201   0.002183
    162       0.023658  -0.002445  -0.000794  -0.045001  -0.000113   0.075354
    163       0.070485  -0.006201  -0.006528  -0.089288   0.000039   0.285681
    164       0.052955  -0.003976  -0.005089  -0.041674   0.000200   0.240031
    165       0.079225  -0.007477  -0.006402  -0.132328  -0.000327  -0.235811
    166       0.077909  -0.007074  -0.013500  -0.135264  -0.000648  -0.353460
    167      -0.036828   0.003163   0.004821   0.052820   0.000228  -0.018099
    168       0.008498  -0.000655  -0.000653  -0.007200   0.000061   0.024421
    169       0.011831  -0.000995  -0.000026  -0.013859   0.000036   0.068379
    170      -0.007717   0.000576   0.000710   0.006503   0.000001   0.004439
    171       0.002432   0.000006  -0.001904   0.005071   0.000025  -0.077269
    172       0.002444  -0.000034  -0.001441   0.003237   0.000007  -0.058318
    173      -0.001504  -0.000047   0.001858  -0.004713  -0.000019   0.061878
    174       0.013468  -0.001093  -0.000471  -0.014617   0.000023   0.050499
    175       0.008700  -0.000705  -0.000308  -0.009137   0.000052   0.051061
    176      -0.005443   0.000360   0.000976   0.003073  -0.000006   0.016769
                 96         97         98         99        100        101    
      0      -0.024138  -0.056209  -0.009722  -0.000047  -0.011902  -0.020727
      1      -0.006929  -0.008221  -0.003011  -0.000042  -0.033572  -0.065042
      2      -0.006903   0.000821   0.000675   0.000032   0.039581   0.078326
      3       0.025897   0.060614   0.009799   0.000029  -0.031743  -0.064131
      4       0.006826   0.016337   0.004374   0.000064   0.030909   0.060300
      5      -0.003959  -0.029061  -0.004183  -0.000022  -0.017125  -0.032236
      6      -0.043671  -0.115512  -0.021285  -0.000073   0.057196   0.117833
      7       0.005356   0.017654   0.001950  -0.000003  -0.013614  -0.028799
      8       0.004737   0.023394   0.002384  -0.000043  -0.048795  -0.096818
      9       0.005793  -0.013130   0.001298   0.000054  -0.015071  -0.034507
     10      -0.071337  -0.144823  -0.030271  -0.000228  -0.007501  -0.000100
     11       0.068736   0.155498   0.028934   0.000185   0.005588  -0.002396
     12      -0.028524  -0.047663  -0.008985  -0.000060  -0.017184  -0.029731
     13       0.058100   0.156270   0.032201   0.000248   0.031412   0.053786
     14      -0.039385  -0.052077  -0.006861  -0.000006   0.036956   0.080605
     15       0.032630   0.069983   0.012523   0.000100   0.023992   0.042372
     16      -0.015388  -0.048535  -0.008428  -0.000028   0.004066   0.009629
     17       0.000047  -0.015882  -0.004709  -0.000057  -0.035289  -0.069017
     18       0.045479   0.095811   0.013589   0.000038  -0.018912  -0.045724
     19       0.000891  -0.007364  -0.001734   0.000008   0.006540   0.010364
     20       0.054513  -0.008120  -0.009324  -0.000069   0.000869  -0.002211
     21       0.040481  -0.039072  -0.026821  -0.000267   0.003690   0.003862
     22      -0.027166   0.007789   0.014709   0.000172  -0.001465  -0.000981
     23      -0.038022  -0.007394   0.017204   0.000267   0.013653   0.005697
     24      -0.072341   0.002942   0.025872   0.000283  -0.006924   0.012691
     25       0.028951  -0.006429  -0.007327  -0.000070   0.000702  -0.003709
     26      -0.030155  -0.014618  -0.005679  -0.000042   0.017844   0.009099
     27       0.039660  -0.014980   0.028750   0.000602   0.037602  -0.006618
     28      -0.008201   0.012504  -0.031015  -0.000482  -0.004452  -0.002822
     29       0.045617  -0.023980   0.003898   0.000084  -0.023900   0.005885
     30       0.046202  -0.041532  -0.024687  -0.000192   0.018122   0.010861
     31      -0.024536   0.021045   0.013840   0.000115  -0.011681  -0.005296
     32      -0.037864   0.050796   0.004550  -0.000064  -0.004766  -0.016401
     33      -0.071925   0.046174   0.009712  -0.000037  -0.016751  -0.004474
     34       0.020337  -0.027239  -0.005093   0.000016   0.006371   0.004885
     35      -0.037691   0.008551  -0.005931  -0.000166  -0.007034   0.004169
     36       0.025912  -0.016341   0.078943   0.001034  -0.061143   0.009638
     37       0.007093  -0.046854   0.100894   0.001325  -0.080788   0.035827
     38       0.002801  -0.034858   0.087911   0.001143  -0.070927   0.026959
     39      -0.008736   0.000076   0.001814   0.000032  -0.018064   0.006312
     40      -0.009045   0.037337  -0.109524  -0.001405   0.102770  -0.034638
     41      -0.005871   0.012786  -0.015232  -0.000213   0.019290  -0.007634
     42      -0.002313   0.005413  -0.013393  -0.000169   0.073566  -0.022204
     43       0.002937  -0.021551   0.084589   0.001171   0.035127  -0.012423
     44      -0.002528   0.000152  -0.001612   0.000027   0.027701  -0.007703
     45       0.019486   0.013788  -0.067829  -0.000955  -0.156801   0.046928
     46       0.002938  -0.000540  -0.005442  -0.000216  -0.092136   0.028850
     47       0.005974   0.008033  -0.028928  -0.000466  -0.026543   0.006196
     48      -0.021994   0.025297  -0.095270  -0.001449  -0.041570   0.013956
     49       0.009926   0.021313  -0.088213  -0.001350  -0.137211   0.041244
     50       0.002540   0.008374  -0.038793  -0.000601  -0.063092   0.019859
     51      -0.044069   0.019164  -0.049089  -0.000862   0.038880  -0.009722
     52       0.000194   0.001666  -0.005762  -0.000077   0.017365  -0.004246
     53      -0.009007   0.009370  -0.020800  -0.000319   0.015771  -0.005769
     54       0.009577   0.028838   0.005987   0.000039  -0.002688  -0.006457
     55       0.017892   0.034693   0.007020   0.000050  -0.005784  -0.014170
     56      -0.018657  -0.039043  -0.007257  -0.000046   0.010093   0.022977
     57       0.006948   0.003029  -0.011430  -0.000113  -0.000627  -0.000624
     58      -0.004700   0.011053  -0.023805  -0.000282   0.048238  -0.017204
     59      -0.001990   0.005917  -0.012678  -0.000136   0.025846  -0.009018
     60       0.019110  -0.003148   0.000887  -0.000034  -0.138280   0.041399
     61      -0.021880   0.004766  -0.006879   0.000010   0.102695  -0.030046
     62      -0.006981   0.000091   0.001862   0.000067   0.022106  -0.006037
     63       0.009017  -0.031579   0.127394   0.001349   0.070331  -0.023197
     64      -0.030022   0.024447  -0.084114  -0.000669   0.067839  -0.018155
     65      -0.011432   0.007476  -0.023788  -0.000160   0.034661  -0.009712
     66      -0.014023   0.016879  -0.068593  -0.000400   0.085261  -0.022465
     67       0.020582  -0.019867   0.065942   0.000650  -0.040263   0.010954
     68       0.008943  -0.007199   0.022518   0.000171  -0.011647   0.003265
     69       0.015855  -0.018338   0.066158   0.000727   0.029438  -0.009887
     70       0.029700  -0.034887   0.124329   0.001711   0.063564  -0.021084
     71       0.009724  -0.020325   0.076718   0.000868   0.030079  -0.010619
     72       0.008000  -0.002419   0.003850  -0.000038  -0.064663   0.019774
     73      -0.003701   0.000195   0.001836   0.000078   0.039592  -0.012202
     74      -0.000517   0.000029   0.000741   0.000022   0.011618  -0.003704
     75      -0.009889   0.002789  -0.004827   0.000014   0.063702  -0.019189
     76       0.010306  -0.001055  -0.001696  -0.000087  -0.062390   0.018642
     77       0.003167  -0.000298  -0.000623  -0.000028  -0.019013   0.005678
     78       0.000173  -0.001418   0.005755   0.000048   0.005655  -0.001787
     79       0.004448  -0.002362   0.007299   0.000024  -0.016936   0.004856
     80       0.001448  -0.001003   0.003187   0.000006  -0.005732   0.001676
     81      -0.000605  -0.003853   0.015052   0.001083   0.008758  -0.003123
     82      -0.005207  -0.000895   0.003595  -0.000768   0.005580  -0.001527
     83      -0.006602   0.007915  -0.030990  -0.000013  -0.006762   0.003473
     84       0.002628  -0.003115   0.013257   0.001662   0.005863  -0.002510
     85      -0.000533   0.005949  -0.019250  -0.001187  -0.009225   0.002509
     86      -0.005700   0.014083  -0.051993   0.000148  -0.022818   0.007990
     87       0.000728   0.001971  -0.009691  -0.001046  -0.001895   0.001394
     88      -0.004085   0.004457  -0.019378   0.000584  -0.000241   0.001513
     89      -0.006475   0.001681  -0.005500  -0.000635   0.002148  -0.000381
     90      -0.014303   0.011119  -0.037720  -0.000349  -0.014985   0.004784
     91      -0.015840   0.010485  -0.032999  -0.000534  -0.014765   0.003947
     92       0.004887  -0.005882   0.023082   0.000573   0.009187  -0.003834
     93      -0.002255   0.001972  -0.007371  -0.000509  -0.002667   0.001442
     94       0.006989  -0.003096   0.009651   0.000206   0.000044   0.000416
     95       0.012975  -0.006338   0.021068   0.000179   0.007387  -0.002715
     96       0.003409  -0.004343   0.016747  -0.045327   0.003805  -0.001657
     97       0.004361  -0.005356   0.020069   0.033180   0.004824  -0.002459
     98      -0.000291   0.000381   0.000078  -0.025305  -0.000149  -0.000248
     99      -0.002205   0.003138  -0.013186   0.102192  -0.002964   0.001222
    100       0.001145   0.001118  -0.004114  -0.073705  -0.002396   0.001341
    101       0.005242  -0.003171   0.009252   0.056574   0.001245  -0.000345
    102      -0.014459   0.018625   0.004789   0.000044   0.010510   0.024105
    103      -0.003313  -0.003684   0.006032   0.000102  -0.004104  -0.002890
    104      -0.013317  -0.035884  -0.011859  -0.000105   0.008604   0.014276
    105      -0.003473  -0.023655  -0.002729   0.000041   0.043757   0.086231
    106       0.023910   0.074486   0.012076   0.000135   0.110985   0.214975
    107      -0.022085  -0.097075  -0.014877  -0.000120  -0.110867  -0.214930
    108       0.005661   0.026029  -0.005030  -0.000173  -0.107879  -0.219288
    109      -0.034979  -0.072591  -0.005604   0.000116   0.125902   0.255544
    110       0.023112   0.027797   0.003338  -0.000034  -0.068106  -0.136905
    111       0.119452   0.319740   0.064115   0.000471   0.101460   0.189784
    112      -0.089909  -0.237512  -0.049159  -0.000374  -0.095017  -0.179666
    113       0.000801   0.032154   0.007783   0.000068   0.027860   0.053545
    114      -0.029277  -0.064674  -0.019868  -0.000141   0.051340   0.101626
    115       0.071855   0.155318   0.040831   0.000299  -0.100114  -0.202983
    116       0.004940  -0.105011  -0.028396  -0.000192   0.017518   0.030053
    117      -0.053395  -0.099071  -0.013674  -0.000034   0.013621   0.035884
    118       0.084907  -0.004092  -0.022094  -0.000288  -0.095495  -0.209721
    119      -0.037005   0.056777   0.023860   0.000269   0.090487   0.189790
    120       0.097470   0.289521   0.068089   0.000649   0.201995   0.389034
    121       0.022281  -0.007153  -0.005863  -0.000098  -0.072659  -0.146655
    122      -0.058000  -0.148625  -0.032582  -0.000265  -0.063900  -0.119776
    123      -0.017167  -0.134115  -0.028458  -0.000279  -0.202877  -0.392968
    124      -0.042163  -0.054576  -0.004503   0.000073   0.073201   0.147589
    125      -0.011311   0.038282   0.010904   0.000150   0.100991   0.198029
    126       0.361561  -0.457655  -0.229091  -0.001866   0.113312   0.106883
    127      -0.116196   0.207353   0.092746   0.000770  -0.032105  -0.035040
    128       0.087344  -0.208025  -0.071063  -0.000410   0.060754   0.051865
    129      -0.442783   0.191412   0.150767   0.001047  -0.140603   0.030557
    130       0.217740  -0.087251  -0.105572  -0.000877   0.100449  -0.023097
    131       0.272149  -0.169069  -0.113897  -0.000719   0.138478  -0.007123
    132       0.328966  -0.182194  -0.274855  -0.003231   0.078071  -0.002967
    133      -0.179409   0.110350   0.112131   0.001285  -0.015768  -0.010888
    134       0.091045  -0.014406  -0.104868  -0.001410   0.013477  -0.020101
    135      -0.347630   0.174296   0.107865   0.000865  -0.032649   0.036372
    136       0.252922  -0.064648  -0.066989  -0.000582   0.016229  -0.030912
    137       0.199386  -0.083634  -0.087261  -0.000937   0.003919  -0.033926
    138      -0.040136   0.016419  -0.074701  -0.001022   0.087008  -0.016216
    139       0.064961  -0.006582   0.091407   0.001329  -0.134920   0.016681
    140       0.001121   0.017671  -0.053612  -0.000565  -0.007553  -0.002293
    141       0.023763  -0.029231   0.086792   0.001081  -0.016361   0.001289
    142      -0.003001  -0.018931   0.092695   0.001329  -0.046829   0.026087
    143       0.007488  -0.024790   0.109480   0.001447  -0.053023   0.020620
    144       0.000656   0.047105  -0.110905  -0.001274   0.491356  -0.169994
    145       0.004052  -0.016591   0.069925   0.000817  -0.039384   0.012478
    146      -0.000402   0.023926  -0.059200  -0.000768   0.173043  -0.060236
    147      -0.022465  -0.122252   0.484518   0.006849   0.098407  -0.025018
    148       0.000265  -0.001717   0.000504   0.000085   0.028983  -0.010174
    149      -0.004163  -0.038851   0.158663   0.002206   0.043425  -0.012254
    150       0.022197   0.003118  -0.023602  -0.000372  -0.127205   0.037831
    151      -0.009826  -0.001193   0.009841   0.000155   0.057839  -0.017278
    152      -0.004395  -0.000131   0.002719   0.000042   0.023773  -0.007070
    153      -0.058878   0.006795   0.007572   0.000450   0.362397  -0.108373
    154      -0.012821   0.000713   0.004720   0.000130   0.079626  -0.023801
    155      -0.005415   0.000328   0.001663   0.000043   0.032458  -0.009660
    156      -0.010480   0.000468  -0.001641  -0.004248  -0.004259   0.001344
    157      -0.088783   0.066891  -0.257823  -0.001379  -0.055449   0.027041
    158      -0.100073   0.081690  -0.314835  -0.007200  -0.087018   0.038358
    159       0.040159  -0.008933   0.049961  -0.003622  -0.020100  -0.001396
    160       0.046876  -0.000858   0.023923   0.004555  -0.043722   0.004650
    161      -0.013047   0.016356  -0.062930  -0.003410  -0.019830   0.008381
    162      -0.020589   0.012024  -0.036455  -0.015518  -0.012083   0.002851
    163      -0.047330   0.008272   0.003288   0.012172  -0.002321  -0.007554
    164      -0.027976  -0.008781   0.064017  -0.005961   0.026532  -0.017352
    165      -0.005397   0.042300  -0.176469  -0.000987  -0.117139   0.044892
    166      -0.000057   0.055886  -0.234607  -0.006138  -0.128708   0.051462
    167       0.017503  -0.018768   0.070383   0.002418   0.025131  -0.010103
    168      -0.002943  -0.001782   0.018412  -0.556230   0.001876  -0.001269
    169      -0.010891   0.001747   0.002980  -0.213292   0.003417  -0.002597
    170       0.000202  -0.000052  -0.004751   0.301927   0.001075  -0.000578
    171       0.013227  -0.005641   0.021780  -0.221598  -0.002550   0.001254
    172       0.009408  -0.002700   0.004896   0.166666  -0.003400   0.001414
    173      -0.011019   0.004612  -0.013751  -0.125454   0.002679  -0.000694
    174      -0.009182   0.003559  -0.013076   0.291004   0.000298  -0.001451
    175      -0.007692   0.001980  -0.008655   0.395368   0.001307  -0.002154
    176      -0.001901  -0.001090   0.011722  -0.443573   0.003576  -0.001005
                102        103        104        105        106        107    
      0      -0.001271   0.019834  -0.004002  -0.000177   0.000107   0.001340
      1      -0.003136   0.043630  -0.010169  -0.000655   0.002140  -0.001411
      2       0.002672  -0.015091  -0.005267  -0.000051  -0.000200  -0.000272
      3      -0.003403   0.040963  -0.006127  -0.000482   0.001995  -0.002974
      4       0.002069  -0.020168   0.001994   0.000243  -0.000817   0.000553
      5      -0.004078   0.058637  -0.007632  -0.000360   0.000553   0.001682
      6       0.005760  -0.051877  -0.000255   0.000379  -0.003142   0.004587
      7       0.000607  -0.021942   0.004783   0.000001   0.000537  -0.001206
      8      -0.000971  -0.011909   0.006541   0.000000   0.001058  -0.002506
      9      -0.002900   0.001870   0.019565   0.000756  -0.001329   0.006634
     10       0.004621  -0.015174  -0.026281  -0.000989   0.001446  -0.006900
     11      -0.000347  -0.037730   0.022981   0.000656   0.000037   0.001847
     12      -0.003381   0.069301  -0.021511  -0.000995   0.002484  -0.000581
     13      -0.003374   0.038621   0.008878   0.000558  -0.001360   0.000550
     14       0.000294   0.046169  -0.022333  -0.000537   0.000360  -0.002258
     15       0.003843  -0.069178   0.017826   0.000802  -0.001607  -0.001170
     16       0.002744  -0.046157   0.010168   0.000543  -0.001811   0.001966
     17      -0.000031  -0.024782   0.011946   0.000409  -0.001115   0.000603
     18       0.001109  -0.022374  -0.012813  -0.001401   0.006403  -0.010383
     19      -0.001348   0.013879   0.009431   0.000734  -0.002492   0.004813
     20      -0.000280   0.001740   0.003683   0.000370  -0.003835   0.003271
     21       0.000884   0.007679   0.028687   0.002921  -0.011076  -0.008003
     22      -0.001337  -0.003195  -0.010603  -0.001498   0.006365   0.004952
     23      -0.006891   0.004975   0.024119  -0.000935   0.012559   0.001746
     24      -0.000385  -0.001177  -0.021699  -0.001854   0.004885   0.009280
     25      -0.000474   0.001845   0.014308   0.001095  -0.003677  -0.002281
     26      -0.002536   0.009904   0.029470   0.001555   0.000957  -0.008833
     27      -0.018111   0.000932   0.018773  -0.006654   0.044173   0.022065
     28       0.009329  -0.000095  -0.009670   0.003005  -0.015414  -0.012148
     29       0.001282   0.001366  -0.003743   0.001254  -0.023887   0.023752
     30       0.002362  -0.005513  -0.042713  -0.003409   0.017380   0.007231
     31      -0.000534   0.000355   0.014591   0.001320  -0.007408  -0.003930
     32       0.002910  -0.010932  -0.019441  -0.001261   0.010994  -0.010054
     33       0.002285   0.001891   0.034662   0.004188  -0.019431  -0.014932
     34      -0.000190  -0.001658  -0.019168  -0.001841   0.007831   0.005988
     35       0.006885  -0.005641  -0.034467  -0.000222  -0.002815  -0.007122
     36      -0.004325  -0.003748  -0.018856  -0.000976  -0.021088   0.062543
     37      -0.012223   0.002046   0.017591  -0.001748  -0.014343   0.063364
     38      -0.007228   0.000891   0.006247   0.000987  -0.057180   0.103441
     39       0.000733   0.000912   0.005212   0.000900  -0.005806   0.054575
     40       0.011489  -0.000772  -0.011810   0.003029  -0.017058  -0.069464
     41      -0.002087  -0.000681   0.000839  -0.004477   0.091592  -0.079150
     42      -0.002299  -0.000394  -0.000949  -0.000446  -0.016630  -0.061145
     43      -0.014302  -0.001853  -0.004482  -0.003941   0.004276   0.055236
     44      -0.002282   0.000261   0.002978  -0.000264  -0.006393  -0.024333
     45       0.015156   0.002180   0.005434   0.003598   0.004322   0.017012
     46       0.011873   0.000882   0.001456   0.003876  -0.000171  -0.004343
     47       0.010463   0.000132  -0.005426   0.004991  -0.053351   0.028824
     48       0.014418   0.003549   0.011484   0.001503   0.024774  -0.035894
     49       0.022059   0.002172   0.002077   0.005861  -0.029675  -0.029917
     50       0.009519   0.001380   0.003492   0.002060  -0.002380  -0.013062
     51       0.014779   0.001540   0.000777   0.007099  -0.040072  -0.167878
     52      -0.001265   0.000085   0.001556  -0.000630   0.005101  -0.002596
     53       0.004211  -0.000189  -0.002486   0.001376  -0.007836  -0.030698
     54      -0.000515   0.002058   0.000955  -0.000041   0.000399  -0.000452
     55      -0.001456   0.007318   0.006178   0.000230  -0.000397   0.001600
     56       0.000923   0.004353  -0.007920  -0.000257   0.000272  -0.000900
     57       0.000170  -0.000186  -0.000800  -0.001103   0.008290   0.010826
     58      -0.000439  -0.000376  -0.002738  -0.000980   0.019445  -0.026592
     59      -0.000484  -0.000218  -0.001253  -0.000834   0.013242  -0.013021
     60       0.008944   0.000221  -0.001191   0.003438   0.011580   0.028269
     61       0.001193   0.000368   0.001335   0.003178  -0.015406  -0.013156
     62       0.000663   0.000204   0.001191   0.001071   0.001785  -0.005375
     63      -0.019313  -0.004499  -0.016550  -0.006706  -0.065304  -0.123912
     64       0.009041   0.003120   0.013738   0.002577   0.074739   0.117523
     65       0.001529   0.000815   0.003983   0.000343   0.023637   0.034583
     66      -0.001005   0.002537   0.015605  -0.000046   0.084467   0.190052
     67      -0.019218  -0.002851  -0.009401  -0.007194  -0.053761  -0.118160
     68      -0.009221  -0.001076  -0.002824  -0.002718  -0.015399  -0.032002
     69      -0.015995  -0.002249  -0.005460  -0.002403  -0.002504   0.013080
     70      -0.024980  -0.003759  -0.008955  -0.010871   0.001227   0.040703
     71      -0.008890  -0.002104  -0.007306  -0.009699  -0.019600  -0.037043
     72       0.002810  -0.000132  -0.001264   0.000491   0.005471  -0.010085
     73      -0.003368  -0.000015   0.001002  -0.001186   0.003982   0.016355
     74      -0.001034  -0.000066  -0.000129  -0.000394  -0.001546   0.004130
     75      -0.002656   0.000136   0.001249  -0.000382  -0.004650   0.002268
     76       0.002839   0.000063  -0.000498   0.000777   0.002677  -0.003683
     77       0.000825   0.000029  -0.000086   0.000221   0.001026  -0.000917
     78      -0.000760  -0.000221  -0.000876  -0.000365  -0.004403  -0.004871
     79      -0.000364  -0.000325  -0.001632  -0.000580  -0.006579  -0.012059
     80      -0.000242  -0.000115  -0.000483  -0.000276  -0.001308  -0.004115
     81       0.006108   0.000221  -0.001147   0.020073  -0.000677  -0.005421
     82      -0.022370  -0.001872  -0.003200   0.018481  -0.001416   0.000898
     83      -0.040975  -0.002737  -0.001241  -0.012303   0.003699   0.020985
     84       0.023595   0.001655   0.001571  -0.010373   0.000028  -0.001455
     85       0.032984   0.002893   0.004703  -0.013848   0.003390  -0.002172
     86       0.000423   0.000862   0.003650   0.000873   0.005641   0.002963
     87      -0.017277  -0.001128   0.000300  -0.024025   0.002340   0.012373
     88      -0.017567  -0.000930   0.002774  -0.072747   0.002845   0.017954
     89       0.008793   0.000842   0.002898  -0.052222  -0.001807  -0.001729
     90       0.024025   0.002443   0.004499  -0.001722   0.003083  -0.006213
     91       0.051781   0.004501   0.006121   0.017072   0.007156  -0.001823
     92       0.024910   0.001592   0.000303   0.025360   0.006036   0.013675
     93      -0.029899  -0.002360  -0.002820  -0.011738  -0.006386  -0.006888
     94      -0.040409  -0.003461  -0.005286  -0.000838  -0.009239  -0.010445
     95       0.004231   0.000111  -0.000809   0.021500   0.004427   0.010248
     96       0.006173   0.000215  -0.001409   0.026608  -0.001353  -0.006793
     97       0.023181   0.001534   0.000839  -0.004363  -0.003864  -0.009727
     98       0.019406   0.001672   0.003736  -0.053614  -0.002364  -0.000007
     99      -0.008295  -0.000498   0.000141  -0.008676   0.000850   0.003999
    100      -0.033906  -0.002757  -0.005411   0.074635   0.003775   0.002595
    101      -0.030191  -0.002801  -0.007596   0.112609   0.002615  -0.005089
    102      -0.008555   0.187872  -0.054756  -0.002363   0.006071  -0.003226
    103      -0.018867   0.348985  -0.078167  -0.003314   0.007792  -0.000211
    104       0.016558  -0.298025   0.064367   0.002774  -0.006838   0.001110
    105       0.008920  -0.144857   0.034621   0.001908  -0.005969   0.003778
    106       0.019531  -0.280987   0.048531   0.002750  -0.007877   0.000777
    107      -0.017142   0.222795  -0.026820  -0.001694   0.004655   0.001548
    108       0.008568  -0.239412   0.069039   0.002271  -0.003404  -0.001060
    109      -0.003321   0.166048  -0.059804  -0.001817   0.001745   0.002467
    110      -0.002453  -0.018021   0.020218   0.000516  -0.000195   0.000094
    111       0.000780   0.034562  -0.016438  -0.000338   0.002471  -0.004772
    112      -0.000809  -0.030177   0.013284   0.000152  -0.001283   0.001750
    113       0.000554   0.008498  -0.006809  -0.000210   0.000880  -0.000968
    114       0.012989  -0.142531  -0.010495  -0.000659   0.003268  -0.005604
    115      -0.024467   0.267743   0.013712   0.000653  -0.003368   0.010661
    116       0.019355  -0.313476   0.041794   0.001362  -0.001627   0.002131
    117       0.001090  -0.011399   0.016820   0.001601  -0.007206   0.002499
    118       0.015074  -0.315330   0.031138  -0.001086   0.010571  -0.004928
    119      -0.010395   0.245267  -0.044124  -0.000531  -0.002316   0.000098
    120      -0.006608   0.212887  -0.052034  -0.001132   0.001701   0.000274
    121       0.004030  -0.146357   0.053969   0.002036  -0.004965   0.002466
    122       0.003860  -0.084210   0.013571   0.000266  -0.000501  -0.000442
    123      -0.014191   0.093039   0.027938   0.000656  -0.003639   0.008226
    124       0.001043   0.039743  -0.021521  -0.000479   0.000547   0.001776
    125       0.004403   0.001280  -0.021456  -0.000515   0.001736  -0.002719
    126      -0.016135   0.137639   0.362400   0.027383  -0.091232  -0.033516
    127       0.003500  -0.045134  -0.128998  -0.010762   0.040335   0.011486
    128      -0.014626   0.061497   0.171078   0.009755  -0.022598  -0.008138
    129       0.034471  -0.067211  -0.306765  -0.010002  -0.037504   0.070057
    130      -0.017447   0.036887   0.169453   0.005676   0.026696  -0.051501
    131      -0.032486   0.066040   0.270749   0.008115   0.040771  -0.062803
    132       0.060770  -0.046606  -0.433910  -0.016382   0.071706  -0.092426
    133      -0.027874   0.023666   0.209379   0.007919  -0.024878   0.019040
    134       0.030586  -0.031811  -0.202572  -0.007065   0.032479  -0.051767
    135      -0.019665   0.060426   0.355095   0.025508  -0.095798  -0.027747
    136       0.014703  -0.041215  -0.237924  -0.016392   0.060659   0.017218
    137       0.026247  -0.056490  -0.308581  -0.018207   0.061362   0.002477
    138       0.005935   0.004478   0.025277   0.002540   0.029243  -0.230030
    139      -0.005420  -0.009114  -0.054149  -0.003671  -0.051950   0.518305
    140       0.008832  -0.001414  -0.018604   0.004691  -0.091215   0.281907
    141      -0.006331  -0.003481  -0.023848  -0.001432  -0.029087   0.095430
    142      -0.031695   0.002149   0.053843  -0.019860   0.312519  -0.365006
    143      -0.024730  -0.000556   0.023060  -0.015611   0.231124  -0.189304
    144       0.018161  -0.007357  -0.075359   0.025933  -0.559852   0.413089
    145      -0.010497  -0.001308   0.002029  -0.007469   0.113727  -0.053981
    146       0.010088  -0.002668  -0.027710   0.009591  -0.184646   0.115350
    147      -0.101681  -0.010257   0.002419  -0.050584   0.580719  -0.011378
    148       0.001903   0.000734   0.000911   0.004854  -0.089392   0.037653
    149      -0.033882  -0.003848  -0.001754  -0.016691   0.179919  -0.001636
    150       0.008286   0.000775   0.001172   0.003153   0.001983  -0.009399
    151      -0.004058  -0.000333  -0.000437  -0.001475  -0.002092   0.003435
    152      -0.001403  -0.000075   0.000101  -0.000379   0.000669   0.001420
    153      -0.014699  -0.000202   0.003335  -0.002917  -0.016395   0.025515
    154      -0.003126  -0.000119   0.000455  -0.000570  -0.002548   0.008856
    155      -0.000981  -0.000020   0.000235  -0.000051  -0.001562   0.002085
    156      -0.028330  -0.002156  -0.003587   0.025538  -0.005930  -0.015248
    157      -0.232338  -0.013920  -0.003202   0.054428   0.031941   0.071731
    158      -0.281632  -0.016787  -0.002976   0.024339   0.030594   0.078279
    159       0.298813   0.022621   0.022982   0.034267   0.013773  -0.025335
    160       0.377653   0.029228   0.031958   0.040740   0.021568  -0.028658
    161      -0.048766  -0.002813   0.000231  -0.010683   0.003445   0.007226
    162       0.068786   0.005882   0.007459   0.029523   0.007978  -0.010678
    163       0.346955   0.026585   0.022221   0.247891   0.033172  -0.041850
    164       0.337741   0.024963   0.017047   0.279110   0.035453  -0.025454
    165      -0.328301  -0.023424  -0.020919  -0.089494  -0.065878  -0.125321
    166      -0.409391  -0.028675  -0.022901  -0.095903  -0.057544  -0.099591
    167       0.051264   0.002985  -0.000305   0.035480   0.004844   0.010527
    168       0.053321   0.004558   0.009558  -0.131711  -0.006696  -0.002701
    169       0.134113   0.011520   0.026166  -0.376575  -0.015303  -0.000949
    170       0.008026   0.000583   0.001118  -0.019862  -0.001480  -0.002310
    171      -0.109923  -0.009926  -0.027756   0.456023   0.016154  -0.014174
    172      -0.088207  -0.007888  -0.020833   0.326137   0.010623  -0.010145
    173       0.082720   0.007725   0.023352  -0.394402  -0.012827   0.017022
    174       0.097013   0.008348   0.019148  -0.280354  -0.011820  -0.000522
    175       0.101863   0.008601   0.018867  -0.276865  -0.013768  -0.005113
    176       0.031747   0.002775   0.006637  -0.091158  -0.001657   0.002437
                108        109        110        111        112        113    
      0      -0.001741  -0.018640   0.000458   0.049011  -0.018001  -0.010458
      1       0.009804   0.032246   0.000046   0.049309   0.020670   0.007858
      2       0.004922   0.028612   0.000184   0.083524   0.001521  -0.000530
      3       0.010914   0.053376  -0.000592  -0.011995   0.024099   0.012460
      4      -0.003634  -0.002872  -0.000031  -0.017350  -0.041817  -0.007241
      5      -0.001566  -0.033361   0.000426  -0.025774   0.062188   0.011995
      6      -0.009682  -0.089572   0.001031  -0.022274   0.107629   0.003340
      7       0.003311   0.008150  -0.000222  -0.023545   0.002649  -0.003719
      8       0.002272   0.037764  -0.000756  -0.024923  -0.050789   0.003629
      9      -0.026877  -0.126987   0.001649   0.020580  -0.032232   0.009067
     10       0.031722   0.171134  -0.001788  -0.015501  -0.022589   0.003182
     11      -0.010895  -0.073503   0.000838   0.032705   0.069982   0.007301
     12       0.008903   0.022509   0.000142  -0.001904  -0.031293  -0.009472
     13      -0.008936  -0.041058   0.000046  -0.006584   0.074642   0.011331
     14       0.010835   0.078147  -0.000791  -0.033988  -0.030443   0.009954
     15      -0.003150   0.011512  -0.000560  -0.024763  -0.017015   0.004537
     16      -0.011289  -0.040409   0.000141  -0.018884  -0.067534  -0.021486
     17      -0.008614  -0.046388  -0.000047  -0.035420  -0.016622  -0.020571
     18       0.050435   0.237889  -0.002465  -0.020741   0.014880   0.003285
     19      -0.027477  -0.133493   0.001381   0.016206   0.000880  -0.003988
     20      -0.004881  -0.068143   0.000226   0.011669   0.028435  -0.009410
     21      -0.023447   0.065202  -0.003744  -0.006225   0.000220   0.002409
     22       0.016255  -0.028369   0.002487   0.001999  -0.002604  -0.004668
     23       0.038479   0.015687   0.004902  -0.004054  -0.001985  -0.037819
     24       0.016884  -0.073522   0.004104   0.005269   0.002869  -0.025133
     25      -0.011938   0.028448  -0.002137  -0.002177  -0.003791   0.015856
     26      -0.033890  -0.036971  -0.002047   0.003302  -0.007889   0.009441
     27       0.158566  -0.040659   0.018937  -0.001047   0.010411  -0.106617
     28      -0.085926   0.020514  -0.008972   0.001500  -0.004678   0.059026
     29       0.009730  -0.009605  -0.001374   0.003020  -0.006342   0.057128
     30       0.018600  -0.062397   0.005836   0.002182   0.000119  -0.025518
     31      -0.005406   0.039478  -0.002650  -0.002429  -0.000532   0.009542
     32       0.007827   0.074615   0.000395  -0.007322  -0.001221  -0.012326
     33      -0.036460   0.067733  -0.007028  -0.001716  -0.002145   0.036624
     34       0.012887  -0.029670   0.002640  -0.000157  -0.000762  -0.015913
     35      -0.038450  -0.007315  -0.003656  -0.002249  -0.009821   0.011193
     36      -0.044497   0.003634  -0.005011   0.000652  -0.020697   0.137345
     37       0.118727  -0.030923   0.011163  -0.001370   0.004159  -0.055509
     38       0.064952  -0.012038   0.008059  -0.001289   0.002166  -0.028058
     39      -0.033094   0.024894   0.004643  -0.000699   0.008456  -0.047860
     40      -0.023227   0.000462  -0.004928   0.000761   0.006785  -0.043643
     41      -0.068768   0.018341  -0.005581   0.000654   0.003403  -0.006436
     42       0.062394  -0.030167  -0.005490   0.000533  -0.014792   0.097061
     43      -0.044826   0.018611   0.006011  -0.000169   0.001637  -0.002441
     44       0.055449  -0.024277   0.000075   0.000196  -0.010051   0.053564
     45       0.018530  -0.009139  -0.004441   0.000219  -0.010528   0.080866
     46       0.004907   0.000593  -0.015498  -0.000429   0.000674  -0.005264
     47       0.001904   0.003259  -0.005128  -0.000363   0.000903  -0.006594
     48      -0.020675   0.004976   0.014083   0.000561   0.000441   0.007519
     49       0.014075  -0.003217  -0.014622  -0.000016   0.002757  -0.022977
     50       0.006871  -0.001997  -0.003946   0.000074   0.001068  -0.007599
     51      -0.016315   0.009496  -0.023277  -0.000433   0.010806  -0.066591
     52       0.002921   0.003138   0.001129  -0.000344   0.003069  -0.016470
     53      -0.009318   0.004211  -0.004643  -0.000103   0.002632  -0.014466
     54       0.001506   0.009039  -0.000074   0.006093  -0.017978  -0.002817
     55      -0.007892  -0.039568   0.000365   0.002732   0.030097   0.008264
     56       0.005679   0.027261  -0.000168   0.001497  -0.016270  -0.005705
     57      -0.005018   0.001292   0.000728   0.000051  -0.001062   0.007792
     58      -0.027542   0.002355   0.001489   0.000747  -0.002691   0.021465
     59      -0.013894   0.001033   0.001016   0.000382  -0.001474   0.011518
     60      -0.025369   0.013144  -0.010178  -0.000588   0.005632  -0.033787
     61       0.035497  -0.015058  -0.000320   0.000114  -0.010025   0.071812
     62       0.010529  -0.004591  -0.001676   0.000014  -0.003405   0.025423
     63      -0.019612   0.006093  -0.016206   0.000142   0.004574  -0.029127
     64       0.002275   0.000636   0.010036   0.000005   0.003103  -0.031840
     65       0.000354   0.000313   0.003205   0.000011   0.001547  -0.015008
     66       0.041348  -0.011827   0.030586  -0.000288  -0.001669  -0.005029
     67      -0.019368   0.006340   0.011960   0.000179   0.005673  -0.034588
     68      -0.004686   0.001582   0.006823   0.000052   0.001980  -0.013310
     69      -0.000214  -0.000892  -0.029559  -0.000052  -0.002213   0.012940
     70       0.001160  -0.001630  -0.013160  -0.000157  -0.004876   0.032663
     71      -0.013403   0.003758   0.024344   0.000022  -0.000734   0.011583
     72      -0.030903   0.016539   0.005962  -0.000490   0.017278  -0.129838
     73       0.014907  -0.008893  -0.003916   0.000325  -0.010453   0.078769
     74       0.003708  -0.002215  -0.001158   0.000089  -0.002765   0.020877
     75       0.022391  -0.011450  -0.002270   0.000324  -0.009989   0.072633
     76      -0.014201   0.007114   0.001700  -0.000206   0.005907  -0.042525
     77      -0.004020   0.001990   0.000449  -0.000055   0.001617  -0.011626
     78       0.000949  -0.000548  -0.001077   0.000026  -0.000738   0.006154
     79      -0.006518   0.003191  -0.000512  -0.000060   0.003181  -0.023487
     80      -0.002435   0.001133  -0.000194  -0.000016   0.001073  -0.007798
     81      -0.002101   0.000860   0.065427  -0.000070  -0.000339   0.003208
     82      -0.001924   0.000308   0.039583  -0.000041  -0.001217   0.008861
     83       0.003843  -0.001771  -0.067854   0.000045  -0.001006   0.005494
     84      -0.000531   0.000212  -0.021715   0.000023   0.000028   0.001290
     85       0.001064  -0.000073  -0.035266   0.000072   0.000842  -0.004532
     86       0.003200  -0.000646  -0.004719   0.000028   0.001094  -0.008772
     87       0.004278  -0.001874  -0.171613   0.000193   0.000682  -0.005486
     88       0.006768  -0.002769  -0.294783   0.000318   0.001717  -0.012748
     89       0.000453  -0.000126  -0.074971   0.000070   0.000988  -0.006704
     90       0.000717   0.000166  -0.001604   0.000046   0.001157  -0.007664
     91       0.003415  -0.000817  -0.079605   0.000137   0.001435  -0.010544
     92       0.004178  -0.001695  -0.102920   0.000087  -0.000348   0.000673
     93      -0.003412   0.000892   0.012939  -0.000033  -0.000512   0.004623
     94      -0.004957   0.001352   0.082135  -0.000127  -0.001286   0.009806
     95       0.001666  -0.000326   0.086797  -0.000136  -0.000985   0.005617
     96      -0.002191   0.000998   0.104866  -0.000128  -0.000517   0.003878
     97      -0.003949   0.001704   0.197734  -0.000225  -0.001094   0.008003
     98      -0.001110   0.000396   0.069010  -0.000072  -0.000504   0.003432
     99       0.001361  -0.000654  -0.072259   0.000082   0.000359  -0.002845
    100       0.001637  -0.000702  -0.094591   0.000107   0.000486  -0.003463
    101      -0.000642   0.000351   0.008032  -0.000019  -0.000023   0.000608
    102       0.033623   0.121580   0.000447   0.193015   0.117940   0.036855
    103       0.028601   0.052921   0.000605  -0.060925   0.246130   0.077896
    104      -0.024789  -0.052296  -0.000173   0.094864  -0.217526  -0.071548
    105      -0.029141  -0.092593   0.000049  -0.038644  -0.129891  -0.051677
    106      -0.024778  -0.025734  -0.000671   0.006672  -0.162958  -0.057903
    107       0.005999  -0.044514   0.000590  -0.054534   0.096502   0.028826
    108      -0.029763  -0.105821  -0.001393  -0.348007  -0.062148  -0.011416
    109       0.023235   0.064609   0.001892   0.398916   0.072300  -0.006330
    110      -0.012031  -0.051052  -0.000669  -0.236174   0.002993   0.015085
    111       0.013899   0.177909  -0.000607   0.292914  -0.379091  -0.069371
    112      -0.005250  -0.110047  -0.000069  -0.278883   0.318825   0.065793
    113       0.004671   0.053597   0.000161   0.170735  -0.158988  -0.030242
    114       0.035177   0.151741  -0.000241   0.038472   0.327934   0.101373
    115      -0.058356  -0.288931   0.001266  -0.054383  -0.498112  -0.167844
    116      -0.001706   0.001900   0.000928   0.033857   0.137026   0.053121
    117      -0.041850  -0.158690  -0.000807  -0.112064  -0.115789  -0.092820
    118       0.067140   0.268579   0.001038   0.236790   0.199389   0.163570
    119      -0.011973  -0.027223  -0.000753  -0.115124  -0.061041  -0.036066
    120      -0.001378   0.029696  -0.001117  -0.405486  -0.017473   0.032588
    121      -0.031035  -0.139800   0.000081  -0.041930  -0.091630  -0.061019
    122       0.004195   0.013971   0.000248   0.161229  -0.004880  -0.008393
    123      -0.027695  -0.236346   0.002830   0.318807   0.089087  -0.078074
    124       0.000924   0.019273   0.000545   0.042346  -0.065086  -0.002200
    125       0.011314   0.093324  -0.000789  -0.088278  -0.048888   0.023966
    126      -0.227402   0.021049  -0.024930   0.003890  -0.100085   0.227913
    127       0.095757  -0.014471   0.010804   0.000408   0.045457  -0.099990
    128      -0.049831  -0.014404  -0.003842   0.000612  -0.050284   0.060112
    129      -0.050400  -0.300280  -0.002600   0.023394  -0.049606   0.148539
    130       0.020334   0.161018   0.001883  -0.011994   0.031785  -0.099610
    131       0.027308   0.144450   0.004691  -0.011314   0.037105  -0.147850
    132      -0.213670  -0.311354  -0.014789   0.015328   0.010244  -0.030190
    133       0.098366   0.150347   0.006361  -0.006791  -0.004340   0.002769
    134      -0.103003  -0.026155  -0.009852  -0.002682   0.002728  -0.007830
    135      -0.225275  -0.111901  -0.021156   0.040958   0.068543   0.030984
    136       0.126190   0.070849   0.011918  -0.025609  -0.037633  -0.011531
    137       0.115160   0.156553   0.007429  -0.040106  -0.069791   0.020087
    138       0.149963  -0.060401  -0.001994   0.000905   0.015016  -0.169232
    139      -0.429144   0.183874   0.007439  -0.002446  -0.012002   0.250370
    140      -0.164296   0.088656   0.015309  -0.001848   0.021321  -0.076029
    141      -0.138341   0.046999  -0.004750   0.000618   0.016120  -0.041961
    142       0.353333  -0.164569   0.008735   0.000756  -0.061187   0.250963
    143       0.076104  -0.049772  -0.000561   0.000907  -0.023861   0.120121
    144      -0.084134   0.075898   0.045994  -0.003275   0.054239  -0.423445
    145      -0.086713   0.026503  -0.010608   0.000619  -0.001849   0.063592
    146      -0.043662   0.030890   0.011821  -0.001006   0.020175  -0.147353
    147      -0.481768   0.159701   0.033734   0.000880   0.060786  -0.329179
    148       0.088561  -0.031202  -0.000616  -0.000032  -0.020645   0.128330
    149      -0.157827   0.052667   0.012518   0.000165   0.021883  -0.129064
    150      -0.005052   0.002012   0.002224  -0.000082  -0.001232   0.015860
    151       0.003602  -0.001653  -0.001319   0.000061   0.000096  -0.004455
    152       0.002756  -0.001371  -0.000256   0.000041  -0.000813   0.004802
    153       0.095344  -0.048144  -0.013219   0.001337  -0.043560   0.321341
    154       0.019914  -0.010093  -0.003784   0.000273  -0.009830   0.073771
    155       0.009060  -0.004524  -0.001401   0.000120  -0.004552   0.034549
    156      -0.005539   0.001369   0.113921  -0.000060  -0.000594   0.003003
    157       0.013935  -0.003058   0.382387  -0.000575  -0.000474  -0.011419
    158       0.016273  -0.004660   0.295880  -0.000435  -0.000105  -0.017761
    159       0.006624   0.000210   0.123391  -0.000141   0.003102  -0.024932
    160       0.010973  -0.000293   0.136050  -0.000154   0.004856  -0.038448
    161       0.002250  -0.000776  -0.041572   0.000084   0.000703  -0.005456
    162       0.001078   0.000608   0.022313   0.000046   0.001820  -0.011000
    163       0.002986   0.002703   0.108822   0.000096   0.004965  -0.024047
    164       0.004246   0.001907   0.103860   0.000028   0.003183  -0.012630
    165      -0.034040   0.009723   0.213532   0.000197   0.003609  -0.015091
    166      -0.032141   0.009382   0.344956   0.000054   0.002581  -0.008275
    167       0.002690  -0.000743   0.059014  -0.000159  -0.001553   0.008768
    168      -0.003915   0.001327   0.198207  -0.000205  -0.001500   0.009739
    169      -0.005043   0.001916   0.310749  -0.000325  -0.001815   0.012447
    170      -0.000463   0.000321   0.028175  -0.000041   0.000017   0.000439
    171      -0.000180   0.000593  -0.029422   0.000029   0.000323   0.000316
    172      -0.000003   0.000267  -0.056539   0.000064   0.000431  -0.001282
    173       0.001411  -0.001136  -0.029060   0.000027  -0.000112  -0.002226
    174      -0.003780   0.001298   0.214027  -0.000225  -0.001340   0.008811
    175      -0.005914   0.002101   0.303321  -0.000322  -0.001973   0.013393
    176       0.000574   0.000037   0.030852  -0.000041   0.000108  -0.000209
                114        115        116        117        118        119    
      0       0.001249  -0.010767   0.000053   0.003707  -0.005043  -0.042453
      1       0.000182   0.020354   0.000192   0.014797  -0.001136   0.056101
      2      -0.001072  -0.015973  -0.000122  -0.013592   0.004689  -0.030580
      3      -0.002684   0.002727  -0.000185  -0.019169   0.021257   0.120194
      4       0.001829   0.013937   0.000207   0.024729  -0.026104  -0.121218
      5       0.000187   0.001581  -0.000013  -0.004119   0.004247   0.026619
      6      -0.001194  -0.058234  -0.000385  -0.026268   0.002980  -0.039480
      7      -0.000912  -0.013453  -0.000069  -0.002402  -0.000777  -0.018114
      8       0.000602   0.044795   0.000217   0.018032  -0.003931   0.016800
      9       0.009110   0.108438   0.000822   0.051273  -0.012495   0.029960
     10      -0.007426  -0.023616  -0.000380   0.001436  -0.021320  -0.002352
     11       0.002416  -0.006872  -0.000045  -0.028637   0.033170  -0.018415
     12       0.001303  -0.003481  -0.000071  -0.000994  -0.002538   0.005431
     13      -0.000824  -0.020364   0.000000  -0.021558   0.021260  -0.022004
     14      -0.001253   0.041447   0.000178   0.033973  -0.028745   0.021985
     15      -0.000437   0.035065   0.000232   0.030817  -0.014911   0.033890
     16       0.000619  -0.023447  -0.000195  -0.011261   0.003470   0.008141
     17      -0.000949  -0.063357  -0.000383  -0.040630   0.027051   0.011415
     18      -0.013902  -0.083072  -0.000921  -0.034083  -0.009947  -0.011895
     19       0.006328   0.030763   0.000389   0.015997   0.000260   0.006717
     20      -0.016854  -0.075897  -0.001761   0.025560  -0.121454   0.015675
     21      -0.002865  -0.024308   0.001418   0.037501   0.008373  -0.001565
     22       0.005517   0.014372  -0.000311  -0.011542  -0.001625   0.001613
     23       0.029638   0.004973   0.002393   0.034377   0.029767  -0.000177
     24       0.012458  -0.004680   0.000235   0.021864  -0.033139   0.009619
     25      -0.006279   0.008588  -0.000019  -0.008555   0.018275  -0.004254
     26      -0.002797   0.038169   0.000774   0.008753   0.036381  -0.001670
     27       0.075746   0.018823   0.002701   0.005283   0.050224  -0.002176
     28      -0.037262  -0.005435  -0.002037  -0.030542  -0.027983  -0.001245
     29      -0.029457   0.018034  -0.005268  -0.123508  -0.022470  -0.009938
     30       0.039620   0.037337   0.002565   0.006109   0.064547  -0.007776
     31      -0.016056  -0.017765  -0.000890   0.000120  -0.024493   0.002927
     32       0.014915   0.002159   0.001627   0.005915   0.039756  -0.005555
     33      -0.034811  -0.005450  -0.002656  -0.043432  -0.016124  -0.002459
     34       0.014312   0.003290   0.001312   0.026325   0.006799   0.001861
     35      -0.007253   0.011676   0.001085   0.036432   0.010709   0.003048
     36      -0.051856  -0.015044  -0.002688  -0.044440  -0.101498   0.005261
     37       0.041090   0.003085   0.001332   0.026575   0.008231   0.002642
     38       0.033111  -0.007265   0.002041   0.033997   0.005680   0.003225
     39       0.029092   0.008602   0.000146  -0.008171  -0.004035   0.000114
     40      -0.048334   0.010602  -0.002803  -0.002714   0.024623  -0.002365
     41      -0.016901   0.002983   0.000131  -0.002218   0.026559  -0.003190
     42      -0.014296  -0.020299   0.000184   0.016943   0.021745  -0.002789
     43       0.046803   0.000019   0.007080  -0.006201  -0.010367   0.000648
     44      -0.008311  -0.006007  -0.000750  -0.008219  -0.026365   0.001427
     45       0.066521  -0.023614   0.006368   0.032689   0.032183  -0.000672
     46      -0.152551  -0.004030  -0.021884   0.027420   0.031516  -0.001168
     47      -0.051030  -0.001063  -0.008138   0.009833   0.006773   0.000200
     48       0.266813  -0.001137   0.017917  -0.011551  -0.014284   0.001104
     49      -0.030936   0.006953  -0.008245  -0.012204  -0.012240  -0.000336
     50       0.014543   0.002348  -0.001375  -0.005629  -0.005057  -0.000139
     51      -0.161469   0.004691  -0.007880   0.041031   0.070621  -0.003982
     52       0.005620  -0.001662   0.000950   0.010641   0.013727  -0.000367
     53      -0.026977  -0.000046  -0.001468   0.009189   0.015411  -0.000808
     54       0.000176   0.004674   0.000024   0.003502  -0.001948  -0.005239
     55       0.001229   0.011237   0.000049  -0.007237   0.012975   0.026797
     56      -0.000840  -0.011995  -0.000039   0.003528  -0.008317  -0.014648
     57       0.013560   0.000383   0.000296  -0.007264  -0.007900   0.000077
     58       0.021190   0.001641   0.002899  -0.013065  -0.004828  -0.000689
     59       0.013601   0.001054   0.001626  -0.007525  -0.003357  -0.000343
     60      -0.169943  -0.001177  -0.012905   0.038499   0.051510  -0.000716
     61       0.006826  -0.021921   0.011353   0.047479   0.056784  -0.000796
     62      -0.011495  -0.008796   0.002825   0.022000   0.027103  -0.000434
     63       0.037627   0.011002   0.010551  -0.030284  -0.032655  -0.000138
     64      -0.019377   0.014748  -0.020553  -0.040675  -0.052086   0.000737
     65      -0.007207   0.006797  -0.006875  -0.018411  -0.022979   0.000265
     66      -0.047878   0.004906  -0.018656  -0.011753  -0.019236   0.001378
     67       0.202174   0.009062   0.044518  -0.019379  -0.019345   0.002004
     68       0.072558   0.003879   0.025267  -0.008668  -0.009313   0.000959
     69      -0.096862  -0.003383   0.038779   0.008568   0.008085   0.000138
     70      -0.169139  -0.009675  -0.013102   0.021936   0.023462  -0.001397
     71      -0.002422  -0.004290  -0.074163   0.007143   0.010200  -0.001895
     72      -0.087964   0.035383  -0.013132  -0.047711  -0.048847   0.001080
     73       0.054212  -0.021426   0.007479   0.028743   0.029050  -0.000494
     74       0.016468  -0.005627   0.001851   0.007306   0.007192  -0.000104
     75       0.058343  -0.018587   0.008371   0.022785   0.022367  -0.000426
     76      -0.035359   0.010356  -0.004008  -0.010825  -0.010028   0.000263
     77      -0.009987   0.002808  -0.001030  -0.002801  -0.002576   0.000075
     78       0.007322  -0.001522   0.000579   0.000568   0.000260  -0.000129
     79      -0.006484   0.007071  -0.002325  -0.013431  -0.015004   0.000118
     80      -0.002192   0.002350  -0.000733  -0.004525  -0.004996   0.000022
     81      -0.002564  -0.000944  -0.007611   0.001202   0.001411  -0.000145
     82      -0.022292  -0.002665  -0.040114   0.006485   0.005695   0.000169
     83      -0.028175  -0.001731  -0.040828   0.006426   0.004990   0.000494
     84       0.002462  -0.000830  -0.024106   0.001809   0.003203  -0.000776
     85       0.031842   0.000965  -0.027491  -0.002169  -0.001325  -0.000509
     86       0.036791   0.002831   0.008253  -0.006104  -0.007515   0.000765
     87       0.027929   0.001431  -0.049611  -0.000958  -0.003398   0.000979
     88       0.036994   0.003496   0.002464  -0.006034  -0.006819   0.000426
     89      -0.001358   0.002018   0.095350  -0.006327  -0.002921  -0.001216
     90       0.043552   0.002364   0.008284  -0.006087  -0.006527   0.000285
     91       0.044978   0.003306   0.021963  -0.007061  -0.008569   0.000904
     92      -0.022768  -0.000047   0.013491   0.001719   0.000398   0.000660
     93      -0.033560  -0.001675   0.024589   0.003632   0.006301  -0.001085
     94      -0.059947  -0.003127   0.033521   0.006708   0.009949  -0.001286
     95      -0.026465  -0.001464  -0.003265   0.003312   0.002709   0.000226
     96      -0.013363  -0.001057   0.008043   0.001615   0.002028  -0.000127
     97      -0.022212  -0.002190  -0.007112   0.003954   0.004068  -0.000055
     98      -0.004787  -0.000976  -0.024189   0.002265   0.001680   0.000159
     99       0.006662   0.000814   0.004196  -0.001460  -0.001546   0.000033
    100       0.005190   0.000972   0.016199  -0.001974  -0.001634  -0.000117
    101      -0.005468  -0.000225   0.013830   0.000127   0.000775  -0.000213
    102      -0.001483   0.023366   0.000276   0.004616  -0.005138  -0.125857
    103       0.001447   0.087889   0.000597   0.043289  -0.053337  -0.353562
    104      -0.000643  -0.081482  -0.000509  -0.035478   0.041344   0.279295
    105      -0.001290  -0.110614  -0.000840  -0.076604   0.039005  -0.014851
    106      -0.006711  -0.166107  -0.001620  -0.147802   0.089723   0.163493
    107       0.006271   0.108840   0.001252   0.112686  -0.068794  -0.174207
    108       0.006197   0.049313   0.000662   0.067712  -0.066501  -0.423706
    109      -0.006136  -0.117148  -0.000980  -0.102686   0.080734   0.349903
    110       0.003900   0.078900   0.000623   0.064933  -0.050865  -0.189218
    111       0.006703   0.050289   0.000872   0.091477  -0.075663  -0.298881
    112      -0.007120  -0.029226  -0.000765  -0.076773   0.065675   0.282669
    113       0.003444   0.039441   0.000545   0.055524  -0.033456  -0.078207
    114      -0.003187   0.048247   0.000515  -0.016381   0.023738  -0.071439
    115       0.008078  -0.102605  -0.000964  -0.004140  -0.013128   0.102687
    116       0.002529   0.071227   0.000475   0.017626  -0.004035  -0.002989
    117      -0.006414  -0.277585  -0.001201  -0.148168   0.103853  -0.046612
    118       0.008295   0.484353   0.002261   0.259338  -0.169911   0.056560
    119      -0.002269  -0.107777  -0.000506  -0.051310   0.027967   0.005569
    120       0.002093   0.077373  -0.000206  -0.001685  -0.010710   0.140874
    121      -0.000889  -0.134563  -0.000748  -0.081136   0.065534   0.072109
    122      -0.001163  -0.009879   0.000176   0.020491  -0.016109  -0.078302
    123      -0.004795  -0.356082  -0.001855  -0.234428   0.133292  -0.282266
    124       0.003172   0.047902   0.000242   0.026547  -0.015336   0.028235
    125       0.002638   0.126969   0.000690   0.079964  -0.039552   0.125248
    126      -0.101665   0.283317  -0.009970  -0.310254   0.182197  -0.042220
    127       0.046250  -0.117353   0.004274   0.118181  -0.057702   0.012623
    128      -0.011326   0.151239  -0.002494  -0.114891   0.107494  -0.016017
    129      -0.045844   0.236778  -0.007749  -0.248585   0.150872  -0.032613
    130       0.028554  -0.132200   0.004605   0.146022  -0.075353   0.018427
    131       0.051494  -0.161685   0.007843   0.242764  -0.112439   0.034561
    132      -0.074178  -0.168034   0.002621   0.313720  -0.276522   0.070338
    133       0.024762   0.076002  -0.001770  -0.141626   0.121014  -0.030749
    134      -0.037061  -0.093051   0.001799   0.145885  -0.112821   0.029098
    135      -0.081410  -0.140507   0.001147   0.253658  -0.243493   0.048933
    136       0.047129   0.080663  -0.000720  -0.165674   0.160206  -0.033877
    137       0.029352   0.121020  -0.002116  -0.216563   0.205519  -0.041335
    138      -0.181540   0.059480  -0.015976  -0.072660  -0.065614   0.003681
    139       0.404035  -0.102532   0.032821   0.134251   0.160179  -0.011110
    140       0.176135  -0.013443   0.011169   0.047373   0.065285  -0.002291
    141       0.042913  -0.026985   0.012470   0.105814   0.205114  -0.012502
    142      -0.105321   0.029287  -0.020328  -0.241084  -0.518652   0.033759
    143      -0.029977   0.001444  -0.003563  -0.073690  -0.151940   0.009229
    144       0.069495   0.115488   0.002124  -0.177770  -0.291631   0.022372
    145      -0.002645  -0.030303   0.002748   0.065521   0.141236  -0.011629
    146      -0.008972   0.037704  -0.003165  -0.050845  -0.068708   0.004713
    147       0.214917   0.059839   0.032001  -0.037702   0.047259  -0.003187
    148      -0.011565  -0.023420  -0.001942   0.004187  -0.015456  -0.000306
    149       0.079197   0.027296   0.012394  -0.026541  -0.016170   0.001915
    150       0.002128  -0.008456   0.004704   0.022185   0.027787  -0.000547
    151       0.003009   0.003304  -0.001075  -0.009475  -0.012459   0.000338
    152       0.003629  -0.000654  -0.000083  -0.000301  -0.000896   0.000039
    153       0.226993  -0.083828   0.030509   0.105205   0.106752  -0.002650
    154       0.041948  -0.020029   0.005923   0.027250   0.028688  -0.000762
    155       0.021541  -0.009573   0.003437   0.013626   0.014674  -0.000363
    156      -0.006478   0.000107   0.045852  -0.003030  -0.003661   0.000068
    157      -0.083429   0.007292   0.351695  -0.021333  -0.022232   0.001232
    158      -0.081483   0.009925   0.397544  -0.026452  -0.029043   0.001913
    159       0.018592   0.008514   0.300598  -0.022246  -0.019515   0.000605
    160       0.054684   0.012939   0.379458  -0.033072  -0.030765   0.001310
    161       0.039025   0.001613  -0.048756  -0.002617  -0.004442   0.000610
    162       0.082219   0.003119  -0.040054  -0.007793  -0.008734   0.000405
    163       0.283536   0.005102  -0.322339  -0.011932  -0.016424   0.001424
    164       0.222886   0.001640  -0.354455  -0.002632  -0.007184   0.001236
    165       0.263973   0.004124  -0.275166  -0.013341  -0.018891   0.001414
    166       0.271737   0.002381  -0.349493  -0.010849  -0.018569   0.001678
    167      -0.073551  -0.002448   0.049870   0.006326   0.007406  -0.000181
    168      -0.031239  -0.002506  -0.011447   0.005024   0.004553   0.000003
    169      -0.017750  -0.003442  -0.069849   0.007424   0.005871   0.000460
    170       0.005007  -0.000272  -0.013133   0.000588   0.000673   0.000041
    171       0.007071  -0.000580  -0.002159   0.000704   0.002202  -0.000569
    172       0.004517   0.000051   0.011668  -0.000378   0.000900  -0.000451
    173      -0.008130   0.001190   0.021049  -0.002214  -0.003386   0.000435
    174      -0.014619  -0.002372  -0.046820   0.005108   0.003854   0.000342
    175      -0.031083  -0.003616  -0.043829   0.007376   0.006356   0.000201
    176       0.014613  -0.000129  -0.032015   0.000438   0.000059   0.000225
                120        121        122        123        124        125    
      0      -0.000326   0.002375  -0.038649   0.005088  -0.066480   0.000051
      1      -0.006883   0.014599  -0.114564   0.010683  -0.055461  -0.000205
      2      -0.002993  -0.008903   0.082946  -0.008946   0.079537  -0.000060
      3      -0.007835  -0.000721   0.055834  -0.008046   0.045510   0.000197
      4       0.013148  -0.005490   0.003285   0.001421   0.001104   0.000051
      5      -0.000139   0.002750  -0.025315   0.003023  -0.006502  -0.000139
      6       0.007518   0.000713  -0.062418   0.010144   0.002166  -0.000419
      7      -0.002286   0.000365  -0.003963   0.000082  -0.002749   0.000247
      8       0.000288  -0.002672   0.048254  -0.006453   0.005900   0.000127
      9       0.014137  -0.001609   0.046160  -0.005832  -0.008645  -0.000641
     10       0.020871  -0.006090   0.005091   0.001323  -0.005015   0.001206
     11      -0.030413   0.005684  -0.020346   0.001457  -0.001967  -0.001111
     12       0.017950  -0.005834   0.028998  -0.000456  -0.029858   0.000558
     13      -0.038431   0.007715  -0.027989  -0.000050  -0.016911  -0.000907
     14       0.028156  -0.004311   0.012490  -0.000332   0.000602   0.000864
     15       0.002235   0.012531  -0.099953   0.007687   0.137073  -0.000697
     16       0.009239  -0.005663   0.041119  -0.003089   0.007781   0.000260
     17      -0.020980   0.001947   0.001410  -0.000393  -0.068501  -0.000133
     18       0.005173  -0.004942  -0.018128   0.003592   0.003286   0.002668
     19       0.007032   0.000069   0.009665  -0.000370  -0.003105  -0.001030
     20       0.219501  -0.047861   0.001966   0.026492  -0.001071   0.005287
     21      -0.136837   0.036492   0.002005  -0.025652  -0.002144   0.001683
     22       0.054093  -0.014193   0.000939   0.010082   0.000928  -0.001298
     23      -0.069548   0.021587   0.004821  -0.011791  -0.000728  -0.004915
     24       0.103537  -0.022162   0.006071   0.015430   0.000818  -0.003160
     25      -0.065827   0.013638  -0.001507  -0.009624  -0.000638   0.002229
     26      -0.108215   0.021583   0.004677  -0.013324  -0.001290   0.001505
     27       0.094009  -0.007188  -0.000984   0.010817   0.001772  -0.011458
     28       0.010358  -0.013470  -0.004146   0.007422   0.000007   0.005944
     29       0.222985  -0.055955  -0.020421   0.033729   0.003824   0.003339
     30      -0.105268   0.029874  -0.001821  -0.014405  -0.000913  -0.004935
     31       0.033352  -0.009966   0.001041   0.004570   0.000302   0.001844
     32      -0.085923   0.017921   0.000308  -0.007648  -0.001226  -0.003865
     33       0.080190  -0.027209  -0.003972   0.017274   0.000136   0.001596
     34      -0.051010   0.016321   0.002731  -0.010804   0.000156  -0.000437
     35      -0.125247   0.029634   0.005653  -0.021135   0.000515   0.002351
     36      -0.077481  -0.009209  -0.000880  -0.006696  -0.000267   0.022904
     37      -0.018884   0.017472   0.004608  -0.005565  -0.000287  -0.015951
     38      -0.012177   0.024091   0.004515  -0.023408  -0.000453  -0.000573
     39      -0.020069  -0.027298   0.001146   0.052478   0.000072  -0.026100
     40       0.051912  -0.020774  -0.002063   0.004371   0.000442  -0.021590
     41       0.035968  -0.011974  -0.002554   0.007015   0.000301  -0.015010
     42       0.039230   0.121950  -0.004450  -0.167854  -0.000614   0.161004
     43      -0.009027  -0.010422  -0.000447  -0.001748   0.000056   0.004655
     44      -0.025595   0.029501  -0.000171  -0.038396  -0.000349   0.047440
     45       0.015737  -0.008382   0.002213   0.052089   0.000206  -0.166596
     46      -0.005322  -0.007945   0.002899   0.048632  -0.000260   0.014397
     47      -0.012047  -0.012756   0.001941   0.036274  -0.000091  -0.014050
     48      -0.001066   0.006042   0.001860   0.043887   0.000183  -0.028750
     49       0.010994   0.091655   0.000869  -0.032822  -0.000387  -0.169650
     50       0.006870   0.037693   0.000390  -0.009454  -0.000105  -0.069559
     51       0.021236  -0.000151   0.000678  -0.011846  -0.000692  -0.025276
     52       0.010448   0.007216   0.000367  -0.000198   0.000205  -0.009728
     53       0.009840   0.005490   0.000225  -0.002531  -0.000023  -0.012169
     54       0.001449  -0.000786   0.006773  -0.000733  -0.001846   0.000079
     55      -0.010132   0.002198   0.002439  -0.000972   0.006745  -0.000480
     56       0.005914  -0.000737  -0.007664   0.001213  -0.004974   0.000322
     57      -0.001887   0.004667  -0.000337   0.002225   0.000105  -0.001842
     58       0.002532  -0.028813  -0.001658   0.013209   0.000127   0.030667
     59       0.000083  -0.014803  -0.000878   0.007501   0.000071   0.016291
     60      -0.012096  -0.178091   0.002629   0.155943   0.000668   0.060822
     61      -0.005927  -0.197254  -0.000301   0.109348   0.000830   0.209311
     62      -0.002193  -0.089332   0.000142   0.055979   0.000386   0.085587
     63       0.007816   0.121966  -0.002379  -0.117439  -0.000634  -0.082368
     64       0.000849   0.177957   0.000061  -0.104922  -0.000794  -0.083369
     65       0.001023   0.079337  -0.000253  -0.052822  -0.000374  -0.037620
     66      -0.009801  -0.025143  -0.000701   0.000730   0.000456   0.152021
     67      -0.007965  -0.126753  -0.004474  -0.016276   0.000768   0.131741
     68      -0.004619  -0.063396  -0.002435  -0.014564   0.000310   0.058391
     69      -0.007521  -0.124914  -0.007095  -0.110162  -0.000620  -0.086539
     70       0.003239   0.017834   0.000866  -0.001574  -0.000465  -0.080999
     71       0.017137   0.235937   0.011945   0.157416   0.000337   0.028535
     72      -0.017811   0.047587  -0.002671  -0.091350  -0.000405   0.210473
     73       0.009847  -0.037610   0.001941   0.068407   0.000316  -0.131651
     74       0.002494  -0.008579   0.000598   0.019229   0.000087  -0.037215
     75       0.007845  -0.025999   0.000981   0.038250   0.000193  -0.072464
     76      -0.005601   0.000251  -0.000577  -0.014702  -0.000065   0.055238
     77      -0.001635  -0.000990  -0.000159  -0.003524  -0.000015   0.016055
     78       0.002757   0.015764   0.000133  -0.005384  -0.000057  -0.035733
     79       0.000457   0.048987  -0.000474  -0.039694  -0.000248  -0.013688
     80       0.000457   0.017376  -0.000174  -0.014028  -0.000086  -0.006670
     81       0.001176   0.006206   0.000062  -0.001186  -0.000020  -0.008258
     82      -0.004748  -0.082118  -0.004193  -0.060343  -0.000323  -0.049236
     83      -0.008336  -0.121476  -0.005763  -0.078788  -0.000379  -0.049413
     84       0.007648   0.116836   0.006391   0.089227   0.000250   0.031569
     85       0.007144   0.116589   0.006374   0.090514   0.000338   0.046473
     86      -0.004779  -0.062225  -0.003301  -0.042372   0.000009   0.007913
     87      -0.009189  -0.125423  -0.006165  -0.081191  -0.000180  -0.015700
     88      -0.001817  -0.000584   0.000270   0.007989   0.000142   0.032080
     89       0.014349   0.229004   0.011658   0.159200   0.000519   0.070830
     90       0.000158   0.010101   0.000354   0.006311   0.000123   0.017703
     91      -0.006568  -0.084137  -0.004646  -0.065102  -0.000161  -0.018202
     92      -0.008791  -0.126562  -0.006711  -0.097281  -0.000441  -0.057663
     93       0.008658   0.124412   0.006458   0.085234   0.000123   0.010274
     94       0.009325   0.121194   0.006221   0.080667   0.000068  -0.000771
     95      -0.003403  -0.063578  -0.003245  -0.043421  -0.000123  -0.018118
     96       0.000602  -0.003465  -0.000352  -0.005733  -0.000029  -0.008974
     97      -0.000870  -0.034762  -0.001978  -0.028121  -0.000114  -0.022541
     98      -0.002249  -0.039630  -0.001975  -0.026549  -0.000092  -0.013218
     99       0.000187   0.011556   0.000680   0.009834   0.000050   0.009852
    100       0.001717   0.035527   0.001852   0.024942   0.000074   0.013533
    101       0.001926   0.025280   0.001173   0.014570   0.000014  -0.000552
    102      -0.023175  -0.009965   0.114791  -0.015831   0.202805  -0.000803
    103       0.025593  -0.040221   0.275990  -0.026435   0.319950  -0.000271
    104      -0.016698   0.033652  -0.248044   0.025237  -0.297987   0.000322
    105      -0.007567  -0.024708   0.231133  -0.022346  -0.024191   0.000652
    106      -0.015579  -0.041951   0.451873  -0.046866   0.097153   0.001115
    107       0.000597   0.036867  -0.386241   0.039220  -0.116154  -0.001120
    108       0.020499  -0.012477  -0.022230   0.008315  -0.096345   0.000001
    109      -0.031750   0.015435  -0.057312   0.005060  -0.074114  -0.000093
    110       0.024126  -0.008222   0.020828  -0.001425   0.063366  -0.000034
    111       0.023297  -0.001701  -0.080960   0.011527  -0.161528   0.000641
    112      -0.018950  -0.003370   0.135819  -0.018596   0.209769  -0.000387
    113       0.004199   0.008160  -0.069167   0.004576  -0.016001  -0.000033
    114      -0.073131   0.003820   0.035879  -0.008477  -0.193286  -0.001119
    115       0.106398  -0.006835  -0.053082   0.015158   0.261059   0.001054
    116      -0.005482   0.003457  -0.042847   0.005367  -0.023287  -0.001554
    117      -0.154846   0.033002  -0.119467  -0.002433   0.129902  -0.003877
    118       0.216619  -0.050603   0.260115  -0.011509  -0.153994   0.006685
    119      -0.034539   0.011121  -0.082951   0.006949   0.011725  -0.001395
    120       0.088952  -0.045226   0.307572  -0.017886  -0.590654   0.004736
    121      -0.057028   0.016856  -0.067383   0.002524   0.042249  -0.001783
    122      -0.015875   0.013068  -0.109393   0.007181   0.249349  -0.001256
    123      -0.123557  -0.032037   0.349106  -0.036036  -0.197523  -0.000672
    124       0.028396  -0.007703   0.058431  -0.005042   0.075213   0.000012
    125       0.037616   0.013921  -0.126306   0.011922   0.096297  -0.000320
    126      -0.011883  -0.039222  -0.030562   0.031136   0.005594   0.005920
    127      -0.007883   0.019228   0.007049  -0.012532  -0.002582  -0.003620
    128      -0.011352  -0.012443  -0.006017   0.013474   0.002730  -0.003669
    129       0.028454  -0.020795  -0.025712   0.013151   0.003925   0.003780
    130       0.000204   0.009815   0.014597  -0.004651  -0.001872  -0.005302
    131      -0.041831   0.020885   0.032789  -0.010959  -0.003896  -0.005992
    132      -0.072111   0.012572   0.052151  -0.019566   0.001351   0.018731
    133       0.034069  -0.015178  -0.021753   0.017292  -0.000935  -0.014071
    134      -0.085782   0.014636   0.024269  -0.013025  -0.000200   0.008172
    135      -0.069391   0.028675   0.041625  -0.040759  -0.013810   0.021982
    136       0.015865  -0.012943  -0.030383   0.023067   0.009133  -0.012854
    137      -0.015727  -0.014827  -0.034400   0.026213   0.013176  -0.014378
    138      -0.015212  -0.160992   0.002183   0.165207   0.000945  -0.159177
    139       0.039972   0.279071  -0.005376  -0.253373  -0.001618   0.272761
    140       0.053417   0.031239  -0.000551  -0.022485   0.000846   0.055236
    141       0.291622   0.096887  -0.010018  -0.202188   0.001463   0.065088
    142      -0.603946  -0.181917   0.017598   0.310147  -0.001601  -0.022289
    143      -0.160575  -0.048136   0.002958   0.068763  -0.000108   0.007936
    144      -0.322402  -0.385031   0.016697   0.484262   0.000911  -0.300179
    145       0.166554   0.135015  -0.009780  -0.201022   0.000076   0.201989
    146      -0.073692  -0.109762   0.003297   0.131097   0.000374  -0.034216
    147       0.096539  -0.267327  -0.002085   0.257090   0.002794  -0.294540
    148      -0.014902   0.106364  -0.002963  -0.137476  -0.000826   0.181545
    149      -0.008521  -0.134996   0.001989   0.145069   0.000992  -0.170282
    150       0.003251  -0.068060   0.000748   0.060103   0.000364  -0.047677
    151      -0.002670   0.023432  -0.000402  -0.025771  -0.000155   0.039652
    152       0.000119   0.003110  -0.000007  -0.002830  -0.000016   0.003497
    153       0.043270  -0.083131   0.005402   0.185262   0.000872  -0.457175
    154       0.010952  -0.023420   0.001540   0.052997   0.000235  -0.127611
    155       0.004999  -0.016320   0.000695   0.027591   0.000142  -0.057104
    156       0.000011   0.009287  -0.000108  -0.008110  -0.000060  -0.008376
    157      -0.007039  -0.074424  -0.005571  -0.081888   0.000005   0.022920
    158      -0.012665  -0.121601  -0.007777  -0.112841  -0.000090   0.024011
    159       0.000751   0.004551  -0.001740  -0.029144   0.000180   0.022970
    160      -0.002294  -0.035168  -0.004373  -0.063315   0.000235   0.038447
    161      -0.004019  -0.045997  -0.002016  -0.023438   0.000039   0.012428
    162       0.001170   0.023438   0.001229   0.022846   0.000318   0.044418
    163      -0.000253  -0.018745   0.000272   0.036921   0.000975   0.136863
    164      -0.002649  -0.067329  -0.002067   0.001523   0.000728   0.100130
    165      -0.002147  -0.017702  -0.000475   0.010396   0.000585   0.084335
    166      -0.004275  -0.049664  -0.001821  -0.002704   0.000639   0.091397
    167      -0.001777  -0.049622  -0.002719  -0.041072  -0.000242  -0.037835
    168      -0.002634  -0.044853  -0.002334  -0.036490  -0.000298  -0.046514
    169      -0.006622  -0.129112  -0.006595  -0.088646  -0.000268  -0.048520
    170      -0.000036  -0.012986  -0.000724  -0.007961   0.000054   0.002937
    171       0.005494   0.068705   0.003190   0.040009   0.000060  -0.004948
    172       0.004545   0.063569   0.003078   0.039542   0.000082   0.003675
    173      -0.003823  -0.035827  -0.001540  -0.018425  -0.000016   0.014885
    174      -0.005015  -0.091127  -0.004637  -0.063096  -0.000226  -0.036629
    175      -0.004869  -0.095198  -0.004963  -0.070339  -0.000352  -0.057127
    176      -0.001265  -0.035869  -0.001850  -0.020541   0.000101   0.009818
                126        127        128        129        130        131    
      0       0.001090   0.000312  -0.019084   0.006275  -0.002177   0.021403
      1      -0.001554  -0.013715   0.002916  -0.001397   0.000521  -0.005046
      2       0.000488   0.012125   0.009017  -0.000918   0.000213   0.000039
      3      -0.004636  -0.030662  -0.007047  -0.001223   0.000526  -0.006226
      4       0.000191  -0.008620  -0.016590   0.003436  -0.001046   0.009282
      5       0.005067   0.059244   0.046255  -0.007281   0.002168  -0.016814
      6       0.010705   0.050965  -0.070346   0.022742  -0.007446   0.068859
      7      -0.001203   0.000285   0.000155  -0.001997   0.000643  -0.009868
      8      -0.004070  -0.022327   0.044917  -0.011597   0.003651  -0.031183
      9      -0.003726  -0.060239   0.060208  -0.019630   0.006709  -0.059870
     10      -0.004647  -0.003986   0.002117  -0.004224   0.001580  -0.016795
     11       0.010950   0.041947  -0.033265   0.021507  -0.007969   0.078422
     12       0.009494   0.065796  -0.060139   0.020319  -0.006903   0.063965
     13      -0.007666  -0.059637   0.044281  -0.011950   0.003869  -0.032606
     14      -0.004172  -0.011020   0.016166  -0.011109   0.004086  -0.043736
     15      -0.000347   0.002206   0.020208  -0.005325   0.001853  -0.015834
     16       0.001438   0.006286  -0.021372   0.003088  -0.000699   0.000518
     17      -0.001383  -0.013886  -0.001255   0.000722  -0.000328   0.002798
     18      -0.010186   0.015377  -0.020697   0.001238  -0.000564  -0.004733
     19       0.005917  -0.001995  -0.000080  -0.000651   0.000549  -0.003729
     20       0.012642   0.003591  -0.043251  -0.016237   0.007744  -0.106497
     21      -0.038156   0.029047  -0.063258  -0.019911   0.008420  -0.097632
     22       0.016429  -0.015642   0.033932   0.009103  -0.003756   0.049612
     23      -0.001042  -0.004725   0.018280   0.003062  -0.000303   0.033826
     24       0.032568  -0.032092   0.069487   0.016576  -0.006046   0.102631
     25      -0.019288   0.015645  -0.032279  -0.007884   0.002744  -0.046774
     26      -0.008543   0.008005  -0.004026   0.004396  -0.003828   0.011357
     27       0.030774  -0.008609  -0.000024  -0.002528   0.002318  -0.026172
     28      -0.006393   0.003670  -0.007645  -0.001329   0.000953  -0.009194
     29       0.002118   0.002620  -0.041113  -0.018516   0.009337  -0.105984
     30      -0.016342   0.035095  -0.074843  -0.018078   0.011444  -0.099534
     31       0.008786  -0.015708   0.036188   0.009633  -0.005897   0.052113
     32       0.005606   0.004381   0.007877   0.007501  -0.001785   0.037689
     33       0.033211  -0.024568   0.065029   0.022861  -0.011449   0.111196
     34      -0.018602   0.012092  -0.030355  -0.010801   0.005072  -0.051398
     35      -0.025361   0.001658   0.002464  -0.001696  -0.001151   0.005310
     36      -0.125132   0.006444   0.009293  -0.012269   0.005763   0.038923
     37      -0.004066  -0.003238   0.008802  -0.003365  -0.002016   0.016084
     38      -0.037893  -0.004015   0.018232  -0.001435   0.000628   0.036093
     39       0.105655  -0.003202  -0.009473   0.007916  -0.012587  -0.028888
     40      -0.105201   0.004936   0.001312  -0.006627   0.016602   0.008175
     41      -0.002865   0.002457  -0.007975  -0.000294  -0.004572  -0.017624
     42      -0.002032  -0.000448   0.004476   0.026873   0.021514  -0.006232
     43       0.004947  -0.000672   0.008585   0.082673   0.039578  -0.029728
     44       0.015228  -0.000817   0.001419   0.004887  -0.001370   0.000471
     45      -0.016074   0.000237   0.002350  -0.002326  -0.027300   0.006795
     46       0.032780  -0.000793  -0.004167  -0.015881   0.014218   0.002547
     47       0.017997  -0.000569  -0.002111  -0.012986  -0.000425   0.003906
     48       0.041111  -0.000896  -0.011678  -0.032911   0.075263  -0.016467
     49      -0.019279   0.000800   0.003009   0.018581  -0.007856  -0.004657
     50      -0.004229   0.000296  -0.000175   0.005042   0.005791  -0.004658
     51       0.085066  -0.002855  -0.002256   0.024478  -0.038215  -0.017142
     52      -0.000808  -0.001189   0.004153   0.003451  -0.001261   0.007137
     53       0.010944  -0.001047   0.002078   0.005686  -0.005716   0.001367
     54      -0.000768  -0.006096   0.008185  -0.002522   0.000794  -0.007824
     55       0.002028   0.002981  -0.000592   0.003755  -0.001410   0.016756
     56      -0.001306   0.000750  -0.003461  -0.001697   0.000719  -0.009124
     57      -0.010402   0.000987  -0.001119  -0.001828   0.003521  -0.000834
     58       0.010466   0.001419  -0.007585  -0.006756   0.005027  -0.012742
     59       0.004724   0.000838  -0.004066  -0.003851   0.002725  -0.006525
     60      -0.004156   0.000783  -0.001758  -0.003645   0.005654   0.002700
     61       0.016896   0.000065  -0.005387   0.004691   0.048972  -0.020458
     62       0.005760   0.000108  -0.002218   0.001307   0.019869  -0.007346
     63       0.011824  -0.000353   0.000545   0.005985  -0.016351  -0.003587
     64       0.005037  -0.000545   0.000733  -0.004230   0.002728   0.004121
     65       0.002560  -0.000241   0.000454  -0.000858  -0.001695   0.001276
     66      -0.053918   0.000663   0.009321   0.011125  -0.020540   0.021792
     67      -0.044114   0.000536   0.007972   0.011073  -0.057253   0.013543
     68      -0.021439   0.000296   0.004194   0.009363  -0.039815   0.002647
     69       0.022545  -0.000268  -0.001612   0.008374  -0.037109  -0.016678
     70       0.024397  -0.000236  -0.003535  -0.004751   0.020019  -0.003983
     71       0.003293  -0.000088  -0.003197  -0.023088   0.092019   0.020741
     72       0.019716  -0.000662  -0.002907   0.002290   0.037598  -0.012777
     73      -0.016554   0.000544   0.001884  -0.001056  -0.018455   0.007606
     74      -0.004661   0.000150   0.000519  -0.000370  -0.004414   0.002173
     75      -0.007038   0.000189   0.000904  -0.000440  -0.009562   0.003081
     76       0.004249  -0.000116  -0.000683  -0.000025   0.006923  -0.002201
     77       0.001141  -0.000028  -0.000189   0.000004   0.002007  -0.000631
     78      -0.000904   0.000011   0.000555  -0.000025  -0.007913   0.002117
     79       0.002873  -0.000184   0.000370  -0.000371  -0.005516   0.001197
     80       0.000862  -0.000051   0.000130  -0.000319  -0.002535   0.000565
     81       0.005167  -0.000112  -0.002223  -0.017251   0.067649   0.016804
     82       0.020831  -0.000359  -0.005857  -0.032181   0.126169   0.023758
     83       0.016359  -0.000233  -0.003360  -0.010206   0.040802   0.000937
     84      -0.007615   0.000146   0.001504   0.012495  -0.045378  -0.013761
     85      -0.016574   0.000297   0.004444   0.030867  -0.117732  -0.029202
     86      -0.009209   0.000153   0.003314   0.018208  -0.073143  -0.012956
     87      -0.001710   0.000051   0.002200   0.015935  -0.065314  -0.013931
     88      -0.012073   0.000161   0.002799   0.009483  -0.038073  -0.002726
     89      -0.012358   0.000099  -0.000435  -0.017135   0.070994   0.022108
     90      -0.003556  -0.000028  -0.000974  -0.015531   0.061462   0.017934
     91       0.010929  -0.000330  -0.004629  -0.033200   0.127847   0.027270
     92       0.020504  -0.000371  -0.004275  -0.015397   0.056707   0.003400
     93       0.002619   0.000016  -0.000124   0.010023  -0.039269  -0.016069
     94       0.002017   0.000108   0.001646   0.027134  -0.106021  -0.032639
     95      -0.002357   0.000126   0.002381   0.017366  -0.067450  -0.013606
     96       0.002931  -0.000026  -0.000719  -0.004661   0.018313   0.005115
     97       0.005479  -0.000038  -0.000823  -0.002935   0.011683   0.002739
     98       0.001813  -0.000002   0.000235   0.004660  -0.018166  -0.005747
     99      -0.003387   0.000037   0.000912   0.002051  -0.008798   0.002587
    100      -0.002793   0.000011   0.000272  -0.002575   0.010112   0.006101
    101       0.002822  -0.000066  -0.001371  -0.007325   0.029934   0.003174
    102      -0.013191  -0.097053   0.071383  -0.033046   0.011954  -0.124334
    103       0.009322   0.090789   0.006628   0.010280  -0.004207   0.052887
    104      -0.001201  -0.020248  -0.029940   0.007109  -0.002321   0.020110
    105      -0.006172  -0.054924   0.005442  -0.011798   0.004533  -0.054692
    106      -0.004810  -0.013642   0.028801  -0.014244   0.005063  -0.055611
    107      -0.007573  -0.097675   0.013519  -0.015898   0.006207  -0.071744
    108       0.030542   0.384433   0.379510  -0.063238   0.018264  -0.147821
    109       0.020830   0.310159   0.297066  -0.052119   0.015825  -0.127135
    110      -0.013782  -0.212017  -0.216215   0.038079  -0.011429   0.092574
    111      -0.004508  -0.022553   0.042204  -0.012261   0.003971  -0.035567
    112      -0.010596  -0.162699  -0.206368   0.038948  -0.011824   0.097878
    113      -0.038175  -0.530959  -0.509980   0.088194  -0.026298   0.211925
    114      -0.025366  -0.175282   0.112930  -0.031252   0.010184  -0.078712
    115       0.055998   0.357583  -0.273188   0.093250  -0.031495   0.286778
    116       0.006856   0.007368  -0.058138   0.040162  -0.014260   0.180211
    117      -0.046975  -0.303025   0.292344  -0.107407   0.037031  -0.364117
    118       0.030596   0.225765  -0.158746   0.035697  -0.011869   0.073218
    119      -0.000909  -0.009659  -0.020939   0.015477  -0.005345   0.072634
    120       0.002181   0.008404  -0.097636   0.016812  -0.005172   0.029677
    121       0.006166   0.056937   0.082225  -0.001205  -0.001698   0.053077
    122      -0.005168  -0.044874  -0.014743  -0.006564   0.003518  -0.052423
    123      -0.005015  -0.042581   0.034290   0.001191  -0.001752   0.030032
    124       0.010580   0.094449   0.039250   0.004391  -0.002925   0.056312
    125       0.007535   0.074650   0.047429  -0.000868  -0.000851   0.034133
    126       0.036230  -0.032036   0.101471   0.046397  -0.025588   0.200359
    127      -0.008958   0.015349  -0.039711  -0.014460   0.008601  -0.063400
    128       0.034735  -0.037440   0.103429   0.034292  -0.016173   0.180138
    129      -0.015863   0.032324  -0.079166  -0.011957   0.001591  -0.121869
    130       0.023141  -0.021917   0.054601   0.012734  -0.003049   0.088443
    131       0.039107  -0.050529   0.132205   0.032332  -0.012014   0.219222
    132       0.021492  -0.075408   0.155275   0.034382  -0.029504   0.191571
    133      -0.017691   0.031614  -0.061464  -0.014068   0.013745  -0.069288
    134       0.026546  -0.046161   0.116761   0.033910  -0.021915   0.181782
    135      -0.082721   0.034456  -0.080844  -0.027578   0.005999  -0.133735
    136       0.051007  -0.028710   0.063158   0.019758  -0.005674   0.099655
    137       0.071037  -0.051243   0.134275   0.043412  -0.017346   0.227780
    138      -0.231961   0.010569   0.001658  -0.038254   0.015952   0.027052
    139       0.646188  -0.023069  -0.032213   0.094784  -0.058710  -0.137633
    140       0.055211  -0.010219   0.030069   0.051321   0.077509   0.053919
    141      -0.441061   0.008944   0.051643   0.014611   0.116396   0.125170
    142       0.406629  -0.015580  -0.005203   0.008592  -0.043281  -0.001447
    143       0.048872  -0.002899   0.008933   0.006592   0.010996   0.029067
    144       0.079773  -0.002869  -0.006541  -0.028734  -0.016041   0.000603
    145       0.040515   0.001327  -0.056405  -0.508635  -0.293844   0.173173
    146       0.073067  -0.000327  -0.047361  -0.416592  -0.241185   0.139115
    147      -0.108831   0.007110  -0.028591  -0.236246  -0.154327   0.074874
    148       0.116953  -0.002785  -0.049815  -0.473676  -0.294807   0.167697
    149      -0.091790   0.002294   0.041696   0.402990   0.234601  -0.144142
    150      -0.005543   0.000516   0.000474  -0.000260  -0.020511   0.005121
    151       0.002995  -0.000313  -0.000434  -0.000421   0.013805  -0.003433
    152       0.000007  -0.000047   0.000022   0.000517   0.003033  -0.000791
    153      -0.037006   0.001519   0.005232  -0.000123  -0.071261   0.021833
    154      -0.010209   0.000500   0.001442  -0.000018  -0.022298   0.006944
    155      -0.004349   0.000250   0.000575   0.000233  -0.010442   0.002848
    156       0.004005  -0.000166  -0.001296  -0.012471   0.045332   0.013300
    157      -0.026338   0.000451   0.008646   0.035307  -0.144106  -0.013199
    158      -0.033027   0.000523   0.012710   0.067795  -0.274227  -0.045813
    159      -0.002748  -0.000157  -0.002476  -0.043670   0.166363   0.056417
    160      -0.012768   0.000014  -0.000048  -0.037620   0.139969   0.058225
    161      -0.011802   0.000217   0.004704   0.032421  -0.127639  -0.028973
    162      -0.016154   0.000188   0.002093  -0.003350   0.015527   0.013777
    163      -0.067995   0.001200   0.016029   0.059537  -0.225177  -0.015548
    164      -0.061955   0.001234   0.017825   0.086474  -0.331426  -0.046236
    165      -0.026382   0.000140   0.000112  -0.045449   0.178224   0.067117
    166      -0.037175   0.000368   0.002505  -0.039573   0.157916   0.070128
    167       0.004485   0.000077   0.002459   0.029625  -0.116627  -0.031070
    168       0.025596  -0.000549  -0.009895  -0.043930   0.182046   0.004455
    169       0.008071   0.000040   0.000952   0.029965  -0.121650  -0.045278
    170      -0.007341   0.000240   0.004304   0.029118  -0.119802  -0.019291
    171       0.006192  -0.000026  -0.001842   0.007996  -0.030291  -0.029664
    172       0.003641  -0.000064  -0.001453   0.000789  -0.003126  -0.013337
    173      -0.008438   0.000049   0.001908  -0.012792   0.050344   0.038959
    174       0.008214  -0.000040  -0.000781   0.010941  -0.043263  -0.024570
    175       0.020302  -0.000277  -0.005515  -0.009611   0.042090  -0.022996
    176      -0.017438   0.000531   0.009368   0.059165  -0.242938  -0.034829
                132        133        134        135        136        137    
      0       0.002136  -0.015880   0.000090  -0.000704   0.072911  -0.000182
      1      -0.000846  -0.004805  -0.000003   0.000055  -0.006469   0.000014
      2       0.000085  -0.012150   0.000049  -0.000365   0.031047  -0.000050
      3      -0.000919  -0.004235   0.000008  -0.000021   0.013699  -0.000037
      4       0.001391   0.009336   0.000002  -0.000035   0.001750   0.000001
      5      -0.001628  -0.007851  -0.000002   0.000024  -0.007402   0.000031
      6       0.006453   0.001716   0.000024  -0.000191  -0.027271   0.000060
      7      -0.002009   0.001595  -0.000053   0.000480  -0.001039  -0.000040
      8      -0.002233  -0.001673   0.000014  -0.000151   0.013965  -0.000016
      9      -0.004143   0.002497   0.000064  -0.000558   0.021768   0.000069
     10      -0.002033   0.006116  -0.000050   0.000440   0.005887  -0.000025
     11       0.007883  -0.006546   0.000047  -0.000339  -0.022165  -0.000024
     12       0.006091  -0.002516   0.000049  -0.000318  -0.019164   0.000104
     13      -0.002602  -0.006909   0.000021  -0.000154   0.015988  -0.000010
     14      -0.005756   0.003420  -0.000097   0.000747  -0.003100  -0.000140
     15      -0.001725  -0.009269   0.000015  -0.000068   0.005538   0.000010
     16      -0.005378  -0.081132   0.000049  -0.000171  -0.027169   0.000095
     17      -0.000084  -0.006020   0.000006  -0.000033   0.005171  -0.000036
     18      -0.004891   0.000633  -0.000268   0.002303  -0.003228  -0.000368
     19       0.000905  -0.000399   0.000103  -0.000885   0.000772   0.000172
     20      -0.017945   0.008143  -0.000295   0.002349   0.008903  -0.000016
     21      -0.012327   0.007020  -0.000108   0.000788   0.008968   0.000147
     22       0.007765  -0.003470   0.000124  -0.000982  -0.003776  -0.000009
     23       0.011966  -0.001919   0.000427  -0.003625  -0.000351   0.000361
     24       0.022165  -0.005853   0.000591  -0.004911  -0.005682   0.000383
     25      -0.010418   0.002458  -0.000297   0.002469   0.002327  -0.000242
     26      -0.006670  -0.002288  -0.000419   0.003654  -0.004437  -0.000458
     27      -0.004119   0.000827  -0.000025   0.000127   0.002388  -0.000057
     28      -0.000948   0.001302   0.000008  -0.000095   0.001040   0.000044
     29      -0.014218   0.008657  -0.000126   0.000845   0.011320   0.000036
     30      -0.006106   0.005626   0.000280  -0.002670   0.003983   0.000445
     31       0.003669  -0.003086  -0.000113   0.001144  -0.002511  -0.000172
     32       0.009042  -0.003219   0.000297  -0.002516  -0.004201   0.000308
     33       0.011625  -0.006725   0.000052  -0.000175  -0.006688   0.000046
     34      -0.005967   0.003222  -0.000061   0.000432   0.002985  -0.000076
     35      -0.001584  -0.000238  -0.000193   0.001693  -0.000669  -0.000336
     36       0.023249  -0.001866   0.000474  -0.003998  -0.001352  -0.000473
     37       0.006389  -0.001316   0.000154  -0.001186  -0.000729   0.000193
     38       0.012873  -0.002444   0.000220  -0.001650  -0.001614  -0.000003
     39      -0.033437   0.002386  -0.001473   0.013401   0.003168  -0.000238
     40       0.023901  -0.000745   0.000953  -0.008553   0.000189  -0.000178
     41      -0.020326   0.001877  -0.001312   0.012260   0.003982  -0.000291
     42       0.008232  -0.000190   0.000314  -0.003124  -0.000063  -0.000685
     43      -0.009823   0.000937  -0.000464   0.004277   0.000674   0.000191
     44      -0.005188   0.000045  -0.000328   0.002996  -0.000029  -0.000163
     45      -0.034375   0.000579  -0.001971   0.018755   0.000289   0.002068
     46       0.000264   0.000045   0.000743  -0.009157   0.000014  -0.004404
     47      -0.001316  -0.000047   0.000212  -0.002764  -0.000139  -0.001445
     48       0.195867  -0.004116   0.010569  -0.095207  -0.000349   0.006526
     49      -0.010686   0.000284  -0.000503   0.005341  -0.000144   0.002833
     50       0.017264  -0.000290   0.000981  -0.008573  -0.000064   0.001878
     51      -0.092490   0.002727  -0.004242   0.038055   0.000284  -0.001401
     52       0.002185  -0.000604   0.000027  -0.000442  -0.000666   0.000406
     53      -0.011090   0.000045  -0.000545   0.004794  -0.000258   0.000120
     54      -0.000829   0.000022  -0.000006   0.000061   0.003127  -0.000012
     55       0.002429  -0.002852   0.000045  -0.000381  -0.001921   0.000023
     56      -0.001427   0.001920  -0.000032   0.000255  -0.000050  -0.000008
     57       0.009380  -0.000127   0.000425  -0.003771   0.000084   0.000258
     58       0.006301   0.000717   0.000441  -0.003968   0.000909  -0.000316
     59       0.004030   0.000351   0.000268  -0.002378   0.000443  -0.000157
     60      -0.022669   0.000546  -0.000684   0.004685  -0.000450  -0.004933
     61       0.102407  -0.001721   0.005244  -0.044240   0.000717   0.005698
     62       0.036643  -0.000601   0.001942  -0.016443   0.000227   0.001536
     63      -0.004780   0.000180  -0.000185   0.002041   0.000011   0.001974
     64       0.000719  -0.000181   0.000115  -0.002521  -0.000180  -0.000463
     65      -0.000599  -0.000051  -0.000038  -0.000219  -0.000067   0.000190
     66      -0.116723   0.002059  -0.007104   0.063323   0.000098  -0.008251
     67      -0.095091   0.001691  -0.006612   0.062434  -0.000055  -0.002753
     68      -0.037473   0.000690  -0.002950   0.027403   0.000001   0.001574
     69       0.045261  -0.000661   0.002848  -0.028055   0.000000   0.011753
     70       0.017335  -0.000119   0.003499  -0.034790  -0.000014  -0.000961
     71      -0.038300   0.000662   0.000148  -0.004721  -0.000037  -0.020372
     72       0.075258  -0.001372   0.003735  -0.031973   0.000571   0.003076
     73      -0.040705   0.000721  -0.001906   0.016131  -0.000307  -0.002353
     74      -0.011043   0.000194  -0.000495   0.004191  -0.000079  -0.000788
     75      -0.016052   0.000275  -0.000761   0.006594  -0.000066  -0.000456
     76       0.012787  -0.000229   0.000609  -0.005266   0.000070   0.000402
     77       0.003781  -0.000068   0.000178  -0.001559   0.000021   0.000118
     78      -0.014832   0.000280  -0.000769   0.006608  -0.000099  -0.000416
     79      -0.007479   0.000128  -0.000432   0.003713  -0.000039   0.000025
     80      -0.003261   0.000056  -0.000194   0.001622  -0.000022   0.000016
     81      -0.038770   0.000739   0.000685  -0.007683  -0.000028  -0.011678
     82      -0.029471   0.000469   0.001170  -0.013259   0.000010  -0.016192
     83       0.029150  -0.000683   0.000522  -0.000945   0.000059   0.000110
     84       0.046211  -0.001017  -0.001046   0.018605   0.000057   0.011223
     85       0.073133  -0.001490  -0.002224   0.024133   0.000070   0.023842
     86       0.009406  -0.000056   0.000292  -0.001022  -0.000018   0.010800
     87       0.020732  -0.000314  -0.000915   0.001715  -0.000036   0.006620
     88      -0.010143   0.000144  -0.001944   0.022948  -0.000092  -0.013314
     89      -0.051220   0.000762  -0.003380   0.026493  -0.000051  -0.029846
     90      -0.039409   0.000605  -0.001050   0.013868  -0.000043  -0.013238
     91      -0.025615   0.000074  -0.003000   0.027750  -0.000066  -0.026735
     92       0.037744  -0.001000  -0.000417   0.012049  -0.000013  -0.011326
     93       0.054387  -0.001031   0.001265  -0.006194   0.000062   0.006579
     94       0.080060  -0.001316   0.002391  -0.022774   0.000106   0.022547
     95       0.006414   0.000145   0.001981  -0.019273   0.000020   0.017781
     96      -0.023131   0.000624  -0.005818  -0.027222   0.000039   0.005299
     97      -0.019441   0.000619   0.009181  -0.032525   0.000079   0.023195
     98       0.016833  -0.000338  -0.004699   0.002980   0.000035   0.020981
     99      -0.043247   0.001298  -0.034554  -0.063705   0.000125   0.012740
    100      -0.040277   0.001113   0.032249  -0.035369   0.000155   0.036369
    101       0.028502  -0.001025  -0.026987   0.051683  -0.000013   0.024594
    102      -0.010906   0.169340  -0.000720   0.005726  -0.581618   0.001404
    103       0.006956  -0.073139   0.000425  -0.003309   0.327955  -0.000708
    104       0.000044  -0.044657   0.000100  -0.000795   0.081669  -0.000238
    105      -0.005276   0.108266  -0.000462   0.003637  -0.360332   0.000819
    106      -0.006805   0.046060  -0.000298   0.002426  -0.247913   0.000580
    107      -0.005799   0.160534  -0.000635   0.004956  -0.496072   0.001140
    108      -0.013347  -0.029499  -0.000094   0.000743  -0.034003   0.000086
    109      -0.013120  -0.066699   0.000003   0.000047  -0.018000   0.000111
    110       0.009455   0.042790   0.000015  -0.000159   0.013928  -0.000061
    111      -0.002730   0.004025  -0.000006  -0.000011   0.025674  -0.000057
    112       0.008755   0.018612   0.000035  -0.000220   0.004708  -0.000040
    113       0.020051   0.069727   0.000055  -0.000530   0.037292  -0.000167
    114      -0.002037   0.015292   0.000138  -0.001070   0.056068   0.000209
    115       0.024878  -0.029923   0.000173  -0.001203  -0.083559   0.000369
    116       0.035403   0.046683   0.000784  -0.005993   0.084920   0.001506
    117      -0.045000  -0.044826  -0.000541   0.004023   0.024149  -0.001192
    118      -0.002601   0.022925  -0.000438   0.003471  -0.102060  -0.000671
    119       0.014563   0.003139   0.000379  -0.002899   0.041592   0.000713
    120      -0.005158  -0.078436  -0.000039   0.000489  -0.055006   0.000029
    121       0.040893   0.544538  -0.000291   0.000945   0.153461  -0.000554
    122      -0.028933  -0.385158   0.000250  -0.001003  -0.086262   0.000377
    123       0.015123   0.177341  -0.000074   0.000148   0.070736  -0.000264
    124       0.036371   0.483874  -0.000267   0.000979   0.106694  -0.000374
    125       0.030464   0.423213  -0.000237   0.000881   0.105279  -0.000369
    126       0.002549  -0.016588  -0.000961   0.008600  -0.024744  -0.001476
    127       0.001017   0.005129   0.000406  -0.003678   0.007210   0.000613
    128       0.021742  -0.013335   0.000135  -0.000857  -0.015553  -0.000307
    129      -0.043053   0.004533  -0.001533   0.013019   0.000313  -0.001292
    130       0.025424  -0.003873   0.000844  -0.007186  -0.002164   0.000779
    131       0.050426  -0.012482   0.001385  -0.011548  -0.011112   0.000955
    132      -0.003956  -0.010935  -0.001423   0.013052  -0.009685  -0.001578
    133       0.007766   0.003729   0.000882  -0.008015   0.003086   0.000711
    134       0.010958  -0.011497  -0.000493   0.004818  -0.011520  -0.000578
    135      -0.033704   0.011224  -0.001219   0.010368   0.005491  -0.001336
    136       0.021821  -0.008867   0.000696  -0.005830  -0.004411   0.000735
    137       0.038343  -0.016705   0.000864  -0.007017  -0.012068   0.000775
    138       0.039170  -0.001269   0.001206  -0.010458   0.002155  -0.000564
    139      -0.176045   0.010309  -0.007758   0.070443   0.010272  -0.000043
    140       0.167529  -0.011478   0.012636  -0.119482  -0.035520   0.002923
    141       0.238693  -0.015303   0.013874  -0.128921  -0.032384   0.002742
    142      -0.016260  -0.001397   0.001843  -0.019210  -0.014159   0.000836
    143       0.053665  -0.004310   0.004269  -0.040533  -0.014176   0.001239
    144       0.030552  -0.000705   0.002030  -0.017529  -0.000955   0.002379
    145       0.022539  -0.004326   0.000262  -0.000217  -0.003740   0.002264
    146       0.027021  -0.003690   0.000962  -0.006787  -0.003296   0.002533
    147       0.000097  -0.001156  -0.000927   0.011902  -0.000405   0.004893
    148      -0.001042  -0.003925  -0.000847   0.010008  -0.004033   0.002378
    149      -0.014525   0.003869  -0.000301   0.001644   0.003873  -0.000941
    150      -0.046082   0.000951  -0.002570   0.022272  -0.000584  -0.001413
    151       0.032410  -0.000674   0.001783  -0.015412   0.000401   0.001035
    152       0.006054  -0.000123   0.000359  -0.003071   0.000098   0.000140
    153      -0.146610   0.002786  -0.007294   0.062658  -0.001224  -0.005262
    154      -0.049582   0.000965  -0.002500   0.021368  -0.000473  -0.002006
    155      -0.022482   0.000448  -0.001150   0.009885  -0.000226  -0.000801
    156      -0.040788   0.000878   0.000257  -0.015945  -0.000019  -0.010093
    157      -0.063229   0.001813   0.002908  -0.031497  -0.000129   0.008674
    158       0.011374   0.000432   0.001325  -0.023716  -0.000056   0.031515
    159      -0.180594   0.003633  -0.000087  -0.021688  -0.000195  -0.048090
    160      -0.213932   0.004405   0.001294  -0.023929  -0.000266  -0.049919
    161       0.055317  -0.000976  -0.000860   0.006856   0.000033   0.023922
    162      -0.061033   0.001203  -0.018287   0.003021  -0.000024  -0.000373
    163      -0.132733   0.003571   0.015484  -0.043743   0.000032   0.070695
    164      -0.066002   0.002538  -0.003595  -0.070338   0.000113   0.096122
    165      -0.211092   0.003979  -0.001857   0.014052  -0.000137  -0.032562
    166      -0.251546   0.004958  -0.002335   0.000245  -0.000174  -0.024105
    167       0.056445  -0.000746   0.003309  -0.027067   0.000071   0.027835
    168       0.336385  -0.011102  -0.219417   0.529808  -0.000114   0.276924
    169       0.203561  -0.005204  -0.453289   0.060487  -0.001151  -0.419752
    170      -0.055906   0.002421  -0.112976  -0.193752  -0.000451  -0.297012
    171       0.240358  -0.006610   0.500767   0.337459  -0.001173  -0.329165
    172       0.131474  -0.003927  -0.393722   0.086078  -0.000537  -0.166259
    173      -0.298168   0.008466   0.310983  -0.265117   0.001331   0.391105
    174       0.155484  -0.004105   0.249054   0.185276  -0.000673  -0.182079
    175       0.317308  -0.009358   0.339384   0.467709  -0.000821  -0.080475
    176      -0.157271   0.006336   0.222046  -0.370985  -0.000759  -0.546714
                138        139        140        141        142        143    
      0      -0.003948   0.016186  -0.000653  -0.000738  -0.000109  -0.000068
      1       0.000193   0.001221  -0.000125  -0.000082   0.000006   0.000053
      2      -0.000895  -0.003728   0.000568   0.000731   0.000108   0.000092
      3      -0.000786  -0.006815   0.004136   0.005979   0.000959   0.001051
      4      -0.000067   0.003978  -0.002499  -0.003659  -0.000598  -0.000630
      5       0.000516  -0.002175  -0.000767  -0.001007  -0.000143  -0.000117
      6       0.000900   0.046232  -0.013034  -0.018413  -0.002787  -0.002696
      7      -0.001642  -0.011008   0.014642   0.021740   0.003674   0.004035
      8       0.000687  -0.017096  -0.002565  -0.004554  -0.001001  -0.001502
      9       0.001506  -0.039225  -0.015025  -0.022237  -0.004114  -0.005343
     10      -0.001139  -0.013860   0.011677   0.016446   0.002786   0.003019
     11       0.001535   0.045489  -0.003104  -0.003530  -0.000355   0.000355
     12       0.003878  -0.013648   0.000542  -0.000021  -0.000034  -0.000149
     13       0.000373  -0.020051   0.003211   0.004521   0.000652   0.000657
     14      -0.006340   0.058797  -0.005950  -0.007155  -0.000970  -0.000658
     15      -0.000084  -0.004929  -0.000037  -0.000020  -0.000000   0.000001
     16       0.002291  -0.005572  -0.001654  -0.002479  -0.000415  -0.000471
     17      -0.000574   0.005612   0.000788   0.001206   0.000196   0.000223
     18      -0.008312   0.011591   0.087338   0.131672   0.022941   0.029687
     19       0.002682  -0.004369  -0.041134  -0.061971  -0.010786  -0.014073
     20      -0.011159  -0.012036  -0.002070  -0.003558  -0.000508  -0.002352
     21      -0.004005  -0.019235  -0.057555  -0.097609  -0.017945  -0.029713
     22       0.004017   0.007914   0.017256   0.032140   0.006159   0.012143
     23       0.011522  -0.003939  -0.061585  -0.087524  -0.014782  -0.014393
     24       0.018929   0.008055  -0.051514  -0.059543  -0.008662   0.001699
     25      -0.009899  -0.003017   0.034090   0.042294   0.006507   0.001592
     26      -0.010498   0.009179   0.078404   0.107427   0.017612   0.013141
     27      -0.014704   0.000180   0.086759   0.129040   0.021764   0.024748
     28       0.004079  -0.003017  -0.043826  -0.064285  -0.010892  -0.012562
     29      -0.008447  -0.015613  -0.019497  -0.031124  -0.005640  -0.006967
     30       0.000580  -0.005095  -0.066718  -0.083548  -0.012921  -0.004586
     31       0.001163   0.002915   0.024823   0.029982   0.004551   0.000873
     32       0.008246   0.002621  -0.052451  -0.071385  -0.011549  -0.009729
     33       0.007204   0.003471  -0.034831  -0.061268  -0.011290  -0.020625
     34      -0.003996  -0.001173   0.026023   0.042339   0.007536   0.011940
     35      -0.002704   0.005608   0.063070   0.091430   0.015432   0.018446
     36       0.038366   0.005134  -0.023335  -0.022773  -0.002526  -0.008604
     37       0.011274   0.002928   0.011776   0.018323   0.002747  -0.000753
     38       0.026086   0.005316   0.001414   0.012046   0.003112   0.004773
     39       0.023870   0.000005   0.000475   0.003242   0.001488   0.001532
     40       0.017904   0.001793  -0.015307   0.009474   0.003566   0.034534
     41       0.062291   0.003973  -0.000952   0.009900   0.002579   0.006349
     42       0.001997  -0.000018  -0.075161   0.032950   0.035211  -0.105073
     43       0.002484  -0.000124   0.012915  -0.004401  -0.002243  -0.065567
     44       0.001410   0.000146  -0.007606   0.002803   0.005587  -0.049915
     45       0.007505   0.001577   0.233526  -0.105208  -0.099368   0.282956
     46      -0.005285  -0.002033  -0.154922   0.038914   0.040130   0.404165
     47      -0.003525  -0.000731  -0.035853   0.004053   0.004557   0.183675
     48       0.028682   0.004231  -0.133931   0.088204   0.021846  -0.003455
     49      -0.005076   0.000299   0.120148  -0.031381  -0.042954  -0.395417
     50       0.000729   0.000526   0.032292  -0.001829  -0.015359  -0.156408
     51      -0.044441  -0.006535   0.040781  -0.043313  -0.011218  -0.002112
     52       0.009797   0.003519   0.018662   0.020956  -0.002142  -0.089525
     53       0.000167   0.000924   0.015098   0.002995  -0.003489  -0.059859
     54      -0.000229  -0.006545   0.002707   0.003902   0.000603   0.000616
     55       0.001478   0.011618  -0.009506  -0.013982  -0.002344  -0.002482
     56      -0.000964  -0.006145   0.005899   0.008737   0.001499   0.001642
     57       0.004154   0.000534  -0.000487   0.002944  -0.000163  -0.015163
     58      -0.008242  -0.003121  -0.030419  -0.007714   0.007201   0.110502
     59      -0.004434  -0.001594  -0.015792  -0.003665   0.003768   0.059071
     60      -0.019948  -0.002883  -0.193132   0.082102   0.082285  -0.242255
     61       0.029665   0.004371   0.196509  -0.055302  -0.106708  -0.061504
     62       0.009517   0.001419   0.057459  -0.013649  -0.033119  -0.045580
     63      -0.001359  -0.000113   0.013184  -0.007936  -0.010426   0.040466
     64      -0.001146  -0.000333  -0.044925   0.013350   0.022784   0.048623
     65      -0.000607  -0.000156  -0.015816   0.004045   0.008606   0.021939
     66      -0.010946  -0.001640   0.049081  -0.038548   0.033412  -0.002532
     67      -0.015302  -0.002192  -0.024665  -0.013332   0.084989   0.046446
     68      -0.006433  -0.000940  -0.006671  -0.007814   0.036111   0.018150
     69       0.003154   0.000351  -0.030552   0.024557  -0.063416  -0.000605
     70       0.002946   0.000313  -0.044296   0.044795  -0.146205  -0.018477
     71      -0.000086  -0.000033  -0.021788   0.022183  -0.070609   0.005451
     72       0.022198   0.002636   0.096253  -0.028780  -0.055192   0.006665
     73      -0.011313  -0.001349  -0.061697   0.023531   0.028172  -0.063253
     74      -0.002871  -0.000346  -0.016464   0.006533   0.006724  -0.018810
     75      -0.002367  -0.000224   0.006955  -0.005409  -0.007279   0.048180
     76       0.002599   0.000270   0.005237  -0.000871  -0.002708  -0.005683
     77       0.000822   0.000086   0.002177  -0.000602  -0.001412   0.000992
     78      -0.004390  -0.000551  -0.017677   0.003662   0.012053   0.018401
     79      -0.002112  -0.000335  -0.006861  -0.001505   0.006668   0.042237
     80      -0.000945  -0.000140  -0.003278  -0.000287   0.002946   0.015030
     81      -0.000279  -0.000008  -0.002647   0.004681  -0.018852   0.000112
     82       0.003498   0.000551   0.039367  -0.023818   0.055188  -0.007347
     83       0.004729   0.000713   0.060181  -0.042186   0.111061  -0.011730
     84       0.001553   0.000242   0.039940  -0.031471   0.089837  -0.010018
     85       0.000803   0.000122   0.029854  -0.027701   0.090400  -0.003271
     86      -0.001981  -0.000301  -0.033584   0.021074  -0.045719   0.013215
     87      -0.001794  -0.000288  -0.044636   0.030869  -0.075964   0.017657
     88      -0.005823  -0.000878  -0.061737   0.046336  -0.141319   0.003709
     89      -0.004368  -0.000642   0.000103   0.004590  -0.047303  -0.027144
     90      -0.002293  -0.000266   0.002245  -0.000904  -0.005329  -0.009737
     91      -0.000140   0.000089   0.027884  -0.022034   0.068905  -0.001061
     92       0.004001   0.000617   0.034450  -0.028183   0.100736   0.014905
     93       0.004515   0.000592   0.029466  -0.022886   0.076102   0.014340
     94       0.005817   0.000738   0.026211  -0.020843   0.073107   0.015394
     95      -0.000462  -0.000084  -0.019885   0.015133  -0.044815  -0.006849
     96       0.001820   0.000238   0.011715  -0.007866   0.022657  -0.001625
     97       0.002677   0.000413   0.015670  -0.011215   0.036899   0.000693
     98       0.000203   0.000105  -0.000649  -0.000496   0.007484   0.003933
     99       0.003323   0.000259   0.009450  -0.006719   0.019186   0.000031
    100       0.002105   0.000222   0.008342  -0.005950   0.016567  -0.001004
    101      -0.003237  -0.000189  -0.005970   0.004279  -0.012996  -0.001433
    102       0.029835  -0.097649   0.000567  -0.000259  -0.000062  -0.000240
    103      -0.014717   0.026777   0.001369   0.002151   0.000326   0.000350
    104      -0.005304   0.029204  -0.001354  -0.001476  -0.000208  -0.000105
    105       0.017473  -0.048354  -0.000023  -0.000675  -0.000156  -0.000307
    106       0.012878  -0.048533   0.002377   0.002624   0.000323   0.000131
    107       0.023798  -0.053632  -0.003230  -0.005146  -0.000803  -0.000898
    108       0.002672  -0.041887   0.005966   0.006991   0.000845  -0.000158
    109       0.002255  -0.029004   0.001360   0.001899   0.000314   0.000372
    110      -0.001591   0.024222  -0.003542  -0.004787  -0.000729  -0.000637
    111      -0.001077  -0.014072   0.000630   0.000320  -0.000111  -0.000331
    112      -0.001105   0.027560   0.000290   0.001279   0.000403   0.000838
    113      -0.003806   0.057523  -0.005702  -0.007208  -0.001023  -0.000552
    114       0.008656  -0.157716   0.017238   0.022194   0.003133   0.002458
    115       0.013902  -0.028290  -0.001643  -0.004906  -0.000883  -0.001346
    116       0.056658  -0.686383   0.061372   0.073004   0.009821   0.005799
    117      -0.045793   0.449933  -0.047932  -0.056898  -0.007989  -0.005153
    118      -0.025670   0.373271  -0.031682  -0.038760  -0.005167  -0.003474
    119       0.026528  -0.322583   0.028797   0.034241   0.004623   0.002893
    120       0.000410   0.025081  -0.000831  -0.001135  -0.000185  -0.000243
    121      -0.013314   0.049826   0.000802   0.001760   0.000290   0.000447
    122       0.009333  -0.043051  -0.000595  -0.001261  -0.000226  -0.000332
    123      -0.004145   0.004484   0.008065   0.011228   0.001711   0.001638
    124      -0.009931   0.037550  -0.003203  -0.004178  -0.000652  -0.000584
    125      -0.010479   0.044293  -0.003640  -0.004422  -0.000611  -0.000385
    126      -0.018673   0.051283   0.260775   0.378193   0.064109   0.069742
    127       0.009165  -0.017702  -0.109545  -0.158698  -0.026947  -0.028855
    128       0.007460   0.027613   0.072129   0.113833   0.020078   0.028863
    129      -0.046968   0.012788   0.235935   0.321131   0.052260   0.035219
    130       0.027239  -0.004348  -0.131423  -0.177848  -0.029188  -0.023157
    131       0.045904   0.007881  -0.155531  -0.200087  -0.031479  -0.013599
    132      -0.010899   0.024397   0.267067   0.358655   0.058557   0.043247
    133       0.000715  -0.011139  -0.116252  -0.154703  -0.025395  -0.015367
    134       0.006162   0.017475   0.088306   0.113143   0.018166   0.008531
    135      -0.027800   0.007197   0.220895   0.312530   0.052128   0.054755
    136       0.018705   0.003824  -0.126014  -0.178492  -0.029769  -0.032136
    137       0.027875   0.005522  -0.141683  -0.207942  -0.035322  -0.041987
    138       0.077976   0.006822  -0.021782   0.016496   0.001999   0.083922
    139       0.042000  -0.002942   0.023570   0.005675   0.012917  -0.161080
    140      -0.705461  -0.053491   0.038472  -0.113553  -0.037296   0.044015
    141      -0.523584  -0.034824   0.015366  -0.085944  -0.030125   0.068223
    142      -0.323418  -0.026170   0.036668  -0.073760  -0.023641  -0.082052
    143      -0.270761  -0.019854   0.028924  -0.054037  -0.019986  -0.018539
    144      -0.015944  -0.000383   0.048458  -0.011668  -0.030595  -0.049210
    145      -0.025739   0.000454   0.030808   0.001666  -0.002393  -0.167626
    146      -0.024214   0.000388   0.054877  -0.010915  -0.022392  -0.104391
    147       0.007592   0.003253   0.250586  -0.070462  -0.086632  -0.174678
    148      -0.029050   0.000353   0.067791  -0.021099  -0.016488  -0.227058
    149       0.030504   0.000516   0.004028  -0.001015  -0.003486   0.067987
    150      -0.022570  -0.002528  -0.143417   0.057093   0.110882  -0.248295
    151       0.015708   0.001780   0.103887  -0.041811  -0.079984   0.187897
    152       0.003506   0.000390   0.023732  -0.009525  -0.018764   0.042716
    153      -0.046718  -0.005168  -0.228925   0.084009   0.155055  -0.284435
    154      -0.018392  -0.002109  -0.108165   0.041772   0.073944  -0.158923
    155      -0.008736  -0.000966  -0.050156   0.019902   0.035835  -0.083232
    156      -0.001415  -0.000351  -0.034020   0.025133  -0.072052   0.009453
    157      -0.009178  -0.001539  -0.151321   0.107268  -0.292068   0.018913
    158      -0.008404  -0.001597  -0.151190   0.100383  -0.259640   0.023434
    159      -0.009255  -0.001295  -0.094938   0.075638  -0.234614   0.000033
    160      -0.013432  -0.001911  -0.143107   0.108888  -0.323351   0.010540
    161      -0.000344  -0.000080  -0.015780   0.005892   0.003203   0.013450
    162      -0.004914  -0.000651  -0.022747   0.018001  -0.065833  -0.013507
    163      -0.014458  -0.001998  -0.139703   0.104029  -0.319600  -0.019023
    164      -0.010528  -0.001513  -0.140360   0.102995  -0.301655  -0.002024
    165      -0.013074  -0.001818  -0.083221   0.065181  -0.216920  -0.023429
    166      -0.016045  -0.002184  -0.112773   0.090841  -0.305103  -0.042289
    167       0.002649   0.000302  -0.008133   0.004798  -0.004884   0.003174
    168      -0.033301  -0.002093  -0.093860   0.063616  -0.174115   0.002269
    169      -0.003598  -0.001139  -0.012403   0.010076  -0.040803  -0.001205
    170       0.012049   0.000362   0.033962  -0.021965   0.053208  -0.002546
    171      -0.013098  -0.001642  -0.030547   0.022631  -0.080010  -0.007189
    172      -0.006420  -0.000894  -0.010148   0.008011  -0.034118  -0.005832
    173       0.014869   0.002005   0.038254  -0.028595   0.099952   0.007094
    174      -0.007064  -0.000869  -0.023053   0.016102  -0.048552   0.001161
    175      -0.023094  -0.001907  -0.067639   0.046684  -0.133707   0.001219
    176       0.026279   0.001031   0.072668  -0.047954   0.121623  -0.003357
                144        145        146        147        148        149    
      0       0.000003  -0.000751  -0.000003  -0.000323  -0.000024  -0.006418
      1       0.000002   0.000781   0.000027   0.001052   0.000061   0.007009
      2      -0.000004  -0.000176  -0.000020  -0.000093   0.000007   0.003160
      3      -0.000031  -0.006076  -0.000505  -0.014376  -0.000693  -0.042313
      4       0.000034   0.003743   0.000438   0.015122   0.000765   0.067691
      5       0.000028  -0.003349  -0.000128  -0.004506  -0.000221  -0.033514
      6       0.000140   0.022312   0.001841   0.056187   0.002814   0.164454
      7       0.000057  -0.053718  -0.003434  -0.113376  -0.005680  -0.583391
      8      -0.000163   0.034345   0.001723   0.058364   0.002900   0.389327
      9       0.000070  -0.019152   0.000044  -0.007198  -0.000654  -0.049167
     10       0.000107  -0.009847  -0.000281   0.004882   0.000470   0.073804
     11      -0.000403   0.045303   0.000437  -0.004219  -0.000351  -0.065966
     12      -0.000101   0.016440   0.000415   0.007204   0.000301   0.009006
     13      -0.000035  -0.002174  -0.000234  -0.004612  -0.000204   0.023072
     14       0.000144  -0.010339   0.000037   0.004258   0.000264  -0.012511
     15       0.000045  -0.005034  -0.000066  -0.000169   0.000013  -0.001061
     16      -0.000004   0.001029   0.000083   0.001151   0.000040  -0.004800
     17      -0.000050   0.003925   0.000014  -0.000355  -0.000030   0.008377
     18      -0.000470  -0.032733  -0.007483  -0.158744  -0.006114   0.108234
     19       0.000579  -0.024286   0.003093   0.075206   0.003052  -0.062094
     20       0.003257  -0.367947  -0.003142   0.040485   0.003407   0.073902
     21       0.000615   0.115604   0.012438   0.276192   0.011100  -0.096697
     22      -0.000543  -0.027211  -0.005288  -0.124223  -0.005069   0.041878
     23      -0.001521   0.198753   0.004271   0.031998   0.000251  -0.052918
     24      -0.001781   0.041951  -0.008040  -0.257627  -0.011765   0.046607
     25       0.001024  -0.052865   0.003627   0.136990   0.006520  -0.016967
     26       0.002010  -0.218499  -0.000056   0.112218   0.006579   0.007897
     27       0.000036   0.088552   0.003677   0.168305   0.008560  -0.036128
     28      -0.000139   0.023396  -0.000508  -0.078853  -0.004803   0.004308
     29      -0.002030   0.360485   0.005018  -0.020828  -0.003576  -0.048824
     30       0.000603  -0.142273  -0.009535  -0.260425  -0.011501   0.086177
     31      -0.000109   0.034746   0.003931   0.116651   0.005328  -0.035147
     32       0.001484  -0.219411  -0.003486  -0.038881  -0.000828   0.036043
     33       0.001232  -0.062643   0.008123   0.237124   0.010540  -0.083195
     34      -0.000912   0.062763  -0.004004  -0.126889  -0.005781   0.041959
     35      -0.002452   0.245950  -0.001609  -0.113940  -0.005895   0.005339
     36      -0.002290  -0.028859   0.001143  -0.001107  -0.002053  -0.007319
     37      -0.001056  -0.014035  -0.001600   0.001241   0.001040   0.013512
     38      -0.001609  -0.033924  -0.002066   0.000767   0.000973   0.012691
     39       0.000305   0.017669  -0.000533  -0.003387   0.000472   0.001786
     40      -0.002014  -0.001834  -0.002291   0.007852   0.001768   0.000172
     41      -0.000559   0.006561  -0.000321   0.007209   0.000789  -0.002651
     42       0.010173  -0.001410  -0.000490  -0.002942  -0.002281   0.003154
     43       0.001683   0.002079   0.003557  -0.004531  -0.001314   0.001355
     44       0.003218  -0.002298   0.002546  -0.003126  -0.001433   0.001056
     45      -0.032525  -0.009064   0.004373   0.005801   0.003984  -0.008857
     46      -0.009473  -0.005387  -0.023290   0.022790   0.010244  -0.014488
     47      -0.007241  -0.003456  -0.007821   0.009040   0.004842  -0.006448
     48       0.003107  -0.002795  -0.026562   0.025322  -0.002735  -0.012405
     49       0.016380   0.011839   0.024913  -0.036180  -0.008976   0.031990
     50       0.006685   0.006194   0.005725  -0.012144  -0.002224   0.012176
     51       0.003068   0.005580   0.004558  -0.034805   0.003086   0.018126
     52       0.013309  -0.047691   0.015372   0.062910  -0.011967  -0.099197
     53       0.008487  -0.027069   0.009104   0.026639  -0.006720  -0.051071
     54      -0.000020  -0.009399  -0.000605  -0.019921  -0.001019  -0.091448
     55      -0.000120   0.042386   0.002206   0.068949   0.003417   0.353405
     56       0.000106  -0.029099  -0.001450  -0.044931  -0.002215  -0.239410
     57       0.000266   0.000778   0.000588   0.003335  -0.000982  -0.002873
     58      -0.010489   0.037311  -0.013437  -0.034185   0.008355   0.056700
     59      -0.005791   0.020164  -0.006882  -0.017794   0.004531   0.030337
     60       0.043015   0.008741   0.007914  -0.008561  -0.001936   0.007971
     61      -0.034506  -0.000982   0.009313  -0.004362   0.008688   0.001143
     62      -0.009628   0.000328   0.005745  -0.002357   0.001611   0.001053
     63      -0.002646   0.000852  -0.013192  -0.001458   0.008225   0.001995
     64       0.000093  -0.001673  -0.009832   0.005042  -0.010532  -0.002740
     65      -0.000253  -0.000742  -0.006661   0.001799  -0.002881  -0.000798
     66      -0.002793  -0.002257   0.040974  -0.004135  -0.021192   0.000307
     67       0.008290  -0.002170  -0.002440   0.004100  -0.015750  -0.005690
     68       0.003215  -0.000553  -0.015352   0.001724  -0.002744  -0.002560
     69      -0.001879   0.002387  -0.195815   0.001346   0.128426  -0.002672
     70      -0.005323   0.000996  -0.005852  -0.008183   0.175642  -0.000334
     71      -0.003797  -0.003233   0.321434  -0.009479  -0.003031   0.002401
     72      -0.027485  -0.001366   0.003878  -0.000390  -0.000654   0.007158
     73       0.086596   0.006760   0.005944  -0.004644  -0.006057   0.011918
     74       0.031863   0.002394   0.002993  -0.001620  -0.002658   0.004489
     75       0.116694   0.004577  -0.000954  -0.001663   0.000303  -0.001345
     76      -0.022867  -0.001220  -0.000420   0.000564   0.000850  -0.001270
     77      -0.001120  -0.000157  -0.000233   0.000104   0.000357  -0.000562
     78      -0.022528  -0.001604  -0.003169   0.001668   0.001598  -0.004796
     79      -0.039019  -0.003278  -0.005205   0.002920   0.002716  -0.007054
     80      -0.014921  -0.001193  -0.002165   0.001090   0.001188  -0.002690
     81      -0.000649  -0.000893   0.055444   0.002508  -0.096513   0.001026
     82       0.000666   0.000508  -0.122023   0.013628  -0.236134   0.001061
     83       0.002466   0.002245  -0.265245   0.013431  -0.137382  -0.000541
     84       0.003167   0.001673  -0.101686  -0.005584   0.188304  -0.001852
     85       0.003613   0.001294  -0.022744  -0.011746   0.280348  -0.001877
     86      -0.001013  -0.001616   0.160269  -0.005157   0.022895   0.000580
     87      -0.002953  -0.002194   0.169515   0.000724  -0.115601   0.001582
     88      -0.004605  -0.000260  -0.015433   0.007107  -0.159866   0.001333
     89      -0.000726   0.003818  -0.333959   0.007965   0.001350  -0.000904
     90       0.000809   0.000768  -0.058989  -0.002577   0.093476  -0.001112
     91       0.002648  -0.001078   0.114023  -0.011539   0.204548  -0.001637
     92       0.002048  -0.002846   0.260324  -0.010807   0.100360  -0.000070
     93       0.000190  -0.001743   0.131662   0.004891  -0.198002   0.002533
     94       0.000311  -0.000841   0.056488   0.009977  -0.267360   0.002964
     95      -0.000163   0.001914  -0.162153   0.004183   0.010169  -0.000905
     96       0.000914   0.000101  -0.009111   0.000045   0.006542  -0.000201
     97       0.001506  -0.000150   0.016835  -0.000523   0.006977  -0.000147
     98       0.000331  -0.000417   0.039304  -0.000797  -0.002800   0.000146
     99       0.000018   0.000009   0.003069  -0.000894   0.017327  -0.000062
    100       0.000127   0.000138  -0.007505  -0.000647   0.018260  -0.000121
    101       0.000124   0.000144  -0.015360   0.000747  -0.007441  -0.000039
    102       0.000028   0.004116   0.000193   0.005701   0.000313   0.023367
    103       0.000005  -0.006222  -0.000295  -0.008366  -0.000396  -0.035501
    104      -0.000005   0.002273   0.000117   0.003898   0.000185   0.018840
    105      -0.000014   0.003115   0.000079   0.000604   0.000003  -0.002480
    106      -0.000076   0.004590  -0.000018  -0.001877  -0.000124   0.009624
    107       0.000049   0.005613   0.000469   0.013338   0.000641   0.037184
    108      -0.000119   0.010955   0.000191   0.001338  -0.000045   0.044058
    109       0.000058  -0.006291  -0.000292  -0.006854  -0.000286  -0.023370
    110       0.000034  -0.000418   0.000222   0.006729   0.000328   0.007642
    111       0.000009   0.005368   0.000683   0.028796   0.001482   0.194023
    112      -0.000004  -0.007708  -0.000784  -0.029817  -0.001505  -0.189608
    113       0.000012   0.003938   0.000368   0.010856   0.000521   0.017423
    114      -0.000078  -0.005731  -0.000755  -0.015877  -0.000693   0.064588
    115      -0.000205   0.035212   0.001171   0.020743   0.000808  -0.012173
    116      -0.000090  -0.028316  -0.001643  -0.032678  -0.001538   0.079914
    117       0.000417  -0.027952   0.000400   0.017976   0.000998  -0.005920
    118      -0.000073   0.029512   0.000964   0.005854   0.000099  -0.199077
    119      -0.000004  -0.010402  -0.000489  -0.003714  -0.000098   0.087966
    120      -0.000068   0.009836   0.000168   0.000585  -0.000028  -0.004918
    121       0.000050  -0.006492  -0.000097   0.000461   0.000004   0.009442
    122      -0.000037   0.002699   0.000044  -0.000063   0.000008   0.000754
    123      -0.000195   0.012452  -0.000160  -0.006646  -0.000372   0.031806
    124       0.000165  -0.013391  -0.000018   0.003018   0.000156  -0.019416
    125       0.000197  -0.015457  -0.000061   0.003485   0.000231  -0.019156
    126       0.000346  -0.246966  -0.015875  -0.276990  -0.009875   0.079506
    127      -0.000448   0.133416   0.006599   0.101513   0.003284  -0.072990
    128      -0.001856   0.049213  -0.008522  -0.224712  -0.009592   0.039937
    129       0.004398  -0.247773   0.001958   0.201434   0.010563  -0.004883
    130      -0.001622   0.128520  -0.001512  -0.143919  -0.007616   0.004763
    131      -0.002838   0.008919  -0.009088  -0.286690  -0.012769   0.054770
    132      -0.002319   0.345789   0.009979   0.269252   0.012220  -0.098967
    133       0.001166  -0.163423  -0.003865  -0.094493  -0.004113   0.036404
    134       0.000245  -0.025208   0.004966   0.194153   0.009688  -0.046645
    135      -0.003669   0.340452  -0.005243  -0.205678  -0.009874   0.057221
    136       0.001895  -0.164395   0.003749   0.127725   0.005913  -0.051743
    137       0.001365  -0.065679   0.009624   0.255494   0.011169  -0.118599
    138      -0.005523   0.000745  -0.004315   0.017264   0.003132  -0.002017
    139       0.011253   0.039468   0.005250  -0.027533  -0.003177   0.010084
    140       0.001249   0.015945   0.001637  -0.043084  -0.002280   0.005400
    141      -0.002944  -0.024687  -0.000487  -0.021900  -0.001024   0.003822
    142       0.007647   0.004477   0.009076  -0.027423  -0.007417  -0.018248
    143       0.002404  -0.004252   0.004232  -0.010472  -0.003417  -0.010230
    144      -0.005640   0.003190  -0.000626  -0.000892   0.002489  -0.002698
    145       0.009227  -0.000850   0.004563  -0.005105  -0.001264   0.005185
    146       0.002212  -0.001880   0.003299  -0.003564   0.000718   0.002082
    147      -0.012156   0.011392   0.019785  -0.002910  -0.000648   0.003288
    148       0.010511  -0.010226   0.011834  -0.015867  -0.004291   0.006444
    149      -0.007802   0.010325  -0.000875   0.006453   0.001441  -0.003219
    150      -0.602517  -0.024027  -0.001091   0.010957   0.000938  -0.006480
    151       0.452079   0.017773  -0.000082  -0.007827   0.000233   0.002134
    152       0.112482   0.004545  -0.000280  -0.002095   0.000035   0.001078
    153      -0.514167  -0.016910   0.004042   0.006639  -0.005426   0.005391
    154      -0.312368  -0.011123   0.001950   0.004407  -0.001874   0.001908
    155      -0.160877  -0.005601   0.000772   0.002155  -0.001077   0.001145
    156      -0.002621  -0.000222   0.112812  -0.002206  -0.051129   0.003299
    157      -0.007019  -0.002647   0.301962  -0.015501   0.158887   0.000643
    158      -0.006227  -0.000236   0.176594  -0.018786   0.311530  -0.000091
    159      -0.005452  -0.000910   0.029249   0.009564  -0.240791   0.002025
    160      -0.007220  -0.002136   0.157439   0.006687  -0.260743   0.002977
    161       0.000147  -0.001261   0.150724  -0.008569   0.108985  -0.000047
    162      -0.000386   0.001618  -0.138038   0.001205   0.051213  -0.000946
    163      -0.004675   0.003792  -0.345132   0.013655  -0.109959  -0.000536
    164      -0.005522   0.002226  -0.211714   0.015938  -0.242535   0.001418
    165      -0.003768   0.001185  -0.076422  -0.010134   0.266481  -0.002355
    166      -0.005287   0.002587  -0.211128  -0.008926   0.316057  -0.003650
    167       0.000376   0.001758  -0.146710   0.007310  -0.064242  -0.000121
    168      -0.001069   0.000028  -0.020854   0.005350  -0.105667   0.000538
    169      -0.001307  -0.000028  -0.007951   0.001253  -0.028806   0.000257
    170       0.000005   0.000067  -0.005203  -0.001114   0.024962  -0.000104
    171      -0.001408   0.000700  -0.075055   0.002861  -0.025015  -0.000057
    172      -0.000605   0.000555  -0.051050   0.001128  -0.000568  -0.000132
    173       0.001698  -0.000614   0.069194  -0.003471   0.044279  -0.000070
    174      -0.001007  -0.000103  -0.001373   0.001302  -0.028406   0.000202
    175      -0.001415  -0.000003  -0.022210   0.004496  -0.086032   0.000398
    176       0.000065   0.000010   0.004822  -0.003338   0.067027  -0.000284
                150        151        152        153        154        155    
      0       0.001056  -0.000120  -0.001435   0.000118   0.000037   0.037116
      1      -0.000969   0.000104   0.000579   0.000007   0.000003   0.014924
      2      -0.000420   0.000034  -0.000606   0.000075   0.000022   0.036675
      3       0.005022  -0.000492  -0.000209   0.000010   0.000003   0.003120
      4      -0.008861   0.000934   0.000122  -0.000016  -0.000001  -0.015543
      5       0.005215  -0.000614   0.000704  -0.000062  -0.000009  -0.041812
      6      -0.017248   0.001530   0.000940  -0.000034  -0.000007  -0.000627
      7       0.082224  -0.009053   0.000740  -0.000033  -0.000003   0.000115
      8      -0.059985   0.006958  -0.001258   0.000067   0.000013  -0.000466
      9       0.001624   0.000100   0.000117   0.000038   0.000010   0.000082
     10      -0.008714   0.000858  -0.002126   0.000013   0.000003  -0.000080
     11       0.009545  -0.001091   0.001444  -0.000024  -0.000005   0.000064
     12      -0.001082   0.000115   0.000565  -0.000017  -0.000001   0.001661
     13      -0.004791   0.000651   0.020419  -0.000310  -0.000049   0.001245
     14       0.004188  -0.000644   0.068656  -0.001071  -0.000177  -0.001438
     15       0.000608  -0.000102  -0.003601   0.000052   0.000007  -0.007100
     16       0.000797  -0.000114  -0.005674   0.000046  -0.000004  -0.016247
     17      -0.001858   0.000248  -0.009994   0.000163   0.000023  -0.012554
     18      -0.026215   0.004157  -0.000897   0.000002  -0.000002  -0.000041
     19       0.017236  -0.002689   0.000446  -0.000004   0.000001  -0.000003
     20       0.026473  -0.005633   0.000500  -0.000004   0.000001  -0.000055
     21       0.030518  -0.005084   0.000321  -0.000059  -0.000004   0.000012
     22      -0.012948   0.002097  -0.000193  -0.000000   0.000000  -0.000012
     23      -0.007691   0.001739  -0.000024  -0.000081  -0.000009  -0.000040
     24      -0.047267   0.008520  -0.000029   0.000284   0.000034   0.000021
     25       0.032385  -0.006151   0.000014  -0.000154  -0.000016  -0.000013
     26       0.051297  -0.009866   0.000106  -0.000064  -0.000006   0.000015
     27       0.054164  -0.010186  -0.000040  -0.000918  -0.000104  -0.000015
     28      -0.056258   0.010901   0.000007   0.000478   0.000056   0.000005
     29      -0.077035   0.015431  -0.000018  -0.000177  -0.000013   0.000005
     30      -0.062923   0.012063   0.000091  -0.000111  -0.000008   0.000013
     31       0.033821  -0.006544   0.000044   0.000227   0.000021  -0.000011
     32       0.013068  -0.002616  -0.000041   0.000734   0.000073  -0.000038
     33       0.058148  -0.010753  -0.000644   0.000065   0.000013   0.000046
     34      -0.033448   0.006134   0.000253   0.000028   0.000001  -0.000029
     35      -0.039806   0.007567  -0.001071   0.000075   0.000012   0.000043
     36      -0.015789  -0.001003   0.000043  -0.000183   0.000014   0.000033
     37       0.076921  -0.018521  -0.000055  -0.002064  -0.000197   0.000001
     38       0.074784  -0.017203  -0.000025  -0.001137  -0.000104   0.000005
     39       0.015122  -0.003964   0.000013   0.000879   0.000102   0.000006
     40       0.017657  -0.002929   0.000352   0.022689   0.002248  -0.000038
     41       0.004839  -0.002462  -0.001026  -0.067359  -0.006673   0.000138
     42       0.012865  -0.010475  -0.000094  -0.006499  -0.000635  -0.000000
     43       0.002169  -0.013523  -0.000191  -0.013048  -0.001244  -0.000005
     44      -0.000928  -0.002964   0.000204   0.014764   0.001443  -0.000012
     45      -0.046482   0.060905   0.000002  -0.000118  -0.000019   0.000001
     46      -0.058999   0.067916  -0.000001  -0.000192   0.000017   0.000001
     47      -0.027984   0.032266   0.000003   0.000154   0.000023   0.000000
     48      -0.048271  -0.005361  -0.000002  -0.000352  -0.000059   0.000005
     49       0.167183  -0.063672   0.000002   0.000381   0.000022  -0.000002
     50       0.068068  -0.027662   0.000002   0.000011  -0.000000   0.000001
     51       0.045889   0.004103  -0.000020   0.001332   0.000080  -0.000028
     52      -0.644316   0.136585  -0.000028   0.000341   0.000019  -0.000017
     53      -0.353680   0.076111  -0.000027   0.000770   0.000056  -0.000021
     54       0.012207  -0.001311  -0.000006   0.000003   0.000004   0.000176
     55      -0.050347   0.005573  -0.000393   0.000020   0.000005  -0.000165
     56       0.034884  -0.003926   0.000445  -0.000022  -0.000002   0.000095
     57      -0.010770  -0.000876   0.000005  -0.000158   0.000007   0.000007
     58       0.377948  -0.076060   0.000018  -0.000254  -0.000016   0.000010
     59       0.205343  -0.041624   0.000010  -0.000313  -0.000024   0.000007
     60       0.033633  -0.078392   0.000005   0.000251   0.000044   0.000000
     61      -0.008141  -0.069991  -0.000002  -0.000105   0.000046  -0.000000
     62      -0.000370  -0.032155  -0.000000  -0.000046   0.000035   0.000000
     63       0.019665   0.021925   0.000007  -0.000220   0.000011   0.000007
     64      -0.015471  -0.002700  -0.000007  -0.000114  -0.000023  -0.000002
     65      -0.004064   0.001104  -0.000003  -0.000049  -0.000027  -0.000001
     66      -0.010089  -0.010531  -0.000008  -0.000006  -0.000051  -0.000004
     67      -0.033710   0.025032  -0.000000   0.000037  -0.000024  -0.000001
     68      -0.015307   0.009524  -0.000000   0.000030  -0.000001  -0.000000
     69      -0.010034   0.005488  -0.000000  -0.000012   0.000138  -0.000000
     70      -0.001230  -0.003247  -0.000001   0.000033   0.000144  -0.000002
     71       0.008683  -0.007666  -0.000001   0.000025  -0.000032  -0.000001
     72       0.116310   0.423239  -0.000002   0.000052   0.000040  -0.000003
     73       0.156307   0.456020   0.000006  -0.000070  -0.000065   0.000005
     74       0.059958   0.178907   0.000002  -0.000027  -0.000014   0.000002
     75      -0.029778  -0.137245   0.000002  -0.000037  -0.000018   0.000002
     76      -0.017387  -0.048541  -0.000001   0.000021   0.000010  -0.000001
     77      -0.008164  -0.025830  -0.000001   0.000012   0.000006  -0.000000
     78      -0.065734  -0.208367   0.000001  -0.000026   0.000000   0.000001
     79      -0.092359  -0.274370  -0.000002   0.000045   0.000028  -0.000002
     80      -0.035155  -0.105232  -0.000001   0.000011   0.000011  -0.000001
     81       0.004096  -0.002366   0.000001  -0.000032   0.000045   0.000001
     82       0.004770  -0.002832   0.000000  -0.000022  -0.000017   0.000001
     83      -0.001526   0.001327  -0.000001   0.000031  -0.000122  -0.000001
     84      -0.006895   0.004590   0.000001  -0.000034   0.000303   0.000000
     85      -0.006317   0.005666   0.000001  -0.000063   0.000508   0.000001
     86       0.002071  -0.001024   0.000000  -0.000024   0.000105   0.000001
     87       0.005567  -0.003988  -0.000002   0.000110  -0.000982  -0.000001
     88       0.004482  -0.004398  -0.000005   0.000241  -0.002138  -0.000002
     89      -0.002921   0.001305  -0.000003   0.000119  -0.001036  -0.000001
     90      -0.004818   0.002302   0.000000   0.000052  -0.000636   0.000001
     91      -0.007992   0.003620   0.000002   0.000002  -0.000238   0.000001
     92      -0.001374   0.000323   0.000000  -0.000090   0.000860   0.000001
     93       0.011188  -0.005327  -0.000001   0.000030  -0.000216  -0.000000
     94       0.014478  -0.004982  -0.000001   0.000016  -0.000174  -0.000000
     95      -0.002586   0.002420  -0.000000  -0.000030   0.000171   0.000001
     96      -0.000504   0.000841   0.000004  -0.000238   0.002209   0.000000
     97      -0.000033   0.001192   0.000005  -0.000264   0.002359   0.000001
     98       0.000813   0.000063  -0.000001   0.000084  -0.000897   0.000001
     99      -0.000302  -0.000106   0.000026  -0.002787   0.027322  -0.000010
    100      -0.000528   0.000047   0.000011  -0.001100   0.010780  -0.000005
    101      -0.000077   0.000281  -0.000037   0.003676  -0.036022   0.000015
    102      -0.002875   0.000278   0.001736  -0.000513  -0.000159  -0.235429
    103       0.004919  -0.000528   0.005471  -0.000846  -0.000256  -0.365631
    104      -0.002633   0.000304   0.010324  -0.001268  -0.000379  -0.536677
    105       0.000095   0.000007   0.014277  -0.000863  -0.000257  -0.205339
    106      -0.002671   0.000365  -0.013783   0.000764   0.000225   0.179944
    107      -0.004377   0.000443  -0.006887   0.000408   0.000120   0.097212
    108      -0.010872   0.001522  -0.001283   0.000128   0.000021   0.069058
    109       0.003675  -0.000438  -0.004716   0.000364   0.000055   0.301354
    110       0.000058  -0.000076  -0.007605   0.000595   0.000089   0.479018
    111      -0.028419   0.003218   0.002340  -0.000172  -0.000016  -0.102401
    112       0.028144  -0.003181   0.003041  -0.000212  -0.000026  -0.107343
    113      -0.000576  -0.000016  -0.000157   0.000038   0.000008   0.020027
    114      -0.014858   0.002103   0.278752  -0.004153  -0.000707  -0.028433
    115       0.003830  -0.000560   0.168721  -0.002519  -0.000427  -0.018921
    116      -0.021216   0.003137  -0.045518   0.000676   0.000115   0.005403
    117       0.007646  -0.001389  -0.299082   0.004564   0.000749   0.006065
    118       0.034463  -0.004341  -0.393703   0.005987   0.000979   0.004756
    119      -0.015604   0.002047  -0.786210   0.012019   0.001971   0.009834
    120      -0.000485   0.000198   0.055605  -0.000727  -0.000063   0.100963
    121      -0.001141   0.000150   0.079467  -0.001022  -0.000087   0.146714
    122      -0.000356   0.000017   0.115370  -0.001487  -0.000128   0.216360
    123      -0.008037   0.001170  -0.002961  -0.000017  -0.000025  -0.015957
    124       0.004902  -0.000663  -0.005122   0.000320   0.000118   0.048096
    125       0.005717  -0.000830   0.005555  -0.000406  -0.000145  -0.059516
    126      -0.011543   0.001977  -0.000524  -0.000035  -0.000009  -0.000058
    127       0.006099  -0.000524   0.000293   0.000057   0.000015   0.000099
    128      -0.030189   0.005357   0.000189   0.000641   0.000087   0.000193
    129       0.028859  -0.003946  -0.000268  -0.000379  -0.000065  -0.000090
    130      -0.053533   0.010483   0.000036   0.000257   0.000031   0.000022
    131      -0.023194   0.003082  -0.000658   0.000025  -0.000008  -0.000205
    132       0.075200  -0.014576   0.000445   0.003296   0.000319  -0.000067
    133      -0.030646   0.006738  -0.000348  -0.003239  -0.000323   0.000090
    134       0.081062  -0.015891  -0.000994  -0.008250  -0.000827   0.000395
    135      -0.067006   0.012049   0.007709   0.000266  -0.000003  -0.000201
    136       0.040648  -0.007143  -0.002706  -0.000114  -0.000005   0.000168
    137       0.068577  -0.012192   0.011034   0.000158  -0.000032  -0.000132
    138       0.028714  -0.006490   0.003713   0.233460   0.022990  -0.000507
    139       0.033680  -0.009497   0.001727   0.108328   0.010654  -0.000222
    140      -0.070316   0.022787   0.000173   0.010265   0.001015  -0.000033
    141      -0.043124   0.016568  -0.003950  -0.254325  -0.025199   0.000478
    142      -0.192203   0.038131  -0.005605  -0.359629  -0.035607   0.000673
    143      -0.097979   0.020325   0.012502   0.806454   0.079892  -0.001543
    144      -0.018623  -0.026583   0.001407   0.097688   0.009526  -0.000013
    145       0.026031  -0.008390   0.002073   0.142932   0.013849  -0.000016
    146       0.004490  -0.010170  -0.002962  -0.204857  -0.019800   0.000021
    147       0.023992  -0.076917  -0.000119  -0.009242  -0.000845   0.000001
    148       0.008371  -0.001076   0.000266   0.018390   0.001619   0.000065
    149      -0.002400  -0.022173   0.000424   0.026906   0.002401   0.000097
    150      -0.042621   0.038032  -0.000005   0.000114   0.000047  -0.000005
    151      -0.008659  -0.165574   0.000007  -0.000106  -0.000077   0.000009
    152       0.003444  -0.024965   0.000005  -0.000037  -0.000043   0.000004
    153       0.117315   0.496944   0.000006  -0.000107  -0.000056   0.000006
    154       0.052104   0.252505  -0.000010   0.000122   0.000096  -0.000012
    155       0.026720   0.124714  -0.000001   0.000004   0.000020  -0.000003
    156       0.017321  -0.005182  -0.000015   0.000344  -0.000894  -0.000015
    157       0.000326  -0.002853  -0.000008   0.000253  -0.000543  -0.000009
    158      -0.000138   0.001038   0.000006  -0.000223   0.000976   0.000003
    159       0.008034  -0.005274  -0.000000  -0.000034  -0.000133   0.000001
    160       0.012578  -0.006783  -0.000004   0.000106  -0.000770  -0.000002
    161      -0.000526   0.000585  -0.000009   0.000213  -0.000830  -0.000008
    162      -0.004118   0.002351   0.000005  -0.000882   0.009109  -0.000008
    163      -0.000984   0.001100   0.000004  -0.000748   0.007494  -0.000005
    164       0.007552  -0.002080  -0.000001   0.000620  -0.006791   0.000007
    165      -0.012386   0.004168  -0.000002  -0.000013   0.000219  -0.000002
    166      -0.018585   0.003415   0.000000  -0.000003   0.000243  -0.000001
    167       0.001792   0.002697   0.000007  -0.000042  -0.000086  -0.000001
    168       0.002643  -0.000012   0.000274  -0.027337   0.266998  -0.000101
    169       0.000865  -0.000948  -0.000234   0.023315  -0.227875   0.000087
    170      -0.000691  -0.000171   0.000566  -0.056541   0.552615  -0.000212
    171      -0.000731  -0.000307  -0.000087   0.008659  -0.084593   0.000029
    172      -0.000579  -0.000078  -0.000284   0.028531  -0.278604   0.000096
    173      -0.000084   0.000463  -0.000224   0.022293  -0.217617   0.000076
    174       0.000514  -0.000597  -0.000541   0.054773  -0.535489   0.000194
    175       0.001539  -0.000430   0.000362  -0.036485   0.356560  -0.000128
    176      -0.001799  -0.000563   0.000114  -0.011801   0.115509  -0.000042
                156        157        158        159        160        161    
      0      -0.020988   0.035305  -0.000005   0.038008  -0.004570  -0.005921
      1      -0.003363  -0.002026   0.000014  -0.059876   0.001234   0.019068
      2      -0.013427   0.016029   0.000014  -0.048488  -0.000467   0.019471
      3       0.009819  -0.006129   0.000001   0.009066   0.001836  -0.008763
      4      -0.013566   0.003353  -0.000014   0.005881   0.002108  -0.008180
      5      -0.050412   0.021703  -0.000030  -0.007607   0.001143   0.001017
      6       0.000293  -0.000382   0.000004  -0.000627  -0.000113   0.000033
      7      -0.000189   0.000282   0.000008   0.000845  -0.000586  -0.000322
      8      -0.000869   0.000229  -0.000011  -0.000216   0.000849   0.000384
      9      -0.000239   0.000237  -0.000008  -0.000086   0.000333  -0.000077
     10      -0.000405  -0.000407  -0.000003   0.000088  -0.000029   0.000312
     11       0.000393   0.000125   0.000008  -0.000095  -0.000160  -0.000402
     12      -0.003744  -0.006228   0.000003   0.013475   0.065335   0.034852
     13      -0.001550  -0.002242  -0.000006   0.009889   0.042176   0.023817
     14       0.004846   0.006095  -0.000024   0.003577   0.003557   0.009954
     15       0.009558   0.009047  -0.000008   0.006269  -0.013674   0.027194
     16       0.036104   0.049697  -0.000044  -0.013108   0.018788  -0.013614
     17       0.015582   0.011480  -0.000011   0.018219  -0.038079   0.071126
     18       0.000053  -0.000074   0.000005  -0.000129   0.000021  -0.000146
     19       0.000029   0.000118  -0.000000  -0.000013  -0.000263  -0.000065
     20      -0.000066   0.000059   0.000014  -0.000056  -0.000238  -0.000132
     21       0.000030   0.000064  -0.000036  -0.000021  -0.000241  -0.000081
     22      -0.000005  -0.000022   0.000011   0.000002   0.000107   0.000015
     23      -0.000019   0.000009  -0.000014  -0.000009  -0.000018  -0.000045
     24      -0.000015  -0.000025   0.000096   0.000024   0.000034   0.000015
     25      -0.000002   0.000007  -0.000041  -0.000012   0.000002  -0.000002
     26       0.000003   0.000016  -0.000004   0.000001  -0.000136  -0.000065
     27       0.000002   0.000002  -0.000126  -0.000015  -0.000003  -0.000007
     28      -0.000001  -0.000004   0.000142   0.000006   0.000009   0.000006
     29      -0.000006  -0.000014  -0.000058   0.000014   0.000064   0.000037
     30       0.000013   0.000018  -0.000122   0.000008  -0.000061  -0.000012
     31       0.000006   0.000006   0.000129  -0.000002   0.000027   0.000017
     32       0.000007   0.000011   0.000331  -0.000032   0.000060   0.000008
     33      -0.000091  -0.000095   0.000015  -0.000050  -0.000254  -0.000244
     34       0.000026   0.000040   0.000006   0.000006   0.000060   0.000058
     35      -0.000098  -0.000142  -0.000020  -0.000091  -0.000206  -0.000321
     36      -0.000010  -0.000006  -0.000077   0.000028  -0.000026   0.000001
     37      -0.000002  -0.000002  -0.000537  -0.000004  -0.000002  -0.000006
     38      -0.000002  -0.000003  -0.000286   0.000003  -0.000003  -0.000004
     39      -0.000006  -0.000006  -0.004381   0.000010  -0.000007  -0.000002
     40       0.000008  -0.000007   0.003219   0.000002   0.000004  -0.000004
     41      -0.000035   0.000013  -0.018606   0.000022  -0.000028   0.000015
     42      -0.000001   0.000018   0.023230   0.000004  -0.000002   0.000002
     43      -0.000000   0.000039   0.055710   0.000007  -0.000001  -0.000006
     44       0.000005  -0.000032  -0.037903  -0.000014   0.000009  -0.000011
     45      -0.000000   0.000001   0.000685   0.000001  -0.000001   0.000001
     46      -0.000000   0.000000   0.000371   0.000001  -0.000000   0.000001
     47      -0.000000  -0.000000  -0.000102   0.000001  -0.000000   0.000000
     48      -0.000002   0.000000  -0.000067   0.000004  -0.000002   0.000001
     49       0.000001  -0.000001  -0.000862  -0.000002  -0.000000  -0.000002
     50      -0.000001  -0.000000  -0.000189   0.000000  -0.000003  -0.000001
     51       0.000010   0.000004   0.000161  -0.000026   0.000017  -0.000004
     52       0.000006   0.000007   0.000172  -0.000014   0.000026   0.000007
     53       0.000006   0.000005   0.000274  -0.000018   0.000021   0.000001
     54      -0.000101   0.000107  -0.000001   0.000034  -0.000074   0.000036
     55       0.000174  -0.000097  -0.000005  -0.000220   0.000255   0.000093
     56       0.000001   0.000019   0.000004   0.000123  -0.000133  -0.000014
     57      -0.000004  -0.000001  -0.000039   0.000007  -0.000001   0.000003
     58      -0.000004  -0.000004  -0.000053   0.000009  -0.000014  -0.000003
     59      -0.000002  -0.000002  -0.000089   0.000007  -0.000008  -0.000002
     60      -0.000000  -0.000000  -0.000633   0.000000  -0.000001   0.000000
     61      -0.000000  -0.000000   0.000346  -0.000000  -0.000001  -0.000001
     62      -0.000000  -0.000001   0.000021   0.000000  -0.000001  -0.000000
     63      -0.000003  -0.000000   0.000171   0.000007  -0.000005   0.000001
     64       0.000001   0.000000   0.000238  -0.000002   0.000002  -0.000001
     65       0.000000  -0.000000   0.000074  -0.000001   0.000001   0.000000
     66       0.000002   0.000000   0.000198  -0.000004   0.000002  -0.000001
     67       0.000000  -0.000000  -0.000006  -0.000001   0.000000  -0.000001
     68       0.000000  -0.000000  -0.000029  -0.000001   0.000000  -0.000000
     69       0.000000   0.000001   0.000012  -0.000000   0.000000   0.000000
     70       0.000001   0.000001  -0.000021  -0.000002   0.000002   0.000000
     71       0.000000   0.000000  -0.000030  -0.000001   0.000001   0.000000
     72       0.000002   0.000001   0.000126  -0.000004   0.000001  -0.000000
     73      -0.000002   0.000002  -0.000003   0.000005  -0.000001   0.000002
     74      -0.000001   0.000000   0.000022   0.000001  -0.000001   0.000001
     75      -0.000001   0.000000  -0.000040   0.000002  -0.000002   0.000000
     76       0.000000   0.000000  -0.000031  -0.000001   0.000000  -0.000000
     77       0.000000  -0.000000  -0.000007  -0.000001   0.000000   0.000000
     78      -0.000001  -0.000000  -0.000070   0.000001  -0.000001  -0.000000
     79       0.000001  -0.000001  -0.000016  -0.000002   0.000000  -0.000001
     80      -0.000000  -0.000001  -0.000007  -0.000001  -0.000000  -0.000000
     81      -0.000000   0.000000  -0.000002   0.000002  -0.000001   0.000000
     82      -0.000000  -0.000000  -0.000009   0.000001  -0.000001   0.000000
     83       0.000000   0.000000  -0.000002  -0.000001   0.000001  -0.000000
     84      -0.000000   0.000001   0.000001   0.000001  -0.000000   0.000001
     85      -0.000001  -0.000001   0.000008   0.000001  -0.000002  -0.000001
     86      -0.000000  -0.000001   0.000009   0.000001  -0.000001  -0.000001
     87       0.000001   0.000000  -0.000002  -0.000002   0.000000  -0.000001
     88       0.000001   0.000000  -0.000009  -0.000003   0.000001  -0.000001
     89       0.000001   0.000001  -0.000006  -0.000002   0.000001   0.000000
     90      -0.000001   0.000000   0.000008   0.000001  -0.000001   0.000000
     91      -0.000001  -0.000001   0.000008   0.000002  -0.000002  -0.000000
     92       0.000000  -0.000000  -0.000002   0.000000   0.000001   0.000000
     93       0.000000   0.000000  -0.000005  -0.000001   0.000000   0.000000
     94       0.000000  -0.000000   0.000010  -0.000000   0.000000  -0.000001
     95      -0.000000  -0.000000   0.000016   0.000001   0.000001  -0.000000
     96      -0.000000   0.000000   0.000003   0.000001  -0.000001   0.000000
     97      -0.000002  -0.000001   0.000008   0.000003  -0.000002   0.000000
     98      -0.000000  -0.000000   0.000004   0.000001   0.000000  -0.000000
     99       0.000008   0.000001  -0.000019   0.000002   0.000021   0.000032
    100       0.000002  -0.000003  -0.000008  -0.000004  -0.000015  -0.000026
    101      -0.000009   0.000002   0.000028   0.000008   0.000010   0.000020
    102       0.099985  -0.133862  -0.000055   0.158006   0.007579  -0.077574
    103       0.157192  -0.216556  -0.000082   0.223214   0.013010  -0.111723
    104       0.231957  -0.314795  -0.000124   0.335739   0.018703  -0.163467
    105       0.146122  -0.282764   0.000116  -0.604309   0.036485   0.147717
    106      -0.119622   0.240596  -0.000098   0.493189  -0.029430  -0.119993
    107      -0.067459   0.125979  -0.000048   0.249407  -0.015429  -0.061669
    108       0.084103  -0.036605   0.000048   0.008945  -0.001590   0.000147
    109       0.358363  -0.148553   0.000221   0.034648  -0.009576   0.006725
    110       0.565988  -0.237588   0.000352   0.056371  -0.015395   0.009706
    111      -0.196915   0.108719  -0.000068  -0.111639  -0.019805   0.100956
    112      -0.192665   0.105011  -0.000062  -0.108125  -0.018230   0.096098
    113       0.038978  -0.023681   0.000011   0.029676   0.004862  -0.026701
    114       0.065817   0.095850  -0.000138  -0.140574  -0.705786  -0.346116
    115       0.041304   0.058082  -0.000091  -0.081197  -0.401276  -0.195975
    116      -0.013697  -0.020638   0.000019   0.031291   0.155140   0.075027
    117      -0.018827  -0.021976   0.000112  -0.023230  -0.065930  -0.061395
    118      -0.022328  -0.029142   0.000139  -0.032453  -0.100013  -0.092446
    119      -0.043287  -0.054572   0.000272  -0.067889  -0.210633  -0.189242
    120      -0.179519  -0.217066   0.000185  -0.014140   0.059270  -0.175094
    121      -0.258932  -0.307921   0.000268  -0.025549   0.089053  -0.263913
    122      -0.389889  -0.466678   0.000405  -0.034221   0.124314  -0.375126
    123       0.063698   0.106361  -0.000089  -0.059882   0.107810  -0.150312
    124      -0.168548  -0.280213   0.000237   0.170445  -0.305258   0.428258
    125       0.200458   0.327821  -0.000278  -0.189147   0.337880  -0.476104
    126       0.000007  -0.000148  -0.000030  -0.000028   0.000058  -0.000240
    127       0.000174   0.000091  -0.000004   0.000002  -0.000061   0.000175
    128       0.000280   0.000112   0.000099   0.000046   0.000379   0.000658
    129      -0.000009  -0.000039  -0.000305  -0.000074   0.000450   0.000163
    130      -0.000012  -0.000000   0.000182   0.000045  -0.000020   0.000026
    131      -0.000000  -0.000050  -0.000297  -0.000138   0.000815   0.000295
    132       0.000093   0.000078   0.001484  -0.000034   0.000312   0.000189
    133      -0.000046  -0.000065  -0.001397   0.000060  -0.000207  -0.000115
    134      -0.000242  -0.000259  -0.003668   0.000236  -0.001043  -0.000501
    135       0.000966   0.001068   0.000347   0.000825   0.002400   0.002918
    136      -0.000406  -0.000438  -0.000065  -0.000125  -0.000276  -0.000628
    137       0.001223   0.001322   0.000462   0.001381   0.003538   0.004310
    138       0.000172   0.000024   0.119799  -0.000152   0.000129  -0.000009
    139       0.000072   0.000008   0.056668  -0.000054   0.000049  -0.000008
    140       0.000011   0.000011   0.009883  -0.000017   0.000011   0.000005
    141      -0.000118   0.000055  -0.067257   0.000044  -0.000076   0.000047
    142      -0.000163   0.000072  -0.095346   0.000061  -0.000095   0.000062
    143       0.000375  -0.000164   0.210423  -0.000161   0.000242  -0.000149
    144       0.000016  -0.000251  -0.326939  -0.000063   0.000028  -0.000013
    145       0.000020  -0.000364  -0.480477  -0.000089   0.000036  -0.000016
    146      -0.000032   0.000531   0.699296   0.000133  -0.000053   0.000024
    147      -0.000003   0.000031   0.045337   0.000008  -0.000003  -0.000011
    148      -0.000011  -0.000107  -0.179211   0.000003  -0.000015   0.000073
    149      -0.000019  -0.000149  -0.240904   0.000014  -0.000032   0.000094
    150       0.000001  -0.000003  -0.000235  -0.000003  -0.000001  -0.000003
    151      -0.000006  -0.000002  -0.000050   0.000012  -0.000005  -0.000000
    152      -0.000003  -0.000001  -0.000111   0.000004  -0.000004   0.000002
    153      -0.000003   0.000001   0.000020   0.000007  -0.000002   0.000003
    154       0.000007  -0.000001   0.000124  -0.000016   0.000005  -0.000005
    155       0.000001   0.000000   0.000023  -0.000005  -0.000000   0.000001
    156       0.000006   0.000001   0.000108  -0.000021   0.000004  -0.000007
    157       0.000003   0.000004   0.000104  -0.000013   0.000005  -0.000000
    158      -0.000001   0.000000  -0.000085   0.000007  -0.000002   0.000003
    159      -0.000000  -0.000005   0.000020   0.000001  -0.000006  -0.000007
    160       0.000003   0.000003   0.000006  -0.000003   0.000007   0.000004
    161       0.000006   0.000008  -0.000040  -0.000012   0.000017   0.000010
    162       0.000005   0.000001  -0.000046  -0.000009   0.000006  -0.000001
    163       0.000005   0.000002  -0.000022  -0.000005   0.000007   0.000001
    164      -0.000005  -0.000002   0.000057   0.000007  -0.000008   0.000000
    165       0.000001  -0.000000  -0.000024  -0.000002   0.000001  -0.000001
    166       0.000001   0.000002  -0.000039  -0.000003  -0.000000   0.000001
    167       0.000000   0.000001  -0.000024  -0.000006  -0.000009   0.000003
    168       0.000064  -0.000020  -0.000177  -0.000043  -0.000071  -0.000141
    169      -0.000055   0.000017   0.000156   0.000037   0.000058   0.000116
    170       0.000135  -0.000040  -0.000386  -0.000094  -0.000152  -0.000306
    171      -0.000020   0.000005   0.000049   0.000002   0.000001   0.000011
    172      -0.000065   0.000016   0.000157   0.000001  -0.000009   0.000010
    173      -0.000050   0.000013   0.000120   0.000002  -0.000002   0.000015
    174      -0.000143   0.000002   0.000343   0.000004  -0.000181  -0.000257
    175       0.000094  -0.000002  -0.000223  -0.000000   0.000121   0.000175
    176       0.000033   0.000001  -0.000081  -0.000001   0.000047   0.000065
                162        163        164        165        166        167    
      0      -0.000001   0.000464   0.000000   0.000007   0.000001  -0.000013
      1      -0.000004  -0.011176   0.000004  -0.000007  -0.000002   0.000006
      2      -0.000005  -0.012849   0.000005  -0.000005  -0.000001   0.000013
      3       0.000012  -0.057178   0.000009  -0.000002  -0.000000  -0.000007
      4       0.000014  -0.065977   0.000010  -0.000002  -0.000000  -0.000026
      5       0.000001  -0.009198   0.000002  -0.000001  -0.000001  -0.000004
      6      -0.000001  -0.000125   0.000001   0.000004   0.000001  -0.000084
      7      -0.000001  -0.001707   0.000004  -0.000004   0.000000   0.000031
      8       0.000001   0.000048  -0.000006   0.000001  -0.000002   0.000091
      9       0.000000   0.000072  -0.000004  -0.000001  -0.000002   0.000062
     10       0.000000  -0.000019   0.000002  -0.000000   0.000000  -0.000089
     11      -0.000001  -0.000228  -0.000001   0.000001   0.000000   0.000144
     12      -0.000037  -0.000875   0.000004  -0.000003  -0.000000   0.000422
     13      -0.000025  -0.000655   0.000005  -0.000006   0.000000   0.000375
     14      -0.000006  -0.000943   0.000012  -0.000004   0.000001   0.000610
     15      -0.000010  -0.002709   0.000004   0.000001  -0.000000   0.000048
     16      -0.000000   0.000776  -0.000000  -0.000008  -0.000001   0.000092
     17      -0.000025  -0.008397   0.000009   0.000003  -0.000000   0.000046
     18      -0.000001   0.000129  -0.000006   0.000016   0.000001   0.001016
     19       0.000000  -0.000102   0.000003  -0.000011  -0.000000  -0.000595
     20      -0.000000  -0.000000  -0.000023   0.000055  -0.000000  -0.001212
     21      -0.000000  -0.000005   0.000032  -0.000060  -0.000001   0.000012
     22       0.000001   0.000022   0.000001  -0.000001   0.000001  -0.000263
     23       0.000001  -0.000026   0.000040  -0.000113   0.000002  -0.001523
     24      -0.000000  -0.000013  -0.000114   0.000200  -0.000002   0.000444
     25       0.000000   0.000009   0.000045  -0.000046   0.000001  -0.000050
     26       0.000001  -0.000016   0.000001  -0.000090  -0.000001   0.001526
     27       0.000000   0.000002   0.000058  -0.000068   0.000003   0.001714
     28      -0.000001  -0.000000  -0.000108   0.000110  -0.000002  -0.000563
     29      -0.000000  -0.000005   0.000030  -0.000238  -0.000001   0.001203
     30      -0.000000   0.000000   0.000156  -0.000402  -0.000001   0.017572
     31      -0.000001  -0.000002  -0.000190   0.000458   0.000001  -0.015916
     32      -0.000001   0.000032  -0.000476   0.001079   0.000001  -0.060051
     33      -0.000000   0.000000  -0.000031   0.000033  -0.000002   0.030704
     34      -0.000000   0.000014   0.000001  -0.000003   0.000001  -0.007349
     35      -0.000000   0.000054   0.000021  -0.000101  -0.000003   0.045756
     36      -0.000001  -0.000011   0.000445  -0.000207  -0.000006  -0.000032
     37       0.000001   0.000002  -0.000503  -0.000274  -0.000001  -0.000102
     38       0.000001  -0.000000  -0.000300  -0.000088  -0.000001  -0.000171
     39       0.000002   0.000007   0.030749  -0.073177   0.000016  -0.000784
     40      -0.000001   0.000005   0.014734  -0.037907   0.000009  -0.000368
     41       0.000002  -0.000013  -0.000444   0.012508  -0.000001  -0.000319
     42      -0.000000  -0.000004  -0.016451  -0.008715   0.000002   0.000061
     43      -0.000002   0.000002   0.036313   0.010927   0.000005   0.000106
     44       0.000000   0.000016   0.071053   0.033136  -0.000001   0.000054
     45      -0.000006  -0.000001  -0.001115   0.000241   0.000000   0.000011
     46       0.000004  -0.000001  -0.000073  -0.000092  -0.000002  -0.000032
     47       0.000001  -0.000000   0.000198   0.000343  -0.000002   0.000005
     48      -0.000000  -0.000002  -0.000326   0.000085   0.000005  -0.000004
     49      -0.000008   0.000001  -0.000423  -0.000108   0.000001  -0.000035
     50      -0.000002  -0.000001  -0.000007   0.000048   0.000004   0.000001
     51       0.000001   0.000009  -0.000086   0.000242   0.000008  -0.000120
     52      -0.000005   0.000004  -0.000428   0.000645   0.000006   0.000052
     53      -0.000002   0.000007  -0.000302   0.000525   0.000004  -0.000046
     54      -0.000000   0.000145   0.000001  -0.000005  -0.000001  -0.000003
     55       0.000001   0.000494  -0.000003   0.000003  -0.000001   0.000020
     56      -0.000000  -0.000187   0.000001  -0.000001  -0.000000  -0.000019
     57      -0.000002  -0.000002  -0.000027   0.000055  -0.000005   0.000004
     58       0.000004  -0.000002   0.000177  -0.000174  -0.000003   0.000017
     59       0.000000  -0.000002   0.000083  -0.000055  -0.000002   0.000013
     60       0.000003  -0.000000   0.000062   0.000106  -0.000002   0.000002
     61       0.000005   0.000000   0.000159   0.000127  -0.000005   0.000008
     62       0.000005  -0.000000  -0.000200  -0.000093  -0.000002   0.000001
     63      -0.000001  -0.000003   0.000120  -0.000015  -0.000005   0.000007
     64       0.000001   0.000001   0.000005  -0.000023   0.000005   0.000002
     65      -0.000003  -0.000000   0.000052   0.000024   0.000003  -0.000002
     66      -0.000018   0.000002  -0.000002  -0.000035  -0.000006  -0.000002
     67       0.000014   0.000001   0.000007  -0.000006  -0.000011   0.000007
     68      -0.000009   0.000000   0.000041   0.000006   0.000001   0.000006
     69       0.000020  -0.000000   0.000010   0.000008   0.000012   0.000003
     70      -0.000016   0.000000  -0.000026   0.000020   0.000012  -0.000001
     71       0.000010  -0.000000  -0.000011   0.000004  -0.000004  -0.000002
     72       0.000006   0.000001   0.000171   0.000077  -0.000001  -0.000008
     73      -0.000004  -0.000003   0.000100  -0.000019   0.000009   0.000006
     74       0.000001  -0.000001   0.000081   0.000020   0.000002   0.000001
     75      -0.000002  -0.000001  -0.000059  -0.000036   0.000002   0.000003
     76       0.000002   0.000000  -0.000045  -0.000005   0.000001  -0.000001
     77       0.000001  -0.000000   0.000019   0.000012   0.000001  -0.000001
     78      -0.000001  -0.000000  -0.000229  -0.000096  -0.000001   0.000003
     79       0.000000   0.000001   0.000059   0.000049  -0.000003  -0.000002
     80       0.000001   0.000000  -0.000066  -0.000022  -0.000002  -0.000001
     81       0.000017  -0.000001   0.000008  -0.000004   0.000031   0.000017
     82      -0.000006  -0.000001   0.000007  -0.000001   0.000020   0.000012
     83       0.000006   0.000001  -0.000008   0.000004  -0.000026  -0.000016
     84       0.000060  -0.000000  -0.000001   0.000000   0.000025  -0.000011
     85      -0.000045   0.000000   0.000010  -0.000009  -0.000033   0.000016
     86       0.000033   0.000000   0.000012  -0.000011  -0.000092   0.000043
     87      -0.000290   0.000001  -0.000005   0.000004   0.000681  -0.000000
     88       0.000240   0.000000  -0.000011   0.000009   0.000803  -0.000002
     89      -0.000160   0.000000  -0.000007   0.000004  -0.000195  -0.000003
     90       0.000058  -0.000000   0.000008  -0.000006  -0.001476   0.000012
     91       0.000071  -0.000000   0.000012  -0.000007  -0.001113   0.000009
     92      -0.000069  -0.000000  -0.000001   0.000001   0.001261  -0.000011
     93       0.000067   0.000000  -0.000001   0.000002   0.000097  -0.000020
     94      -0.000057   0.000000  -0.000002  -0.000005  -0.000106   0.000023
     95       0.000035  -0.000000   0.000002  -0.000009  -0.000325   0.000067
     96      -0.000142  -0.000000   0.000006  -0.000004  -0.000193   0.000001
     97       0.000082  -0.000001   0.000012  -0.000008  -0.000071   0.000003
     98      -0.000090  -0.000000   0.000004  -0.000004   0.000301   0.000001
     99       0.070494   0.000013  -0.000009   0.000006  -0.009982  -0.000002
    100      -0.051429  -0.000008   0.000001  -0.000009  -0.063596  -0.000004
    101       0.038216   0.000005   0.000019  -0.000018  -0.067161  -0.000002
    102       0.000019   0.056099  -0.000024   0.000010   0.000003  -0.000101
    103       0.000029   0.079509  -0.000034   0.000008   0.000004  -0.000064
    104       0.000041   0.120643  -0.000052   0.000013   0.000005  -0.000079
    105      -0.000016  -0.066015   0.000019  -0.000098  -0.000020   0.000280
    106       0.000011   0.053284  -0.000015   0.000079   0.000015  -0.000151
    107       0.000005   0.028491  -0.000009   0.000038   0.000007  -0.000145
    108      -0.000007   0.030863  -0.000009   0.000000  -0.000001   0.000047
    109      -0.000035   0.173637  -0.000024   0.000007   0.000001  -0.000004
    110      -0.000058   0.294139  -0.000043   0.000011   0.000002  -0.000009
    111      -0.000143   0.646798  -0.000096   0.000012  -0.000006  -0.000057
    112      -0.000137   0.620972  -0.000092   0.000017  -0.000006   0.000056
    113       0.000038  -0.171899   0.000026  -0.000006   0.000000  -0.000000
    114       0.000377   0.006024  -0.000004   0.000021   0.000001  -0.000965
    115       0.000213   0.003560   0.000000   0.000005  -0.000000  -0.000109
    116      -0.000084  -0.000882   0.000003  -0.000010  -0.000001   0.000857
    117       0.000048   0.003629  -0.000044   0.000026   0.000001  -0.002724
    118       0.000073   0.005970  -0.000060   0.000040   0.000002  -0.005713
    119       0.000150   0.012229  -0.000118   0.000063  -0.000000  -0.009368
    120       0.000071   0.024634  -0.000029   0.000010   0.000004  -0.000346
    121       0.000109   0.035922  -0.000047   0.000018   0.000006  -0.000808
    122       0.000157   0.049984  -0.000067   0.000030   0.000011  -0.001158
    123       0.000038   0.013760  -0.000020  -0.000027  -0.000003  -0.000053
    124      -0.000114  -0.041501   0.000051   0.000071   0.000007   0.000065
    125       0.000124   0.046983  -0.000053  -0.000078  -0.000007   0.000056
    126       0.000001  -0.000071   0.000104  -0.000237   0.000007  -0.004738
    127      -0.000005  -0.000030  -0.000033   0.000043  -0.000009   0.004621
    128      -0.000009   0.000108  -0.000377   0.000896  -0.000027   0.016470
    129      -0.000004   0.000090   0.000353   0.000147   0.000018  -0.009721
    130      -0.000003  -0.000032  -0.000168   0.000040  -0.000006   0.002655
    131      -0.000004   0.000167   0.000339   0.000406   0.000017  -0.014648
    132      -0.000004   0.000021  -0.001694   0.003854   0.000009  -0.223395
    133      -0.000001  -0.000055   0.001390  -0.003008  -0.000003   0.194705
    134       0.000009  -0.000216   0.005114  -0.011145  -0.000016   0.691822
    135      -0.000002  -0.000385  -0.000177   0.000704   0.000022  -0.376920
    136      -0.000003   0.000065   0.000027  -0.000125  -0.000004   0.097101
    137       0.000000  -0.000614  -0.000196   0.000954   0.000030  -0.523295
    138      -0.000025  -0.000065  -0.352656   0.803408  -0.000191   0.011857
    139      -0.000011  -0.000032  -0.150023   0.344851  -0.000078   0.005223
    140      -0.000001  -0.000005  -0.034955   0.077917  -0.000019   0.000681
    141       0.000004  -0.000033  -0.012592   0.060993  -0.000001  -0.001141
    142       0.000005  -0.000045  -0.021451   0.102591  -0.000011  -0.002890
    143      -0.000011   0.000121   0.050484  -0.235095   0.000023   0.004138
    144       0.000007   0.000040   0.085615   0.058421  -0.000024  -0.000135
    145       0.000006   0.000058   0.136380   0.092685  -0.000025  -0.000340
    146      -0.000010  -0.000083  -0.177053  -0.123128   0.000033   0.000526
    147      -0.000005   0.000010   0.122061   0.047738   0.000004  -0.000017
    148       0.000009  -0.000072  -0.559760  -0.222057  -0.000031  -0.000177
    149       0.000014  -0.000093  -0.674830  -0.269964  -0.000040  -0.000403
    150      -0.000011   0.000003  -0.000205  -0.000024  -0.000018   0.000006
    151      -0.000028  -0.000003  -0.000069  -0.000089  -0.000002   0.000023
    152      -0.000007  -0.000001   0.000117   0.000042  -0.000008   0.000008
    153      -0.000005  -0.000004   0.000053  -0.000056   0.000009   0.000017
    154       0.000012   0.000006   0.000076   0.000113  -0.000016  -0.000029
    155       0.000006   0.000001   0.000027   0.000026  -0.000006  -0.000007
    156      -0.000075   0.000011  -0.000092   0.000009  -0.000484  -0.000197
    157      -0.000007   0.000005  -0.000079   0.000013  -0.000366  -0.000156
    158       0.000009  -0.000006   0.000034   0.000006   0.000407   0.000159
    159       0.000024   0.000003   0.000041  -0.000034  -0.000634   0.000137
    160      -0.000011  -0.000002  -0.000043   0.000024   0.000564  -0.000177
    161       0.000020  -0.000001  -0.000141   0.000103   0.001968  -0.000501
    162      -0.002112   0.000002  -0.000066   0.000061   0.017624  -0.000151
    163       0.000612   0.000001  -0.000037   0.000042   0.014326  -0.000111
    164       0.000045  -0.000002   0.000067  -0.000056  -0.013490   0.000130
    165      -0.000096   0.000001  -0.000032  -0.000000  -0.001298   0.000205
    166       0.000077  -0.000000   0.000019   0.000036   0.001512  -0.000273
    167      -0.000020   0.000000   0.000099   0.000061   0.004463  -0.000759
    168      -0.278759  -0.000041  -0.000062   0.000038   0.104827   0.000003
    169       0.228779   0.000033   0.000061  -0.000039  -0.095758  -0.000001
    170      -0.603296  -0.000089  -0.000148   0.000094   0.201880  -0.000000
    171       0.014290   0.000002  -0.000003   0.000027   0.214678   0.000013
    172      -0.009505  -0.000006  -0.000017   0.000090   0.713613   0.000043
    173       0.008264  -0.000002  -0.000017   0.000072   0.560702   0.000034
    174      -0.569787  -0.000105   0.000140  -0.000117  -0.204980   0.000004
    175       0.389193   0.000072  -0.000086   0.000073   0.130103  -0.000001
    176       0.142885   0.000026  -0.000037   0.000030   0.032201  -0.000004
                168        169        170        171        172        173    
      0       0.000001   0.000001   0.000027   0.000011  -0.000001  -0.000022
      1      -0.000001  -0.000001  -0.000014  -0.000000   0.000001   0.000020
      2      -0.000000  -0.000000   0.000014   0.000018  -0.000000   0.000017
      3      -0.000000   0.000000   0.000009   0.000012  -0.000001  -0.000007
      4       0.000000   0.000001  -0.000026   0.000050  -0.000000   0.000044
      5      -0.000000   0.000000  -0.000007  -0.000003  -0.000001  -0.000009
      6       0.000001   0.000002  -0.000022   0.000123  -0.000002   0.000064
      7       0.000001   0.000001   0.000234  -0.000197  -0.000005  -0.000345
      8      -0.000002  -0.000003  -0.000102   0.000090   0.000006   0.000277
      9      -0.000002  -0.000003  -0.000173   0.000031   0.000005   0.000318
     10       0.000000   0.000001  -0.000029   0.000002  -0.000001  -0.000086
     11       0.000001   0.000001   0.000394   0.000123  -0.000001   0.000130
     12       0.000000  -0.000002   0.000357   0.000056  -0.000000   0.000141
     13       0.000000  -0.000002   0.000298  -0.000029  -0.000001   0.000017
     14       0.000001   0.000002   0.000646   0.000122  -0.000004  -0.000069
     15      -0.000000  -0.000000   0.000059   0.000013  -0.000000   0.000002
     16      -0.000001  -0.000001   0.000047  -0.000005   0.000001   0.000012
     17      -0.000000  -0.000001   0.000053   0.000034  -0.000000   0.000048
     18       0.000002  -0.000002   0.001538  -0.001146  -0.000016  -0.002497
     19      -0.000001   0.000001  -0.001050   0.000287   0.000005   0.000817
     20      -0.000002  -0.000000  -0.002757  -0.001043  -0.000006  -0.001939
     21      -0.000009  -0.000026  -0.000769  -0.014025  -0.000116  -0.022126
     22       0.000009   0.000028   0.000301   0.013858   0.000107   0.019675
     23       0.000032   0.000100  -0.000109   0.049367   0.000356   0.062688
     24      -0.000037  -0.000096   0.004079  -0.037426   0.000007   0.033663
     25       0.000011   0.000029  -0.001243   0.010363  -0.000007  -0.010140
     26      -0.000050  -0.000131   0.004789  -0.054482  -0.000017   0.043180
     27       0.000007   0.000018  -0.002051  -0.001341  -0.000025   0.001523
     28      -0.000003  -0.000010   0.000602   0.000765   0.000012  -0.001008
     29       0.000001   0.000003  -0.002243   0.001657   0.000004  -0.002206
     30       0.000015   0.000028  -0.018733  -0.000202   0.000019   0.000584
     31      -0.000015  -0.000025   0.015559   0.000251  -0.000014  -0.000595
     32      -0.000057  -0.000084   0.052811   0.001664  -0.000049  -0.003008
     33       0.000036  -0.000040   0.039496   0.003284  -0.000033  -0.001500
     34      -0.000009   0.000010  -0.010442  -0.000972   0.000009   0.000191
     35       0.000054  -0.000049   0.052548   0.003947  -0.000053  -0.002836
     36      -0.000010  -0.000040   0.000296   0.000074   0.000057  -0.000255
     37      -0.000004  -0.000029   0.000052  -0.000037   0.000072   0.000106
     38       0.000002  -0.000013   0.000289  -0.000165   0.000022   0.000195
     39       0.000004   0.000006   0.000565   0.000043   0.000009  -0.000171
     40      -0.000002   0.000006   0.000292  -0.000053  -0.000006  -0.000036
     41       0.000001   0.000021   0.000288  -0.000049  -0.000034  -0.000044
     42      -0.000005   0.000003  -0.000051   0.000010   0.000010  -0.000005
     43       0.000012   0.000003  -0.000046  -0.000004   0.000001  -0.000001
     44      -0.000006   0.000009  -0.000042  -0.000052   0.000002   0.000069
     45      -0.000008   0.000017  -0.000003  -0.000015  -0.000010   0.000008
     46       0.000004  -0.000013   0.000029  -0.000011  -0.000032   0.000001
     47       0.000001  -0.000001  -0.000001  -0.000007  -0.000015   0.000004
     48       0.000005   0.000057   0.000029  -0.000011  -0.000024  -0.000004
     49       0.000117   0.000009   0.000029   0.000082  -0.000065  -0.000058
     50       0.000005   0.000023   0.000007  -0.000017  -0.000050   0.000009
     51      -0.000008   0.000033  -0.000039   0.000116   0.000013   0.000020
     52       0.000010   0.000129  -0.000196  -0.000296  -0.000309   0.000295
     53      -0.000003   0.000076  -0.000063  -0.000150  -0.000157   0.000193
     54      -0.000001  -0.000001   0.000009  -0.000239  -0.000001  -0.000270
     55      -0.000001  -0.000000  -0.000059  -0.000006   0.000002   0.000049
     56       0.000001   0.000001   0.000040  -0.000141  -0.000003  -0.000228
     57      -0.000006  -0.000066   0.000023  -0.000212   0.000115   0.000136
     58      -0.000000  -0.000045   0.000059   0.000039   0.000105  -0.000072
     59      -0.000014  -0.000105   0.000009   0.000247   0.000265  -0.000219
     60       0.000018  -0.000016   0.000001  -0.000005  -0.000011   0.000002
     61       0.000072  -0.000045  -0.000005   0.000003  -0.000062  -0.000003
     62       0.000045  -0.000027   0.000001   0.000004  -0.000020  -0.000004
     63      -0.000112   0.000016   0.000021  -0.000009  -0.000035  -0.000010
     64       0.000031   0.000051  -0.000012   0.000008  -0.000057   0.000002
     65       0.000073  -0.000008  -0.000001   0.000003  -0.000047   0.000001
     66       0.000353  -0.000130  -0.000016   0.000017   0.000022   0.000001
     67       0.000034  -0.000069  -0.000013  -0.000004  -0.000142   0.000007
     68      -0.000101   0.000038  -0.000011   0.000001  -0.000250   0.000002
     69      -0.002368   0.000740  -0.000001   0.000002  -0.000451   0.000002
     70      -0.002428   0.000546  -0.000001   0.000000   0.001775  -0.000004
     71       0.001020  -0.000658   0.000001  -0.000009   0.003415  -0.000010
     72       0.000010  -0.000015  -0.000001   0.000004  -0.000031   0.000003
     73      -0.000005   0.000024   0.000012  -0.000012   0.000026  -0.000001
     74       0.000012   0.000003   0.000005  -0.000004   0.000014   0.000000
     75       0.000012   0.000001   0.000002  -0.000003   0.000006  -0.000001
     76       0.000010  -0.000008  -0.000002   0.000003  -0.000002  -0.000000
     77       0.000001  -0.000002  -0.000001   0.000001   0.000000   0.000000
     78      -0.000002  -0.000000  -0.000001   0.000000  -0.000000  -0.000002
     79      -0.000003  -0.000009  -0.000005   0.000004  -0.000012   0.000001
     80      -0.000004  -0.000001  -0.000002   0.000002  -0.000006   0.000000
     81      -0.005016  -0.016747   0.000028  -0.000118   0.054508  -0.000185
     82      -0.002999  -0.011920   0.000025  -0.000100   0.043829  -0.000148
     83       0.005611   0.015895  -0.000019   0.000090  -0.044851   0.000153
     84       0.007073   0.019312   0.000032  -0.000066   0.005693  -0.000015
     85      -0.009133  -0.024505  -0.000044   0.000098  -0.012227   0.000034
     86      -0.025859  -0.069979  -0.000120   0.000254  -0.027207   0.000078
     87      -0.000735  -0.001936  -0.000006   0.000011  -0.001307   0.000005
     88      -0.000705  -0.001971  -0.000007   0.000012  -0.001207   0.000004
     89       0.000489   0.000881   0.000001  -0.000001   0.000924  -0.000005
     90      -0.010723   0.003322   0.000021  -0.000014   0.004578  -0.000040
     91      -0.006448   0.002172   0.000018  -0.000015   0.003629  -0.000031
     92       0.011356  -0.003308  -0.000017   0.000006  -0.003686   0.000034
     93       0.020761  -0.007409  -0.000013   0.000003  -0.000487   0.000001
     94      -0.025026   0.009504   0.000011   0.000006  -0.000716   0.000002
     95      -0.072652   0.026681   0.000039  -0.000000   0.000040   0.000002
     96      -0.000023   0.000190   0.000002  -0.000003   0.000208  -0.000001
     97      -0.000101   0.000164   0.000004  -0.000005   0.000231  -0.000002
     98      -0.000106  -0.000118   0.000001  -0.000002  -0.000078  -0.000000
     99       0.000094   0.000087  -0.000002   0.000003  -0.000040   0.000000
    100       0.000644   0.000070  -0.000003   0.000003   0.000006   0.000001
    101       0.000748  -0.000077   0.000002  -0.000001   0.000042   0.000000
    102       0.000002   0.000001  -0.000143  -0.000076   0.000001  -0.000045
    103       0.000002   0.000000  -0.000145  -0.000117   0.000003  -0.000060
    104       0.000002   0.000000  -0.000218  -0.000192   0.000003  -0.000096
    105      -0.000010  -0.000012  -0.000153  -0.000182   0.000014   0.000154
    106       0.000008   0.000010   0.000188   0.000170  -0.000011  -0.000099
    107       0.000004   0.000004   0.000006   0.000014  -0.000006  -0.000106
    108      -0.000001  -0.000002   0.000003  -0.000038   0.000003   0.000042
    109       0.000002   0.000004   0.000098   0.000238  -0.000001   0.000195
    110       0.000003   0.000005   0.000118   0.000234  -0.000000   0.000178
    111      -0.000005  -0.000005  -0.000504  -0.000066   0.000013   0.000306
    112      -0.000003  -0.000003  -0.000182  -0.000125   0.000009   0.000094
    113       0.000001   0.000001   0.000092  -0.000027  -0.000003  -0.000115
    114       0.000000   0.000019  -0.000257   0.000535  -0.000000  -0.000724
    115      -0.000001   0.000010   0.000296   0.000453   0.000002  -0.000272
    116      -0.000001  -0.000007   0.000690  -0.000096  -0.000000   0.000119
    117      -0.000002  -0.000000  -0.002540  -0.000503   0.000006  -0.000039
    118      -0.000006   0.000002  -0.005677  -0.000600   0.000012   0.000139
    119      -0.000011  -0.000002  -0.009320  -0.001445   0.000023   0.000131
    120       0.000003   0.000005  -0.000281  -0.000049  -0.000001  -0.000086
    121       0.000004   0.000007  -0.000688  -0.000164  -0.000000  -0.000191
    122       0.000007   0.000012  -0.000963  -0.000188  -0.000002  -0.000254
    123      -0.000002  -0.000005  -0.000290  -0.000098   0.000006   0.000094
    124       0.000003   0.000010   0.000567   0.000228  -0.000011  -0.000111
    125      -0.000003  -0.000011  -0.000408  -0.000269   0.000009  -0.000055
    126       0.000118   0.000368   0.001444   0.186766   0.001348   0.236627
    127      -0.000108  -0.000336  -0.000887  -0.167370  -0.001204  -0.211396
    128      -0.000369  -0.001148  -0.001485  -0.569168  -0.004057  -0.710738
    129       0.000419   0.001117  -0.043567   0.450267   0.000094  -0.361456
    130      -0.000120  -0.000311   0.012275  -0.124998  -0.000039   0.101688
    131       0.000567   0.001498  -0.058635   0.619388   0.000203  -0.492894
    132      -0.000207  -0.000315   0.195980   0.004995  -0.000182  -0.009493
    133       0.000187   0.000276  -0.169605  -0.004413   0.000147   0.008515
    134       0.000662   0.000981  -0.597125  -0.016797   0.000526   0.030722
    135      -0.000444   0.000405  -0.436048  -0.034420   0.000423   0.019401
    136       0.000116  -0.000105   0.113217   0.009223  -0.000111  -0.004839
    137      -0.000613   0.000565  -0.599751  -0.046813   0.000579   0.027726
    138      -0.000105  -0.000172  -0.008780   0.000477   0.000100   0.001180
    139      -0.000030  -0.000086  -0.003793   0.000366   0.000096   0.000377
    140      -0.000003  -0.000039  -0.000531   0.000129   0.000052   0.000055
    141       0.000021   0.000060   0.000883  -0.000155  -0.000101  -0.000028
    142       0.000012   0.000043   0.002281  -0.000024  -0.000077  -0.000062
    143      -0.000009  -0.000175  -0.003474   0.000499   0.000293   0.000161
    144      -0.000044  -0.000030   0.000030  -0.000077  -0.000058   0.000128
    145      -0.000057  -0.000001   0.000137  -0.000190  -0.000060   0.000234
    146       0.000060  -0.000008  -0.000211   0.000230   0.000061  -0.000317
    147       0.000011   0.000008   0.000125  -0.000032  -0.000022  -0.000028
    148       0.000036  -0.000108  -0.000177   0.000168   0.000027  -0.000086
    149       0.000018  -0.000110  -0.000007   0.000296   0.000020  -0.000268
    150      -0.000175   0.000061  -0.000014   0.000004   0.000009   0.000001
    151      -0.000097   0.000074   0.000015  -0.000024   0.000047  -0.000008
    152      -0.000048   0.000039   0.000008  -0.000009   0.000003  -0.000002
    153      -0.000023   0.000039   0.000012  -0.000018   0.000024  -0.000004
    154      -0.000001  -0.000055  -0.000021   0.000029  -0.000030   0.000009
    155      -0.000000  -0.000012  -0.000005   0.000006  -0.000014   0.000004
    156       0.063984   0.206732  -0.000295   0.001287  -0.618268   0.002106
    157       0.049207   0.161150  -0.000229   0.001009  -0.485974   0.001665
    158      -0.054220  -0.172750   0.000223  -0.001023   0.511223  -0.001751
    159      -0.080811  -0.217671  -0.000368   0.000771  -0.079059   0.000222
    160       0.106659   0.287931   0.000491  -0.001041   0.108395  -0.000308
    161       0.298259   0.804891   0.001362  -0.002877   0.296438  -0.000845
    162       0.137833  -0.042661  -0.000240   0.000148  -0.053085   0.000473
    163       0.102828  -0.032336  -0.000181   0.000111  -0.040301   0.000359
    164      -0.118937   0.036272   0.000208  -0.000127   0.044628  -0.000401
    165      -0.231236   0.084629   0.000120   0.000015   0.000357   0.000003
    166       0.296889  -0.108871  -0.000155  -0.000013   0.000815  -0.000008
    167       0.831102  -0.304407  -0.000423  -0.000040   0.000416  -0.000021
    168      -0.002207   0.000668  -0.000007   0.000003   0.000260  -0.000001
    169       0.001151  -0.000769   0.000008  -0.000003  -0.000034  -0.000001
    170      -0.003481   0.001765  -0.000021   0.000012   0.000351   0.000001
    171      -0.001563   0.000386   0.000009  -0.000012   0.000244  -0.000004
    172      -0.006538   0.000853   0.000029  -0.000033   0.000649  -0.000016
    173      -0.005858   0.000422   0.000021  -0.000025   0.000403  -0.000014
    174       0.002948  -0.001658   0.000011  -0.000009  -0.000102   0.000010
    175      -0.002623   0.000948  -0.000005   0.000005   0.000229  -0.000009
    176      -0.000465   0.000436  -0.000005   0.000004   0.000021  -0.000002
                174        175        176    
      0      -0.000001   0.000001  -0.000000
      1       0.000000  -0.000001   0.000000
      2       0.000000  -0.000000  -0.000000
      3      -0.000000  -0.000000  -0.000000
      4      -0.000001   0.000001  -0.000000
      5      -0.000000   0.000000  -0.000000
      6      -0.000001   0.000004  -0.000002
      7      -0.000001   0.000002  -0.000002
      8       0.000001  -0.000007   0.000003
      9       0.000001  -0.000006   0.000003
     10      -0.000001   0.000002  -0.000000
     11      -0.000000   0.000002  -0.000001
     12       0.000001   0.000000  -0.000000
     13       0.000001  -0.000001   0.000000
     14      -0.000001   0.000003  -0.000001
     15      -0.000000   0.000000  -0.000000
     16       0.000001  -0.000001   0.000000
     17       0.000000  -0.000001   0.000000
     18      -0.000002   0.000005  -0.000002
     19       0.000001  -0.000002   0.000001
     20       0.000000  -0.000001   0.000000
     21      -0.000010   0.000001  -0.000000
     22       0.000008   0.000001  -0.000001
     23       0.000029  -0.000003   0.000001
     24       0.000014  -0.000003   0.000001
     25      -0.000004   0.000003  -0.000001
     26       0.000016   0.000003  -0.000001
     27      -0.000002   0.000023  -0.000008
     28       0.000002  -0.000011   0.000005
     29       0.000001  -0.000004   0.000003
     30       0.000004  -0.000004   0.000002
     31      -0.000003   0.000001  -0.000001
     32      -0.000010  -0.000001  -0.000001
     33      -0.000008   0.000000   0.000001
     34       0.000002  -0.000001   0.000001
     35      -0.000013   0.000003  -0.000001
     36       0.000007  -0.000032   0.000021
     37      -0.000007   0.000008  -0.000000
     38      -0.000000  -0.000001   0.000003
     39      -0.000009   0.000008  -0.000005
     40      -0.000002  -0.000010  -0.000004
     41      -0.000004   0.000009  -0.000008
     42      -0.000006  -0.000025  -0.000012
     43      -0.000002  -0.000027  -0.000010
     44      -0.000002   0.000002  -0.000003
     45      -0.000004   0.000191   0.000056
     46       0.000026  -0.000078   0.000019
     47       0.000013  -0.000039   0.000026
     48      -0.000048   0.000072   0.000005
     49       0.000027   0.000110  -0.000010
     50      -0.000016   0.000058  -0.000004
     51      -0.000028   0.000072  -0.000026
     52       0.000041  -0.000048   0.000019
     53       0.000014  -0.000005   0.000000
     54       0.000000  -0.000001   0.000001
     55      -0.000000  -0.000001   0.000001
     56      -0.000000   0.000002  -0.000001
     57      -0.000004  -0.000013   0.000006
     58      -0.000019   0.000032  -0.000003
     59      -0.000027   0.000012   0.000001
     60       0.000025  -0.000073   0.000506
     61       0.000047   0.000508  -0.000341
     62       0.000031   0.000159  -0.000101
     63       0.000004  -0.000179  -0.000075
     64      -0.000015  -0.000076  -0.000061
     65      -0.000007  -0.000029  -0.000031
     66       0.000147  -0.000187  -0.000002
     67       0.000128   0.000264   0.000090
     68       0.000002   0.000080   0.000034
     69      -0.001129  -0.000030  -0.000004
     70      -0.001184  -0.000049   0.000006
     71       0.000521  -0.000019   0.000003
     72       0.000024  -0.000696   0.000171
     73      -0.000034   0.000177   0.000828
     74      -0.000006   0.000218   0.000288
     75      -0.000004   0.053123   0.003608
     76       0.000008  -0.002419   0.082212
     77       0.000002   0.005098   0.028916
     78       0.000001  -0.001002  -0.000462
     79       0.000013  -0.000763  -0.000384
     80       0.000003  -0.000315  -0.000152
     81      -0.004523   0.000016  -0.000000
     82      -0.003568   0.000008   0.000001
     83       0.003847  -0.000003   0.000004
     84      -0.000555   0.000005  -0.000002
     85       0.000279   0.000008  -0.000004
     86       0.001398  -0.000003   0.000000
     87      -0.000551  -0.000008   0.000004
     88       0.001530  -0.000015   0.000012
     89       0.003028  -0.000011   0.000006
     90       0.055964   0.000008   0.000005
     91       0.042180   0.000008  -0.000002
     92      -0.047520   0.000011  -0.000004
     93       0.003892  -0.000006   0.000002
     94      -0.008348   0.000005  -0.000001
     95      -0.018561   0.000025   0.000009
     96       0.000190   0.000010  -0.000005
     97      -0.000005   0.000017  -0.000010
     98      -0.000353   0.000006  -0.000003
     99       0.000179  -0.000011   0.000003
    100      -0.001020  -0.000004   0.000005
    101      -0.001961   0.000006  -0.000002
    102      -0.000000   0.000001   0.000001
    103       0.000000  -0.000002   0.000002
    104       0.000001  -0.000003   0.000003
    105       0.000006  -0.000013   0.000005
    106      -0.000005   0.000010  -0.000004
    107      -0.000002   0.000003  -0.000001
    108       0.000001  -0.000004   0.000001
    109      -0.000001   0.000003  -0.000001
    110      -0.000000   0.000001   0.000001
    111       0.000002  -0.000006   0.000003
    112       0.000000  -0.000003   0.000002
    113      -0.000000  -0.000001  -0.000000
    114      -0.000011   0.000003   0.000001
    115      -0.000006  -0.000001   0.000002
    116       0.000003  -0.000003   0.000000
    117       0.000002   0.000000   0.000001
    118       0.000003  -0.000002   0.000002
    119       0.000008  -0.000010   0.000006
    120      -0.000002   0.000002   0.000000
    121      -0.000002   0.000002   0.000001
    122      -0.000003   0.000005   0.000001
    123       0.000004  -0.000006   0.000002
    124      -0.000008   0.000009  -0.000003
    125       0.000008  -0.000008   0.000002
    126       0.000109  -0.000014   0.000003
    127      -0.000097   0.000007  -0.000003
    128      -0.000328   0.000024  -0.000006
    129      -0.000136  -0.000001  -0.000004
    130       0.000040  -0.000006  -0.000001
    131      -0.000185  -0.000029   0.000010
    132      -0.000038   0.000010  -0.000007
    133       0.000035  -0.000004  -0.000002
    134       0.000109   0.000025  -0.000002
    135       0.000104  -0.000024   0.000009
    136      -0.000026   0.000007  -0.000005
    137       0.000141  -0.000026   0.000008
    138       0.000109  -0.000125   0.000053
    139       0.000031   0.000003   0.000008
    140       0.000010  -0.000009   0.000003
    141      -0.000009   0.000039  -0.000020
    142      -0.000007   0.000057  -0.000009
    143       0.000024  -0.000089   0.000033
    144       0.000059  -0.000110   0.000037
    145       0.000036   0.000077   0.000023
    146      -0.000040  -0.000104  -0.000016
    147       0.000017   0.000126  -0.000034
    148       0.000071   0.000075   0.000001
    149       0.000075   0.000163  -0.000019
    150      -0.000037  -0.398223  -0.379697
    151      -0.000090  -0.554708  -0.523128
    152      -0.000037  -0.238988  -0.227391
    153      -0.000044  -0.312944   0.329356
    154       0.000071   0.589669  -0.619617
    155       0.000020   0.167637  -0.174499
    156       0.050939  -0.000028  -0.000011
    157       0.039902  -0.000036   0.000003
    158      -0.042349  -0.000027   0.000004
    159       0.004247  -0.000011  -0.000001
    160      -0.004424   0.000051  -0.000007
    161      -0.013964   0.000061  -0.000015
    162      -0.640356   0.000052  -0.000014
    163      -0.484579   0.000072   0.000007
    164       0.541863  -0.000024   0.000004
    165      -0.053532  -0.000014   0.000002
    166       0.071998  -0.000041   0.000010
    167       0.196885  -0.000189  -0.000145
    168       0.007516  -0.000001   0.000002
    169      -0.004079   0.000015  -0.000005
    170       0.013902  -0.000037   0.000023
    171       0.002673   0.000012  -0.000007
    172       0.013035   0.000026  -0.000024
    173       0.012482   0.000010  -0.000018
    174      -0.010946   0.000064  -0.000002
    175       0.009478  -0.000029   0.000002
    176       0.002746  -0.000024   0.000010


-----------
IR SPECTRUM
-----------

 Mode   freq       eps      Int      T**2         TX        TY        TZ
       cm**-1   L/(mol*cm) km/mol    a.u.
----------------------------------------------------------------------------
  6:     17.65   0.000111    0.56  0.001960  (-0.002941  0.036369 -0.025081)
  7:     24.39   0.000413    2.09  0.005287  ( 0.023572  0.064810  0.023039)
  8:     26.57   0.000237    1.20  0.002778  (-0.018806  0.023847  0.043074)
  9:     32.05   0.000632    3.19  0.006150  ( 0.066520  0.006503  0.041017)
 10:     40.69   0.000074    0.37  0.000564  ( 0.006883  0.021642 -0.006961)
 11:     47.87   0.000057    0.29  0.000370  (-0.008132 -0.016674  0.005066)
 12:     51.23   0.001775    8.97  0.010810  ( 0.035695 -0.036256  0.090672)
 13:     65.10   0.000896    4.53  0.004297  (-0.050562 -0.022159  0.035354)
 14:     75.70   0.001283    6.48  0.005290  ( 0.028032  0.005868 -0.066856)
 15:     78.69   0.000699    3.53  0.002772  ( 0.044409 -0.006616 -0.027498)
 16:     93.43   0.000744    3.76  0.002484  (-0.045830  0.019473  0.002194)
 17:    100.12   0.000898    4.54  0.002801  ( 0.035539 -0.039211 -0.000273)
 18:    116.24   0.000530    2.68  0.001424  (-0.001872  0.021044  0.031268)
 19:    119.74   0.000562    2.84  0.001465  (-0.035008  0.011040 -0.010851)
 20:    138.60   0.000722    3.65  0.001625  ( 0.012543  0.037841  0.005947)
 21:    157.03   0.000959    4.85  0.001907  (-0.026607  0.023327 -0.025582)
 22:    174.74   0.000587    2.97  0.001049  ( 0.006907 -0.007838 -0.030654)
 23:    182.22   0.000275    1.39  0.000471  (-0.017356  0.012159  0.004685)
 24:    194.74   0.003354   16.95  0.005375  ( 0.006494  0.062792 -0.037279)
 25:    214.73   0.002621   13.25  0.003809  ( 0.003410  0.040623 -0.046339)
 26:    220.46   0.053942  272.60  0.076355  (-0.050618 -0.069550  0.262593)
 27:    242.33   0.003056   15.44  0.003935  (-0.061740 -0.010843 -0.002309)
 28:    247.77   0.001966    9.93  0.002476  (-0.035859  0.033930 -0.006217)
 29:    268.02   0.002133   10.78  0.002483  (-0.048143  0.012817  0.000951)
 30:    279.41   0.000436    2.20  0.000487  ( 0.020578  0.007255  0.003270)
 31:    308.55   0.000305    1.54  0.000309  (-0.014573 -0.009720  0.001447)
 32:    314.50   0.004262   21.54  0.004229  (-0.058843 -0.027300 -0.004624)
 33:    316.08   0.001072    5.42  0.001058  ( 0.028094  0.016356 -0.001176)
 34:    337.24   0.000780    3.94  0.000722  (-0.024129 -0.006097  0.010119)
 35:    362.83   0.001492    7.54  0.001283  (-0.030471  0.016666 -0.008771)
 36:    369.01   0.000469    2.37  0.000397  ( 0.017040 -0.007010 -0.007573)
 37:    408.93   0.001902    9.61  0.001451  ( 0.029854 -0.019818 -0.012933)
 38:    416.30   0.001118    5.65  0.000838  (-0.010888  0.022138  0.015157)
 39:    418.70   0.000572    2.89  0.000427  (-0.006103  0.018954  0.005483)
 40:    420.35   0.000156    0.79  0.000116  (-0.006603  0.001413 -0.008368)
 41:    427.22   0.000006    0.03  0.000004  (-0.001823 -0.000539  0.000821)
 42:    446.68   0.000095    0.48  0.000066  ( 0.001329  0.002015  0.007785)
 43:    463.68   0.000820    4.14  0.000552  (-0.009409 -0.008085  0.019943)
 44:    475.93   0.000238    1.20  0.000156  ( 0.009522 -0.004527 -0.006693)
 45:    486.03   0.001944    9.82  0.001248  ( 0.005988 -0.029671 -0.018220)
 46:    505.98   0.000513    2.59  0.000316  (-0.011804  0.013297  0.000310)
 47:    518.17   0.003271   16.53  0.001970  ( 0.036053 -0.023848  0.010058)
 48:    520.37   0.002548   12.88  0.001528  (-0.000083 -0.029741 -0.025367)
 49:    544.63   0.005511   27.85  0.003158  ( 0.021390 -0.040232  0.032884)
 50:    563.81   0.000412    2.08  0.000228  ( 0.005656 -0.008813 -0.010873)
 51:    569.57   0.003969   20.06  0.002175  ( 0.025027  0.038562 -0.007821)
 52:    596.35   0.000973    4.92  0.000509  ( 0.018242  0.013107  0.002160)
 53:    617.11   0.008719   44.06  0.004409  (-0.041814 -0.046774 -0.021738)
 54:    625.34   0.000298    1.51  0.000149  (-0.003007  0.008947 -0.007732)
 55:    633.98   0.001364    6.89  0.000672  (-0.023318 -0.005388 -0.009938)
 56:    649.26   0.000989    5.00  0.000475  ( 0.000369  0.021261 -0.004794)
 57:    655.58   0.000539    2.73  0.000257  ( 0.009431 -0.011568  0.005826)
 58:    666.89   0.007386   37.33  0.003456  (-0.012174  0.057254 -0.005480)
 59:    675.71   0.005999   30.32  0.002770  (-0.017393  0.037069  0.033073)
 60:    683.25   0.000373    1.89  0.000170  (-0.003083 -0.002890  0.012350)
 61:    693.33   0.001621    8.19  0.000729  ( 0.000632 -0.010973  0.024670)
 62:    709.73   0.006780   34.26  0.002981  (-0.053705  0.008995 -0.004001)
 63:    733.09   0.001122    5.67  0.000478  ( 0.010904  0.006767  0.017693)
 64:    742.59   0.000788    3.98  0.000331  ( 0.002552  0.006529  0.016789)
 65:    764.30   0.007453   37.67  0.003043  ( 0.034257 -0.043001  0.004535)
 66:    774.02   0.000232    1.17  0.000093  ( 0.005267  0.004086 -0.007005)
 67:    798.69   0.001451    7.33  0.000567  ( 0.016607 -0.003812 -0.016629)
 68:    808.76   0.001371    6.93  0.000529  (-0.015338  0.016089 -0.005905)
 69:    812.83   0.003655   18.47  0.001403  (-0.036488 -0.007826  0.003229)
 70:    824.57   0.007015   35.45  0.002655  ( 0.048134  0.015727 -0.009519)
 71:    829.88   0.004039   20.41  0.001519  (-0.025971 -0.023878  0.016551)
 72:    837.58   0.012006   60.67  0.004473  ( 0.037156 -0.055336  0.005532)
 73:    840.38   0.014886   75.23  0.005528  ( 0.064049 -0.006312  0.037224)
 74:    852.36   0.009488   47.95  0.003474  ( 0.013914 -0.054898  0.016325)
 75:    866.70   0.001023    5.17  0.000368  ( 0.010375 -0.002009  0.016025)
 76:    904.69   0.002084   10.53  0.000719  ( 0.023317 -0.005187  0.012180)
 77:    936.21   0.000245    1.24  0.000082  (-0.000083  0.008639 -0.002635)
 78:    938.58   0.000175    0.88  0.000058  (-0.002439  0.004819 -0.005381)
 79:    948.48   0.000177    0.90  0.000058  ( 0.006659 -0.000225  0.003727)
 80:    958.94   0.004601   23.25  0.001497  ( 0.037893  0.000494 -0.007826)
 81:    963.38   0.000055    0.28  0.000018  (-0.004142 -0.000795 -0.000337)
 82:    971.64   0.000278    1.41  0.000089  (-0.000064  0.000449  0.009444)
 83:    982.74   0.001573    7.95  0.000500  (-0.017954  0.000441  0.013303)
 84:    993.58   0.020130  101.73  0.006322  (-0.079177  0.002848 -0.006726)
 85:   1018.28   0.003569   18.04  0.001094  ( 0.030461  0.003707  0.012334)
 86:   1023.67   0.015586   78.76  0.004751  (-0.062915 -0.027776  0.004621)
 87:   1036.23   0.016504   83.40  0.004970  (-0.052633 -0.042463  0.019920)
 88:   1040.15   0.000359    1.81  0.000108  ( 0.004886  0.003272 -0.008549)
 89:   1046.35   0.007844   39.64  0.002339  (-0.039529  0.026563 -0.008440)
 90:   1069.45   0.000974    4.92  0.000284  (-0.016789 -0.001237  0.000822)
 91:   1079.40   0.000650    3.29  0.000188  ( 0.007616  0.006256 -0.009531)
 92:   1087.44   0.000578    2.92  0.000166  ( 0.005778  0.011005  0.003361)
 93:   1102.74   0.001498    7.57  0.000424  (-0.019630  0.004615  0.004155)
 94:   1107.26   0.000994    5.02  0.000280  (-0.010171  0.010793  0.007761)
 95:   1133.08   0.005762   29.12  0.001587  (-0.021787  0.001306  0.033323)
 96:   1135.67   0.003472   17.55  0.000954  (-0.030335  0.005366  0.002253)
 97:   1154.17   0.008781   44.38  0.002374  ( 0.000736  0.043433 -0.022075)
 98:   1161.55   0.036534  184.63  0.009815  (-0.080006 -0.038693 -0.043785)
 99:   1167.14   0.000058    0.29  0.000015  ( 0.002208 -0.003029  0.001194)
100:   1173.08   0.005977   30.20  0.001590  ( 0.021709  0.032280  0.008758)
101:   1174.97   0.029566  149.41  0.007852  ( 0.074694 -0.003635 -0.047540)
102:   1190.97   0.006209   31.38  0.001627  (-0.010792 -0.038058 -0.007879)
103:   1192.76   0.001712    8.65  0.000448  (-0.013206 -0.000237  0.016534)
104:   1200.80   0.000201    1.01  0.000052  (-0.000531  0.005798 -0.004268)
105:   1207.67   0.005365   27.11  0.001386  (-0.019974 -0.031420 -0.000431)
106:   1219.18   0.007264   36.71  0.001859  ( 0.027507  0.020819  0.025869)
107:   1239.76   0.009895   50.01  0.002491  (-0.039556  0.029864 -0.005851)
108:   1245.12   0.013661   69.04  0.003424  ( 0.046425 -0.032217 -0.015187)
109:   1258.02   0.011451   57.87  0.002840  ( 0.042042 -0.030745  0.011301)
110:   1270.95   0.087717  443.29  0.021538  (-0.072588 -0.123416 -0.032204)
111:   1281.47   0.000188    0.95  0.000046  (-0.006134  0.002641 -0.001037)
112:   1297.92   0.028330  143.17  0.006812  ( 0.072294 -0.008249 -0.038950)
113:   1306.80   0.090758  458.65  0.021673  (-0.141839  0.039372  0.002095)
114:   1315.81   0.024095  121.76  0.005714  (-0.070729  0.026132 -0.005378)
115:   1320.71   0.022248  112.43  0.005257  (-0.047855 -0.032916  0.043397)
116:   1326.98   0.001283    6.49  0.000302  (-0.012486  0.010438  0.006079)
117:   1337.47   0.004548   22.98  0.001061  (-0.002899  0.008778  0.031235)
118:   1346.60   0.026147  132.14  0.006059  ( 0.072409  0.026861  0.009741)
119:   1350.99   0.009377   47.39  0.002166  (-0.037319 -0.009320  0.026198)
120:   1353.78   0.007354   37.17  0.001695  ( 0.029806  0.014189  0.024607)
121:   1358.77   0.011046   55.82  0.002537  ( 0.023005  0.043569  0.010461)
122:   1364.25   0.011990   60.59  0.002743  (-0.040362 -0.005787  0.032864)
123:   1368.10   0.003627   18.33  0.000827  (-0.001354  0.027517  0.008264)
124:   1377.18   0.000203    1.03  0.000046  ( 0.003394  0.000792  0.005818)
125:   1387.39   0.024846  125.56  0.005588  ( 0.053699 -0.048120 -0.019733)
126:   1416.16   0.025692  129.84  0.005661  ( 0.073680 -0.015217  0.001102)
127:   1424.56   0.015700   79.34  0.003439  ( 0.045621 -0.004126 -0.036620)
128:   1438.41   0.006739   34.06  0.001462  (-0.034733  0.001038  0.015959)
129:   1446.46   0.008358   42.24  0.001803  ( 0.039704 -0.014972  0.001603)
130:   1448.55   0.005888   29.76  0.001268  (-0.020219 -0.028736 -0.005822)
131:   1452.22   0.001628    8.23  0.000350  ( 0.011591  0.010326 -0.010438)
132:   1460.48   0.011205   56.63  0.002394  (-0.041475 -0.018617 -0.018097)
133:   1463.34   0.002530   12.79  0.000540  ( 0.006564  0.020108  0.009599)
134:   1470.15   0.002441   12.33  0.000518  ( 0.016432 -0.011236  0.011037)
135:   1470.84   0.003326   16.81  0.000706  ( 0.014546 -0.019870 -0.009961)
136:   1478.17   0.007054   35.65  0.001489  (-0.037937  0.005393  0.004568)
137:   1483.48   0.009837   49.71  0.002069  (-0.019851 -0.037312 -0.016821)
138:   1487.25   0.016248   82.11  0.003409  (-0.055542  0.015645 -0.008916)
139:   1498.26   0.014342   72.48  0.002987  ( 0.047591 -0.014747 -0.022469)
140:   1528.57   0.054868  277.28  0.011201  ( 0.083737 -0.061919 -0.018855)
141:   1535.66   0.028760  145.34  0.005844  ( 0.073414  0.021300 -0.001033)
142:   1539.96   0.045243  228.64  0.009168  (-0.048874 -0.076731 -0.029865)
143:   1562.46   0.013010   65.75  0.002598  (-0.032278 -0.033463 -0.020898)
144:   1593.80   0.061730  311.96  0.012087  (-0.082125  0.070352  0.019813)
145:   1613.19   0.004360   22.03  0.000843  ( 0.005093 -0.028458  0.002747)
146:   1621.19   0.003303   16.69  0.000636  ( 0.003045 -0.019362 -0.015861)
147:   1637.27   0.003584   18.11  0.000683  (-0.000630 -0.006960  0.025186)
148:   1641.91   0.021290  107.59  0.004046  (-0.033345 -0.052576 -0.013052)
149:   1676.51   0.093601  473.02  0.017423  (-0.019037 -0.108796  0.072276)
150:   1688.83   0.042044  212.47  0.007769  (-0.000676 -0.067285 -0.056932)
151:   1694.04   0.151466  765.45  0.027902  ( 0.104872  0.119092  0.052163)
152:   2993.58   0.008308   41.99  0.000866  ( 0.001626 -0.006131  0.028737)
153:   2998.46   0.007818   39.51  0.000814  (-0.008353 -0.007941 -0.026094)
154:   2998.87   0.013591   68.68  0.001414  ( 0.024664  0.024644 -0.014094)
155:   3010.12   0.003252   16.44  0.000337  ( 0.018071 -0.003248 -0.000248)
156:   3012.99   0.004918   24.85  0.000509  (-0.009116  0.017459 -0.011020)
157:   3016.08   0.008751   44.22  0.000905  ( 0.018290  0.015405  0.018263)
158:   3019.47   0.003679   18.59  0.000380  ( 0.002525  0.014466 -0.012827)
159:   3069.29   0.009048   45.72  0.000920  ( 0.022612 -0.017992 -0.009213)
160:   3071.44   0.005375   27.16  0.000546  ( 0.009185  0.017925 -0.011852)
161:   3078.01   0.007911   39.98  0.000802  ( 0.010518  0.004548  0.025898)
162:   3080.68   0.005910   29.86  0.000599  ( 0.018112 -0.013090  0.009962)
163:   3089.64   0.003045   15.39  0.000308  (-0.012203 -0.012386 -0.002279)
164:   3106.09   0.001538    7.77  0.000155  ( 0.008253  0.005789  0.007275)
165:   3109.66   0.002335   11.80  0.000234  (-0.013391 -0.006145  0.004148)
166:   3135.88   0.002877   14.54  0.000286  (-0.003582 -0.012449 -0.010887)
167:   3182.07   0.001541    7.79  0.000151  ( 0.011007 -0.005313 -0.001317)
168:   3186.59   0.000796    4.02  0.000078  (-0.003399 -0.006636 -0.004728)
169:   3188.20   0.000277    1.40  0.000027  (-0.001687 -0.004449 -0.002117)
170:   3194.55   0.000669    3.38  0.000065  ( 0.003005 -0.000253  0.007499)
171:   3196.29   0.000840    4.25  0.000082  (-0.006916  0.005819  0.000574)
172:   3206.00   0.000144    0.73  0.000014  ( 0.002209  0.002650 -0.001460)
173:   3208.39   0.000133    0.67  0.000013  (-0.000229  0.000781  0.003507)
174:   3211.99   0.000328    1.66  0.000032  ( 0.002725  0.004766  0.001307)
175:   3568.96   0.022033  111.34  0.001926  (-0.043387  0.006479 -0.001452)
176:   3704.23   0.025603  129.39  0.002157  ( 0.003914 -0.043693 -0.015251)

* The epsilon (eps) is given for a Dirac delta lineshape.
** The dipole moment derivative (T) already includes vibrational overlap.

The first frequency considered to be a vibration is 6
The total number of vibrations considered is 171


--------------------------
THERMOCHEMISTRY AT 298.15K
--------------------------

Temperature         ...   298.15 K
Pressure            ...     1.00 atm
Total Mass          ...   459.51 AMU
Quasi RRHO          ...     True
Cut-Off Frequency   ...     1.00 cm^-1

Throughout the following assumptions are being made:
  (1) The electronic state is orbitally nondegenerate
  (2) There are no thermally accessible electronically excited states
  (3) Hindered rotations indicated by low frequency modes are not
      treated as such but are treated as vibrations and this may
      cause some error
  (4) All equations used are the standard statistical mechanics
      equations for an ideal gas
  (5) All vibrations are strictly harmonic

freq.      17.65  E(vib)   ...       0.57 
freq.      24.39  E(vib)   ...       0.56 
freq.      26.57  E(vib)   ...       0.56 
freq.      32.05  E(vib)   ...       0.55 
freq.      40.69  E(vib)   ...       0.54 
freq.      47.87  E(vib)   ...       0.53 
freq.      51.23  E(vib)   ...       0.52 
freq.      65.10  E(vib)   ...       0.50 
freq.      75.70  E(vib)   ...       0.49 
freq.      78.69  E(vib)   ...       0.49 
freq.      93.43  E(vib)   ...       0.47 
freq.     100.12  E(vib)   ...       0.46 
freq.     116.24  E(vib)   ...       0.44 
freq.     119.74  E(vib)   ...       0.44 
freq.     138.60  E(vib)   ...       0.42 
freq.     157.03  E(vib)   ...       0.40 
freq.     174.74  E(vib)   ...       0.38 
freq.     182.22  E(vib)   ...       0.37 
freq.     194.74  E(vib)   ...       0.36 
freq.     214.73  E(vib)   ...       0.34 
freq.     220.46  E(vib)   ...       0.33 
freq.     242.33  E(vib)   ...       0.31 
freq.     247.77  E(vib)   ...       0.31 
freq.     268.02  E(vib)   ...       0.29 
freq.     279.41  E(vib)   ...       0.28 
freq.     308.55  E(vib)   ...       0.26 
freq.     314.50  E(vib)   ...       0.25 
freq.     316.08  E(vib)   ...       0.25 
freq.     337.24  E(vib)   ...       0.24 
freq.     362.83  E(vib)   ...       0.22 
freq.     369.01  E(vib)   ...       0.21 
freq.     408.93  E(vib)   ...       0.19 
freq.     416.30  E(vib)   ...       0.18 
freq.     418.70  E(vib)   ...       0.18 
freq.     420.35  E(vib)   ...       0.18 
freq.     427.22  E(vib)   ...       0.18 
freq.     446.68  E(vib)   ...       0.17 
freq.     463.68  E(vib)   ...       0.16 
freq.     475.93  E(vib)   ...       0.15 
freq.     486.03  E(vib)   ...       0.15 
freq.     505.98  E(vib)   ...       0.14 
freq.     518.17  E(vib)   ...       0.13 
freq.     520.37  E(vib)   ...       0.13 
freq.     544.63  E(vib)   ...       0.12 
freq.     563.81  E(vib)   ...       0.11 
freq.     569.57  E(vib)   ...       0.11 
freq.     596.35  E(vib)   ...       0.10 
freq.     617.11  E(vib)   ...       0.09 
freq.     625.34  E(vib)   ...       0.09 
freq.     633.98  E(vib)   ...       0.09 
freq.     649.26  E(vib)   ...       0.08 
freq.     655.58  E(vib)   ...       0.08 
freq.     666.89  E(vib)   ...       0.08 
freq.     675.71  E(vib)   ...       0.08 
freq.     683.25  E(vib)   ...       0.08 
freq.     693.33  E(vib)   ...       0.07 
freq.     709.73  E(vib)   ...       0.07 
freq.     733.09  E(vib)   ...       0.06 
freq.     742.59  E(vib)   ...       0.06 
freq.     764.30  E(vib)   ...       0.06 
freq.     774.02  E(vib)   ...       0.05 
freq.     798.69  E(vib)   ...       0.05 
freq.     808.76  E(vib)   ...       0.05 
freq.     812.83  E(vib)   ...       0.05 
freq.     824.57  E(vib)   ...       0.04 
freq.     829.88  E(vib)   ...       0.04 
freq.     837.58  E(vib)   ...       0.04 
freq.     840.38  E(vib)   ...       0.04 
freq.     852.36  E(vib)   ...       0.04 
freq.     866.70  E(vib)   ...       0.04 
freq.     904.69  E(vib)   ...       0.03 
freq.     936.21  E(vib)   ...       0.03 
freq.     938.58  E(vib)   ...       0.03 
freq.     948.48  E(vib)   ...       0.03 
freq.     958.94  E(vib)   ...       0.03 
freq.     963.38  E(vib)   ...       0.03 
freq.     971.64  E(vib)   ...       0.03 
freq.     982.74  E(vib)   ...       0.02 
freq.     993.58  E(vib)   ...       0.02 
freq.    1018.28  E(vib)   ...       0.02 
freq.    1023.67  E(vib)   ...       0.02 
freq.    1036.23  E(vib)   ...       0.02 
freq.    1040.15  E(vib)   ...       0.02 
freq.    1046.35  E(vib)   ...       0.02 
freq.    1069.45  E(vib)   ...       0.02 
freq.    1079.40  E(vib)   ...       0.02 
freq.    1087.44  E(vib)   ...       0.02 
freq.    1102.74  E(vib)   ...       0.02 
freq.    1107.26  E(vib)   ...       0.02 
freq.    1133.08  E(vib)   ...       0.01 
freq.    1135.67  E(vib)   ...       0.01 
freq.    1154.17  E(vib)   ...       0.01 
freq.    1161.55  E(vib)   ...       0.01 
freq.    1167.14  E(vib)   ...       0.01 
freq.    1173.08  E(vib)   ...       0.01 
freq.    1174.97  E(vib)   ...       0.01 
freq.    1190.97  E(vib)   ...       0.01 
freq.    1192.76  E(vib)   ...       0.01 
freq.    1200.80  E(vib)   ...       0.01 
freq.    1207.67  E(vib)   ...       0.01 
freq.    1219.18  E(vib)   ...       0.01 
freq.    1239.76  E(vib)   ...       0.01 
freq.    1245.12  E(vib)   ...       0.01 
freq.    1258.02  E(vib)   ...       0.01 
freq.    1270.95  E(vib)   ...       0.01 
freq.    1281.47  E(vib)   ...       0.01 
freq.    1297.92  E(vib)   ...       0.01 
freq.    1306.80  E(vib)   ...       0.01 
freq.    1315.81  E(vib)   ...       0.01 
freq.    1320.71  E(vib)   ...       0.01 
freq.    1326.98  E(vib)   ...       0.01 
freq.    1337.47  E(vib)   ...       0.01 
freq.    1346.60  E(vib)   ...       0.01 
freq.    1350.99  E(vib)   ...       0.01 
freq.    1353.78  E(vib)   ...       0.01 
freq.    1358.77  E(vib)   ...       0.01 
freq.    1364.25  E(vib)   ...       0.01 
freq.    1368.10  E(vib)   ...       0.01 
freq.    1377.18  E(vib)   ...       0.01 
freq.    1387.39  E(vib)   ...       0.00 
freq.    1416.16  E(vib)   ...       0.00 
freq.    1424.56  E(vib)   ...       0.00 
freq.    1438.41  E(vib)   ...       0.00 
freq.    1446.46  E(vib)   ...       0.00 
freq.    1448.55  E(vib)   ...       0.00 
freq.    1452.22  E(vib)   ...       0.00 
freq.    1460.48  E(vib)   ...       0.00 
freq.    1463.34  E(vib)   ...       0.00 
freq.    1470.15  E(vib)   ...       0.00 
freq.    1470.84  E(vib)   ...       0.00 
freq.    1478.17  E(vib)   ...       0.00 
freq.    1483.48  E(vib)   ...       0.00 
freq.    1487.25  E(vib)   ...       0.00 
freq.    1498.26  E(vib)   ...       0.00 
freq.    1528.57  E(vib)   ...       0.00 
freq.    1535.66  E(vib)   ...       0.00 
freq.    1539.96  E(vib)   ...       0.00 
freq.    1562.46  E(vib)   ...       0.00 
freq.    1593.80  E(vib)   ...       0.00 
freq.    1613.19  E(vib)   ...       0.00 
freq.    1621.19  E(vib)   ...       0.00 
freq.    1637.27  E(vib)   ...       0.00 
freq.    1641.91  E(vib)   ...       0.00 
freq.    1676.51  E(vib)   ...       0.00 
freq.    1688.83  E(vib)   ...       0.00 
freq.    1694.04  E(vib)   ...       0.00 
freq.    2993.58  E(vib)   ...       0.00 
freq.    2998.46  E(vib)   ...       0.00 
freq.    2998.87  E(vib)   ...       0.00 
freq.    3010.12  E(vib)   ...       0.00 
freq.    3012.99  E(vib)   ...       0.00 
freq.    3016.08  E(vib)   ...       0.00 
freq.    3019.47  E(vib)   ...       0.00 
freq.    3069.29  E(vib)   ...       0.00 
freq.    3071.44  E(vib)   ...       0.00 
freq.    3078.01  E(vib)   ...       0.00 
freq.    3080.68  E(vib)   ...       0.00 
freq.    3089.64  E(vib)   ...       0.00 
freq.    3106.09  E(vib)   ...       0.00 
freq.    3109.66  E(vib)   ...       0.00 
freq.    3135.88  E(vib)   ...       0.00 
freq.    3182.07  E(vib)   ...       0.00 
freq.    3186.59  E(vib)   ...       0.00 
freq.    3188.20  E(vib)   ...       0.00 
freq.    3194.55  E(vib)   ...       0.00 
freq.    3196.29  E(vib)   ...       0.00 
freq.    3206.00  E(vib)   ...       0.00 
freq.    3208.39  E(vib)   ...       0.00 
freq.    3211.99  E(vib)   ...       0.00 
freq.    3568.96  E(vib)   ...       0.00 
freq.    3704.23  E(vib)   ...       0.00 

------------
INNER ENERGY
------------

The inner energy is: U= E(el) + E(ZPE) + E(vib) + E(rot) + E(trans)
    E(el)   - is the total energy from the electronic structure calculation
              = E(kin-el) + E(nuc-el) + E(el-el) + E(nuc-nuc)
    E(ZPE)  - the the zero temperature vibrational energy from the frequency calculation
    E(vib)  - the the finite temperature correction to E(ZPE) due to population
              of excited vibrational states
    E(rot)  - is the rotational thermal energy
    E(trans)- is the translational thermal energy

Summary of contributions to the inner energy U:
Electronic energy                ...  -1542.15074638 Eh
Zero point energy                ...      0.47143011 Eh     295.83 kcal/mol
Thermal vibrational correction   ...      0.02696066 Eh      16.92 kcal/mol
Thermal rotational correction    ...      0.00141627 Eh       0.89 kcal/mol
Thermal translational correction ...      0.00141627 Eh       0.89 kcal/mol
-----------------------------------------------------------------------
Total thermal energy                  -1541.64952307 Eh


Summary of corrections to the electronic energy:
(perhaps to be used in another calculation)
Total thermal correction                  0.02979320 Eh      18.70 kcal/mol
Non-thermal (ZPE) correction              0.47143011 Eh     295.83 kcal/mol
-----------------------------------------------------------------------
Total correction                          0.50122331 Eh     314.52 kcal/mol


--------
ENTHALPY
--------

The enthalpy is H = U + kB*T
                kB is Boltzmann's constant
Total thermal energy              ...  -1541.64952307 Eh 
Thermal Enthalpy correction       ...      0.00094421 Eh       0.59 kcal/mol
-----------------------------------------------------------------------
Total Enthalpy                    ...  -1541.64857886 Eh


Note: Only C1 symmetry has been detected, increase convergence thresholds 
      if your molecule has a higher symmetry. Symmetry factor of 1.0 is   
      used for the rotational entropy correction. 
 

Note: Rotational entropy computed according to Herzberg 
Infrared and Raman Spectra, Chapter V,1, Van Nostrand Reinhold, 1945 
Point Group:  C1, Symmetry Number:   1  
Rotational constants in cm-1:     0.005534     0.001763     0.001405 

Vibrational entropy computed according to the QRRHO of S. Grimme
Chem.Eur.J. 2012 18 9955 using a reference frequency of 100.0 cm-1


-------
ENTROPY
-------

The entropy contributions are T*S = T*(S(el)+S(vib)+S(rot)+S(trans))
     S(el)   - electronic entropy
     S(vib)  - vibrational entropy
     S(rot)  - rotational entropy
     S(trans)- translational entropy
The entropies will be listed as multiplied by the temperature to get
units of energy

Electronic entropy                ...      0.00000000 Eh      0.00 kcal/mol
Vibrational entropy               ...      0.04824002 Eh     30.27 kcal/mol
Rotational entropy                ...      0.01805809 Eh     11.33 kcal/mol
Translational entropy             ...      0.02103103 Eh     13.20 kcal/mol
-----------------------------------------------------------------------
Final entropy term                ...      0.08732914 Eh     54.80 kcal/mol

In case the symmetry of your molecule has not been determined correctly
or in case you have a reason to use a different symmetry number we print 
out the resulting rotational entropy values for sn=1,12:

 non-linear molecules -----------------------------------
|  sn= 1 | S(rot)=       0.01805809 Eh     11.33 kcal/mol|
|  sn= 2 | S(rot)=       0.01740363 Eh     10.92 kcal/mol|
|  sn= 3 | S(rot)=       0.01702080 Eh     10.68 kcal/mol|
|  sn= 4 | S(rot)=       0.01674918 Eh     10.51 kcal/mol|
|  sn= 5 | S(rot)=       0.01653849 Eh     10.38 kcal/mol|
|  sn= 6 | S(rot)=       0.01636634 Eh     10.27 kcal/mol|
|  sn= 7 | S(rot)=       0.01622080 Eh     10.18 kcal/mol|
|  sn= 8 | S(rot)=       0.01609472 Eh     10.10 kcal/mol|
|  sn= 9 | S(rot)=       0.01598351 Eh     10.03 kcal/mol|
|  sn=10 | S(rot)=       0.01588403 Eh      9.97 kcal/mol|
|  sn=11 | S(rot)=       0.01579404 Eh      9.91 kcal/mol|
|  sn=12 | S(rot)=       0.01571189 Eh      9.86 kcal/mol|
 linear molecules ---------------------------------------
|  Dinfh | S(rot)=       0.01152692 Eh      7.23 kcal/mol|
|  Cinfv | S(rot)=       0.01218138 Eh      7.64 kcal/mol|
 --------------------------------------------------------


-------------------
GIBBS FREE ENERGY
-------------------

The Gibbs free energy is G = H - T*S

Total enthalpy                    ...  -1541.64857886 Eh 
Total entropy correction          ...     -0.08732914 Eh    -54.80 kcal/mol
-----------------------------------------------------------------------
Final Gibbs free energy         ...  -1541.73590800 Eh

For completeness - the Gibbs free energy minus the electronic energy
G-E(el)                           ...      0.41483838 Eh    260.31 kcal/mol


Maximum memory used throughout the entire PROP-calculation: 162.6 MB

--------------------------------
SUGGESTED CITATIONS FOR THIS RUN
--------------------------------

Below you find a list of papers that are relevant to this ORCA run
We neither can nor want to force you to cite these papers, but we appreciate if you do
You receive ORCA, which is the product of decades of hard work by many enthusiastic individuals, for free
The only thing we kindly ask in return is that you cite our papers,
We deeply appreciate it, if you show your appreciation for ORCA by not just citing the generic ORCA reference.

Please note that relegating all ORCA citations to the supporting information does *not* help us.
SI sections are not indexed - citations you put there will not count into any citation statistics
But we need these citations in order to attract the funding resources that allow us to do what we are doing

Therefore, if you are a happy ORCA user, please consider citing a few of the papers listed below in the main body of your paper

In addition to the list printed below, the program has created the file Apixaban_SMD_chloroform_Opt_Freq_KeepDens.bibtex that contains the list in bibtex format
You can import this file easily into all common literature databanks and citation aid programs

It goes without saying that in many instances, there are alternative algorithms to achieve similar
results as the ones you have gotten from ORCA. It is, of course, also the case that in some instances
ORCA just re-implements algorithms worked out by others. We are fully aware of that and we are also
fully appreciative of our colleagues work. Hence this citation list should not be read as indicating
that the listed papers, which are focused on our own work, are the only ones worth citing. It simply
meant to make it easier for users to cite ORCA specific papers. It is not a substitute for doing your
own literature research and citing the relevant literature in a scientifically appropriate manner.

List of essential papers. We consider these as the minimum necessary citations

  1. Grimme, S.; Hansen, A.; Ehlert, S.; Mewes, J.
     r2SCAN-3c: A 'Swiss army knife' composite electronic-structure method
     J. Chem. Phys. 2021 154 , 064103
     doi.org/10.1063/5.0040021
  2. Neese, F.
     Software update: the ORCA program system, version 6.0
     WIRES Comput. Molec. Sci. 2025 15(1), e70019
     doi.org/10.1002/wcms.70019

List of papers to cite with high priority. The work reported in these papers was absolutely
necessary for this run to complete.
Our perspective: the developers of density functionals and basis sets usually get cited in chemistry papers
Good! But without the algorithms to do something with them, the functionals or basis sets would not do anything.
Hence, in our opinion, the algorithm design and method developments papers are equally worthy of getting cited

  1. Neese, F.
     An improvement of the resolution of the identity approximation for the formation of the Coulomb matrix
     J. Comp. Chem. 2003 24(14), 1740-1747
     doi.org/10.1002/jcc.10318
  2. Bykov, D.; Petrenko, T.; Izsak, R.; Kossmann, S.; Becker, U.; Valeev, E.; Neese, F.
     Efficient implementation of the analytic second derivatives of Hartree-Fock and hybrid DFT energies: a detailed analysis of different approximations
     Molec. Phys. 2015 113 , 1961-1977
     doi.org/10.1080/00268976.2015.1025114
  3. Caldeweyher, E.; Bannwarth, C.; Grimme, S.
     Extension of the D3 dispersion coefficient model
     J. Chem. Phys. 2017 147 , 034112
     doi.org/10.1063/1.4993215
  4. Lehtola, S.; Steigemann, C.; Oliveira, M.; Marques, M.
     Recent developments in Libxc - A comprehensive library of functionals for density functional theory
     Software X 2018 7 , 
     doi.org/10.1016/j.softx.2017.11.002
  5. Caldeweyher, E.; Ehlert, S.; Hansen, A.; Neugebauer, H.; Spicher, S.; Bannwarth, C.; Grimme, S.
     A generally applicable atomic-charge dependent London dispersion correction
     J. Chem. Phys. 2019 150 , 154122
     doi.org/10.1063/1.5090222
  6. Garcia-Rates, M.; Neese, F.
     Efficient implementation of the analytical second derivatives of hartree-fock and hybrid DFT energies within the framework of the conductor-like polarizable continuum model
     J. Comput. Chem. 2019 40 , 1816-1828
     doi.org/10.1002/jcc.25833
  7. Garcia-Rates, M.; Neese, F.
     Effect of the Solute Cavity on the Solvation Energy and its Derivatives within the Framework of the Gaussian Charge Scheme
     J. Comput. Chem. 2020 41 , 922-939
     doi.org/10.1002/jcc.26139
  8. Neese, F.
     The SHARK Integral Generation and Digestion System
     J. Comp. Chem. 2022 44(3), 381
     doi.org/10.1002/jcc.26942

List of suggested additional citations. These are papers that are important in the 'surrounding' of 
of this run, or papers that preceded the highly important papers. If you like your results we are grateful for a citation.

  1. Neese, F.
     The ORCA program system
     WIRES Comput. Molec. Sci. 2012 2(1), 73-78
     doi.org/10.1002/wcms.81
  2. Neese, F.
     Software update: the ORCA program system, version 4.0
     WIRES Comput. Molec. Sci. 2018 8(1), 1-6
     doi.org/10.1002/wcms.1327
  3. Neese, F.; Wennmohs, F.; Becker, U.; Riplinger, C.
     The ORCA quantum chemistry program package
     J. Chem. Phys. 2020 152(22), 224108
     doi.org/10.1063/5.0004608
  4. Neese, F.
     Software update: The ORCA program system窶之ersion 5.0
     WIRES Comput. Molec. Sci. 2022 12(1), e1606
     doi.org/10.1002/wcms.1606

List of optional additional citations

  1. Neese, F.
     Approximate second-order SCF convergence for spin unrestricted wavefunctions
     Chem. Phys. Lett. 2000 325(1-3), 93-98
     doi.org/10.1016/s0009-2614(00)00662-x

Timings for individual modules:

Sum of individual times          ...     9941.277 sec (= 165.688 min)
Startup calculation              ...       29.072 sec (=   0.485 min)   0.3 %
SCF iterations                   ...      755.603 sec (=  12.593 min)   7.6 %
Property integrals               ...     3580.325 sec (=  59.672 min)  36.0 %
SCF Response                     ...     4328.200 sec (=  72.137 min)  43.5 %
Property calculations            ...     1001.935 sec (=  16.699 min)  10.1 %
SCF Gradient evaluation          ...      245.911 sec (=   4.099 min)   2.5 %
Geometry relaxation              ...        0.231 sec (=   0.004 min)   0.0 %
                             ****ORCA TERMINATED NORMALLY****
TOTAL RUN TIME: 0 days 2 hours 45 minutes 45 seconds 362 msec
