59
Coordinates from ORCA-job Apixaban_SMD_acetonitrile_Opt_Freq_KeepDens E -1542.153758206789
  C      23.821044    -17.585907     -0.047241
  C      24.218688    -18.528277      1.082817
  C      25.513274    -19.294877      0.889986
  N      26.422507    -18.805437     -0.017818
  C      26.104522    -17.739219     -0.997385
  C      25.042673    -16.789428     -0.478904
  C      27.679655    -19.458427     -0.178919
  C      28.509780    -19.678851      0.924598
  C      29.743965    -20.287393      0.763855
  C      30.181099    -20.672760     -0.507646
  C      29.360729    -20.441732     -1.611088
  C      28.114451    -19.844468     -1.445839
  N      31.437039    -21.322836     -0.665041
  C      31.528566    -22.416521     -1.664673
  C      32.524780    -23.493563     -1.248401
  C      33.796910    -22.827207     -0.859722
  C      33.782687    -21.534857     -0.366674
  C      32.576496    -20.718933     -0.165748
  O      25.743763    -20.294635      1.571727
  O      32.577766    -19.631975      0.408413
  C      35.153171    -23.192685     -0.863804
  N      35.920104    -22.184835     -0.407978
  N      35.082386    -21.189329     -0.100450
  C      35.620483    -19.971729      0.421051
  C      35.741642    -24.484194     -1.290846
  N      37.092035    -24.534501     -1.305913
  O      35.016908    -25.429961     -1.610269
  C      35.284538    -19.552001      1.706902
  C      35.845753    -18.394364      2.213057
  C      36.751992    -17.651809      1.441178
  C      37.094401    -18.084398      0.156017
  C      36.521760    -19.249536     -0.348011
  O      37.244089    -16.533984      2.029670
  C      38.188974    -15.751187      1.285994
  H      23.441072    -18.162321     -0.901466
  H      23.011694    -16.926204      0.285016
  H      24.358694    -17.956069      2.011659
  H      23.442881    -19.271541      1.291820
  H      27.037237    -17.205254     -1.208620
  H      25.759886    -18.194094     -1.937395
  H      25.436130    -16.212980      0.369257
  H      24.797894    -16.080343     -1.277791
  H      28.182315    -19.377150      1.913398
  H      30.374435    -20.466801      1.628125
  H      29.685504    -20.724758     -2.607642
  H      27.485013    -19.683164     -2.315557
  H      30.530407    -22.848238     -1.766587
  H      31.824246    -21.998497     -2.637770
  H      32.132517    -24.077881     -0.404450
  H      32.674082    -24.186525     -2.080044
  H      37.647574    -23.748140     -1.004438
  H      37.554019    -25.398084     -1.547962
  H      34.590460    -20.132589      2.305159
  H      35.599540    -18.052424      3.213952
  H      37.792926    -17.531065     -0.460577
  H      36.775681    -19.590662     -1.347599
  H      37.742389    -15.362351      0.362723
  H      38.459713    -14.917571      1.936245
  H      39.087056    -16.334485      1.048654
59
Coordinates from ORCA-job Apixaban_SMD_acetonitrile_Opt_Freq_KeepDens E -1542.153765922232
  C      23.824355    -17.581289     -0.046490
  C      24.221586    -18.524123      1.083599
  C      25.515447    -19.291435      0.890018
  N      26.424870    -18.803716     -0.017739
  C      26.108002    -17.736557     -0.996986
  C      25.046839    -16.785778     -0.478344
  C      27.681464    -19.458585     -0.178680
  C      28.510887    -19.680668      0.925117
  C      29.744392    -20.290958      0.764562
  C      30.181429    -20.676411     -0.507026
  C      29.361563    -20.444067     -1.610674
  C      28.115979    -19.845218     -1.445620
  N      31.437373    -21.327149     -0.664492
  C      31.529311    -22.420203     -1.665123
  C      32.526265    -23.497390     -1.250100
  C      33.798194    -22.830604     -0.860668
  C      33.783165    -21.538942     -0.365989
  C      32.576558    -20.724285     -0.164069
  O      25.746195    -20.290607      1.573391
  O      32.577270    -19.638682      0.413226
  C      35.154727    -23.194990     -0.864796
  N      35.921105    -22.186995     -0.408051
  N      35.082725    -21.192224     -0.100130
  C      35.619589    -19.973629      0.421157
  C      35.744096    -24.485452     -1.292898
  N      37.094033    -24.536844     -1.305693
  O      35.019387    -25.430245     -1.616862
  C      35.282788    -19.553697      1.706844
  C      35.842006    -18.394695      2.212459
  C      36.747004    -17.651036      1.440217
  C      37.090123    -18.083572      0.155171
  C      36.519602    -19.250101     -0.348320
  O      37.236648    -16.531597      2.028670
  C      38.178590    -15.744509      1.285853
  H      23.443787    -18.157408     -0.900622
  H      23.015727    -16.920961      0.286165
  H      24.362588    -17.952025      2.012416
  H      23.445417    -19.267026      1.292891
  H      27.041334    -17.203586     -1.207731
  H      25.763163    -18.191084     -1.937026
  H      25.440872    -16.209759      0.369824
  H      24.802672    -16.076589     -1.277311
  H      28.183449    -19.378970      1.914010
  H      30.374596    -20.471118      1.628943
  H      29.686244    -20.727300     -2.607176
  H      27.487082    -19.682705     -2.315466
  H      30.531311    -22.852130     -1.767205
  H      31.824604    -22.000938     -2.637767
  H      32.134294    -24.082745     -0.406685
  H      32.675863    -24.189136     -2.082819
  H      37.649720    -23.751302     -1.002187
  H      37.555527    -25.400343     -1.549902
  H      34.588881    -20.134750      2.304977
  H      35.595001    -18.052196      3.213009
  H      37.787595    -17.529146     -0.461570
  H      36.774142    -19.591361     -1.347692
  H      37.730195    -15.356863      0.362998
  H      38.445805    -14.910691      1.937258
  H      39.078564    -16.324616      1.048138
59
Coordinates from ORCA-job Apixaban_SMD_acetonitrile_Opt_Freq_KeepDens E -1542.153769136454
  C      23.826323    -17.578227     -0.050317
  C      24.221015    -18.521760      1.080330
  C      25.515684    -19.288002      0.889446
  N      26.426528    -18.801935     -0.016908
  C      26.112246    -17.733440     -0.995895
  C      25.050171    -16.782665     -0.478778
  C      27.682712    -19.458525     -0.176720
  C      28.511058    -19.681760      0.927684
  C      29.744205    -20.293212      0.767816
  C      30.181714    -20.678637     -0.503664
  C      29.362737    -20.445421     -1.607822
  C      28.117665    -19.845294     -1.443501
  N      31.437445    -21.330384     -0.660891
  C      31.529086    -22.422982     -1.662318
  C      32.526998    -23.500223     -1.249086
  C      33.799125    -22.833016     -0.860464
  C      33.783691    -21.542054     -0.364048
  C      32.576653    -20.729019     -0.159569
  O      25.744071    -20.288649      1.572429
  O      32.577587    -19.644042      0.419567
  C      35.156024    -23.195921     -0.867236
  N      35.922242    -22.187755     -0.410410
  N      35.083387    -21.194446     -0.099335
  C      35.619718    -19.975374      0.422012
  C      35.746039    -24.484713     -1.298425
  N      37.095467    -24.538207     -1.307969
  O      35.020943    -25.428578     -1.626019
  C      35.286101    -19.557690      1.709373
  C      35.844501    -18.398030      2.214610
  C      36.745303    -17.651681      1.440157
  C      37.085393    -18.081807      0.153586
  C      36.515914    -19.249091     -0.349467
  O      37.234417    -16.531704      2.028531
  C      38.169986    -15.739441      1.283183
  H      23.447839    -18.153927     -0.905614
  H      23.017117    -16.918006      0.281034
  H      24.359629    -17.950230      2.009851
  H      23.444853    -19.265376      1.287203
  H      27.046382    -17.200831     -1.203774
  H      25.769500    -18.187352     -1.936940
  H      25.442484    -16.207545      0.370763
  H      24.808127    -16.072944     -1.277891
  H      28.183164    -19.380214      1.916466
  H      30.373679    -20.474123      1.632556
  H      29.687728    -20.729051     -2.604099
  H      27.489580    -19.681771     -2.313728
  H      30.531121    -22.855103     -1.763704
  H      31.823315    -22.002635     -2.634777
  H      32.136115    -24.086313     -0.405691
  H      32.676026    -24.190838     -2.082853
  H      37.651759    -23.753877     -1.002357
  H      37.555781    -25.401617     -1.554951
  H      34.594860    -20.140699      2.308685
  H      35.600101    -18.056778      3.216234
  H      37.779825    -17.524854     -0.464379
  H      36.768147    -19.588870     -1.349923
  H      37.715667    -15.352629      0.362881
  H      38.436003    -14.905845      1.935297
  H      39.071049    -16.315889      1.040832
59
Coordinates from ORCA-job Apixaban_SMD_acetonitrile_Opt_Freq_KeepDens E -1542.153770218636
  C      23.827513    -17.576683     -0.051349
  C      24.221290    -18.520617      1.079312
  C      25.515385    -19.287704      0.888380
  N      26.426696    -18.802437     -0.017604
  C      26.113754    -17.733082     -0.996193
  C      25.052071    -16.781879     -0.479148
  C      27.682881    -19.459171     -0.176668
  C      28.510717    -19.682314      0.928067
  C      29.743942    -20.293741      0.768704
  C      30.181882    -20.679154     -0.502596
  C      29.363336    -20.446108     -1.607078
  C      28.118242    -19.845927     -1.443271
  N      31.437539    -21.331057     -0.659571
  C      31.529011    -22.423489     -1.661227
  C      32.527211    -23.500672     -1.248639
  C      33.799418    -22.833459     -0.860321
  C      33.783825    -21.542798     -0.363115
  C      32.576716    -20.730146     -0.157981
  O      25.743958    -20.286983      1.573531
  O      32.577692    -19.645868      0.422641
  C      35.156417    -23.196016     -0.867905
  N      35.922496    -22.187911     -0.410707
  N      35.083507    -21.195123     -0.098490
  C      35.619652    -19.976024      0.422908
  C      35.746671    -24.484287     -1.299970
  N      37.095995    -24.538598     -1.308173
  O      35.021464    -25.427108     -1.630742
  C      35.288006    -19.559858      1.711246
  C      35.846212    -18.400126      2.216457
  C      36.744747    -17.652310      1.440820
  C      37.082946    -18.080896      0.153303
  C      36.513697    -19.248301     -0.349672
  O      37.234039    -16.532435      2.029089
  C      38.166061    -15.738042      1.281420
  H      23.449016    -18.152049     -0.906853
  H      23.018685    -16.915945      0.279886
  H      24.360083    -17.949260      2.008903
  H      23.444714    -19.263815      1.285861
  H      27.048416    -17.200986     -1.203088
  H      25.771301    -18.186390     -1.937617
  H      25.444445    -16.207312      0.370726
  H      24.810831    -16.071826     -1.278205
  H      28.182413    -19.380825      1.916701
  H      30.373009    -20.474707      1.633686
  H      29.688668    -20.729934     -2.603186
  H      27.490442    -19.682473     -2.313717
  H      30.531048    -22.855743     -1.762250
  H      31.822832    -22.002813     -2.633665
  H      32.136697    -24.086967     -0.405254
  H      32.675998    -24.190833     -2.082757
  H      37.652617    -23.754802     -1.001840
  H      37.555779    -25.401450     -1.557770
  H      34.598456    -20.144134      2.311246
  H      35.603531    -18.059844      3.218808
  H      37.775726    -17.522554     -0.465291
  H      36.764375    -19.587093     -1.350859
  H      37.708345    -15.352099      0.362431
  H      38.431982    -14.904145      1.933167
  H      39.067600    -16.312679      1.036480
