59
Coordinates from ORCA-job Apixaban_SMD_acetonitrile_Opt_Freq_KeepDens E -1542.153770218636
  C          23.82751346086777    -17.57668288974304     -0.05134911429092
  C          24.22128981857426    -18.52061694111805      1.07931199422625
  C          25.51538475591661    -19.28770432978496      0.88837989429702
  N          26.42669557425050    -18.80243680000792     -0.01760447997424
  C          26.11375445618356    -17.73308206281205     -0.99619273001373
  C          25.05207143948947    -16.78187882209113     -0.47914787808224
  C          27.68288053104671    -19.45917145758972     -0.17666843679242
  C          28.51071665754418    -19.68231436880734      0.92806748377385
  C          29.74394159286803    -20.29374113200954      0.76870443708164
  C          30.18188202895720    -20.67915366828707     -0.50259638956676
  C          29.36333599118234    -20.44610841520842     -1.60707797047041
  C          28.11824235317642    -19.84592676290195     -1.44327059969715
  N          31.43753948258342    -21.33105697189890     -0.65957059277024
  C          31.52901050936385    -22.42348862710720     -1.66122680810141
  C          32.52721133149313    -23.50067236891251     -1.24863854200153
  C          33.79941772503911    -22.83345857411065     -0.86032069042141
  C          33.78382542749127    -21.54279774530646     -0.36311475566760
  C          32.57671588150637    -20.73014568115847     -0.15798083184310
  O          25.74395750541959    -20.28698335254867      1.57353064703187
  O          32.57769192473406    -19.64586798970052      0.42264114234189
  C          35.15641667744269    -23.19601646548729     -0.86790483646724
  N          35.92249619163054    -22.18791130139395     -0.41070726601359
  N          35.08350726955172    -21.19512283774554     -0.09848994992659
  C          35.61965182372285    -19.97602389802736      0.42290766236286
  C          35.74667127866907    -24.48428739530991     -1.29996966792958
  N          37.09599514911844    -24.53859849773450     -1.30817330796087
  O          35.02146425737419    -25.42710794007727     -1.63074161603998
  C          35.28800569224510    -19.55985813417524      1.71124611445360
  C          35.84621208044948    -18.40012572810983      2.21645727090239
  C          36.74474720928144    -17.65230962448781      1.44081961160214
  C          37.08294564095928    -18.08089631571449      0.15330330489078
  C          36.51369739367409    -19.24830076751775     -0.34967192041008
  O          37.23403944309447    -16.53243483018831      2.02908930471652
  C          38.16606055697850    -15.73804209459062      1.28141975230566
  H          23.44901638060674    -18.15204925479178     -0.90685344650874
  H          23.01868519839783    -16.91594505818197      0.27988643261617
  H          24.36008345340747    -17.94925977930476      2.00890332058006
  H          23.44471431263709    -19.26381482970008      1.28586133332246
  H          27.04841585176221    -17.20098627286079     -1.20308794769124
  H          25.77130143799551    -18.18638998856800     -1.93761706463502
  H          25.44444544352419    -16.20731158047108      0.37072590929104
  H          24.81083147841908    -16.07182607115440     -1.27820458087902
  H          28.18241289928968    -19.38082454284199      1.91670077272893
  H          30.37300938082517    -20.47470691314329      1.63368554758499
  H          29.68866819358291    -20.72993360252625     -2.60318598782827
  H          27.49044203444153    -19.68247306895526     -2.31371739432999
  H          30.53104786768272    -22.85574253977046     -1.76224959304633
  H          31.82283157326836    -22.00281263742473     -2.63366462239864
  H          32.13669712364229    -24.08696741152436     -0.40525375807463
  H          32.67599799324943    -24.19083269899845     -2.08275713263445
  H          37.65261659587784    -23.75480227216277     -1.00184046884952
  H          37.55577878174722    -25.40145038494919     -1.55777016301267
  H          34.59845555062972    -20.14413391275378      2.31124606816615
  H          35.60353119620328    -18.05984447971697      3.21880824460194
  H          37.77572628359940    -17.52255365983084     -0.46529137548275
  H          36.76437540751201    -19.58709301796266     -1.35085886620805
  H          37.70834476807052    -15.35209888008687      0.36243146671439
  H          38.43198163527074    -14.90414487745779      1.93316732609582
  H          39.06760004647690    -16.31267947319681      1.03647976433197
