159
Coordinates from ORCA-job Apixaban_10Acetone E -3473.233836394691
  C          27.96318077045912    -15.15955461262791     -0.20638561362930
  C          29.08687045899177    -14.35631888083889     -0.84806886049698
  C          30.00508687874188    -15.17897490329212     -1.73419909440888
  N          29.50990728112043    -16.34221858393118     -2.25507111439294
  C          28.19739961316612    -16.93472027049070     -1.93162719038386
  C          27.24100993669417    -15.92869346292703     -1.30531304873100
  C          30.43338058263453    -17.20385250108738     -2.94387026201984
  C          30.41975502609239    -17.27985517563611     -4.33090546837230
  C          31.33137573835898    -18.10576670142342     -4.98044645825313
  C          32.25632659865416    -18.83930264215550     -4.24137079706441
  C          32.24837912348757    -18.77717720668073     -2.84935669006689
  C          31.33228711075733    -17.96213110093933     -2.19895433968236
  N          33.24991728831525    -19.60162607542756     -4.93969415563321
  C          34.45496076808273    -18.85340857780283     -5.36748203741922
  C          35.13399769612376    -19.47768305969313     -6.58304152599456
  C          35.14880862075353    -20.95647868345849     -6.44230875035509
  C          34.34310939173665    -21.62476931383496     -5.53541197033018
  C          33.28067268636490    -20.96965584623541     -4.75374312148895
  O          31.14400044327958    -14.78903552054502     -1.98772663604181
  O          32.43948571978962    -21.56151760193528     -4.08187794288080
  C          35.76569405480635    -21.96797827289706     -7.19410407509202
  N          35.38275598024639    -23.17921695608202     -6.77170357103438
  N          34.52423607638033    -22.97622520833582     -5.76873083933657
  C          33.87651492704102    -24.10949346388820     -5.19941966512401
  C          36.68699839948093    -21.80307252761732     -8.34307530902314
  N          36.75152286013151    -22.87842373243660     -9.16775003486288
  O          37.28872232479780    -20.74927024094138     -8.53093988600386
  C          33.60313472523009    -25.20017421274870     -6.02360248548081
  C          32.87583815624300    -26.26977157381685     -5.51978500991401
  C          32.42720729090239    -26.25306261686154     -4.20077231256176
  C          32.79557625533338    -25.20708382112986     -3.35309262177785
  C          33.52277160243540    -24.13707948403513     -3.85322692404525
  O          31.67470957979068    -27.31177059506321     -3.75966540326353
  C          30.39883602934161    -26.94970902738619     -3.21255147845619
  H          28.37923522655707    -15.87497478470093      0.51580513877217
  H          27.28263083844738    -14.50276718943509      0.34619346634042
  H          28.66842755470296    -13.55477093329892     -1.47329131705800
  H          29.73414542668533    -13.86564320022794     -0.11506929545275
  H          27.77952385454833    -17.34848877484129     -2.85824128388595
  H          28.35743613569504    -17.77890773004479     -1.24215638850117
  H          26.87759060885962    -15.22934156280531     -2.07212804418289
  H          26.37418634532105    -16.46673298741302     -0.90481936986069
  H          29.71501535620701    -16.68130566475731     -4.90116388963095
  H          31.33160264169857    -18.18000639679377     -6.06462625502114
  H          32.96129809848500    -19.36434145474053     -2.27923793416142
  H          31.32889358052664    -17.88212478340163     -1.11418049214084
  H          34.14082756477255    -17.83005431458773     -5.58576982941254
  H          35.16294814264483    -18.81140766287483     -4.52359154856309
  H          34.60895571694842    -19.20699335233316     -7.51060822674333
  H          36.15022594705876    -19.08433767578239     -6.68625991210387
  H          36.22270695183811    -23.71486865176085     -8.96357614317427
  H          37.39976027040572    -22.85991414787126     -9.93727453109271
  H          33.95653581133844    -25.21029266132647     -7.04936653352059
  H          32.62500983143880    -27.11486787294607     -6.15316271832965
  H          32.53826660221903    -25.23650389323975     -2.29913569169923
  H          33.82278686122335    -23.33258255327322     -3.19434560790166
  H          29.96207022925905    -27.87032873669957     -2.82037290360160
  H          30.47990815465084    -26.21497918344183     -2.40468402673055
  H          29.75114726449362    -26.53946250352488     -4.00107277674647
  C          30.52325741392981    -22.66586766971387     -7.02966360057431
  O          31.13350662831110    -22.44579109043641     -8.06260541865851
  C          30.18173395449884    -24.07525705968100     -6.60882043613168
  C          30.10941738948882    -21.56302219282290     -6.09378405466680
  H          30.06048247973523    -24.71637227342304     -7.48515837532353
  H          31.01964885285872    -24.47400822330490     -6.02099058058136
  H          29.29638362799371    -24.11516137771339     -5.96827715026843
  H          30.49385475699270    -21.78267757114271     -5.09131793429388
  H          29.01572069687523    -21.51025073396022     -6.02843576528573
  H          30.52643478646084    -20.60951893479940     -6.42706397924783
  C          31.80887187811682    -12.92546912931022     -4.96719877080491
  O          32.22850871477464    -13.39222525018072     -6.00774624204104
  C          32.71376578354287    -12.54473675866248     -3.82069115835545
  C          30.32851940226061    -12.69625113821347     -4.74125790174303
  H          33.72278164031294    -12.92238085596125     -3.99443218832747
  H          32.74440854623612    -11.44928790959775     -3.73827201901260
  H          32.30680514602228    -12.94470193430139     -2.88430516430863
  H          29.77113589420067    -12.86687792116706     -5.66483147430861
  H          30.14273257868055    -11.68401318649729     -4.36381034944657
  H          29.98906962442300    -13.39412168067623     -3.96474378492511
  C          31.48195086256011    -16.53115198658552      1.47156240802726
  O          31.39208776950952    -17.67970849494676      1.07238807934326
  C          32.50601192438641    -15.57585116700341      0.90857003066026
  C          30.61849226934650    -16.01643659790155      2.59677350796055
  H          33.33547338889007    -15.50890939738193      1.62571692955566
  H          32.88212410978295    -15.92612928608436     -0.05399534375591
  H          32.09841032615729    -14.56773853781979      0.78694774090780
  H          31.26764891719477    -15.73594841498625      3.43592931347387
  H          29.90477918595711    -16.77994086955284      2.91043047677311
  H          30.08717779788563    -15.10650256788767      2.29424418777303
  C          33.56772797059333    -33.69025097279842      3.77926226940903
  O          34.01586848745855    -33.10943020498370      2.81313871225960
  C          34.47271226148195    -34.43539249282659      4.73787482532051
  C          32.08897628714693    -33.67864323471660      4.09500780901479
  H          33.93788777823553    -35.17124217720361      5.34484630754460
  H          35.29360378271932    -34.90473444985717      4.19127786911785
  H          34.90759935345732    -33.69149914300682      5.41825378272782
  H          31.59956141560912    -32.86322282182719      3.55882698197332
  H          31.90724384244046    -33.60206091126896      5.17232657485260
  H          31.65427998549871    -34.63053361265361      3.76381921687441
  C          23.10476731196797    -24.09284099701725     -5.19828721072110
  O          22.57506440445814    -23.92208444210472     -4.12116329065046
  C          24.60278732252327    -23.97552264800655     -5.37080669460159
  C          22.30493672622897    -24.50276088693595     -6.41909510271666
  H          25.04895676682283    -23.52938360285070     -4.48069253162642
  H          25.01722234254872    -24.98222515368222     -5.51189610376755
  H          24.86523665555270    -23.39590950077854     -6.26237657033530
  H          21.26168447853789    -24.20568106140427     -6.29809069191981
  H          22.34248900382157    -25.59639777559923     -6.50623816786962
  H          22.71691161238814    -24.08813751359871     -7.34443617090844
  C          32.53288573054544    -13.29848931447872      4.73522999560758
  O          32.83893692277277    -14.47605575466724      4.71295252481931
  C          32.21139235391392    -12.54064376238878      3.46811573767427
  C          32.47992288283973    -12.51930431723125      6.02678284858560
  H          32.95252910448383    -11.74754059495969      3.31139232189938
  H          32.22150933653413    -13.22494783503359      2.61900558768791
  H          31.23485098370345    -12.04959827243632      3.54781762459871
  H          33.29580723254697    -11.78555688296208      6.04240037827512
  H          32.58787346864339    -13.19943301709118      6.87178523738688
  H          31.54371466837432    -11.95490655587394      6.10815977539930
  C          33.51582374095152    -24.97444701279978    -10.16212222992739
  O          34.43789868141346    -25.48089055708667     -9.54487219279131
  C          33.40322530657744    -23.48295507993733    -10.31034311898738
  C          32.44168845355780    -25.82947538632903    -10.79168210608460
  H          32.80955436011256    -23.18203617267624    -11.17792641667112
  H          32.88267248331135    -23.11369186311396     -9.41552679739870
  H          34.40766116698567    -23.05599527933719    -10.34360990061798
  H          32.76503244619266    -26.07126602788935    -11.81266821331915
  H          31.48622284833515    -25.30361642943752    -10.86340732868090
  H          32.33586619540140    -26.76959820405303    -10.24575113609712
  C          31.06149996694324    -23.86362658037939      0.93322818816646
  O          30.94160518505886    -24.57063521080341     -0.04877096810261
  C          30.85415925945680    -24.40501886704030      2.32863553965088
  C          31.40190760298769    -22.39524449082700      0.81997862934428
  H          30.32925170524782    -25.36095154963296      2.29393119797028
  H          31.83742280873266    -24.55930140565915      2.79273150467562
  H          30.31439071565949    -23.68857334202469      2.95703679861974
  H          31.95891660455068    -22.02668807521614      1.68677241792840
  H          30.45945628478044    -21.83203406221788      0.78885561842143
  H          31.94139758244226    -22.18965803921447     -0.10650679290243
  C          36.75848775814293    -24.75176542850600      0.07443711109715
  O          37.49078237287255    -24.85364795300871      1.03747009109933
  C          35.51940178816252    -23.88356274958580      0.12550967611664
  C          37.03498774989880    -25.48194780916571     -1.21761876847998
  H          35.71774935265287    -22.93574380341400     -0.39145809403286
  H          34.65757862905510    -24.33804931989464     -0.37437325722631
  H          35.27549429476908    -23.66235878372979      1.16632086684402
  H          36.32910503784494    -26.31829260155230     -1.30842476563630
  H          38.05162804081866    -25.87795811710419     -1.21481249597727
  H          36.87582461190354    -24.84255545775170     -2.09197091097107
  C          23.06961623623014    -16.02599406093690      0.06057643385409
  O          23.71854260637410    -16.48087292693076      0.98180517851814
  C          22.00952433994112    -16.84269722359334     -0.64092068943597
  C          23.35135478666078    -14.62757733034744     -0.45921613934650
  H          22.46981947056580    -17.31716128729976     -1.51824557665414
  H          21.65158615495547    -17.63568991924961      0.01866299500026
  H          21.17582756187533    -16.22979933756000     -0.99568289057489
  H          22.66351017564724    -14.29738098319826     -1.24047595876670
  H          24.37684041828607    -14.62365070592788     -0.84582204643181
  H          23.32427997243974    -13.92539657320986      0.37942899738032
