148
Coordinates from ORCA-job Dienogest_10DMSO_XTB E -213.025837734460
  C          25.92056498204844    -19.11435307600892     -3.85860399943835
  C          27.30966800890794    -18.61304668558685     -4.17193510219144
  C          25.23591842259432    -18.28558578924880     -2.81541391409864
  C          25.37945012494889    -20.17657759547149     -4.48968594887747
  C          27.89651993464676    -17.94740229323723     -2.91086075647489
  C          28.16931492735645    -19.71707878221234     -4.78748510347443
  C          25.92126084562752    -18.36450419434921     -1.43654468675237
  C          26.07671845994727    -20.83764475873097     -5.57497993746639
  C          24.07543575386162    -20.81811040025053     -4.08295908071954
  C          27.43462244786545    -18.58650375321255     -1.58665112942243
  C          27.42500026280210    -20.31511426563859     -5.97273566752125
  C          25.52767521556514    -21.86696167137493     -6.25686860727873
  C          23.29853157828585    -21.36329960365975     -5.27693776809179
  C          24.15264792587690    -22.30563727912364     -6.10042408269129
  O          23.70247755255122    -23.29994816784033     -6.63231780004892
  H          27.21280263322320    -17.82683487847171     -4.93564706880346
  C          27.68144040176088    -20.09755471163594     -1.53641893013611
  C          29.41411197743690    -17.89207636487227     -2.78161810261196
  C          29.61658024605833    -17.43057828149016     -1.33742345937756
  C          28.37804281195279    -17.89872414266376     -0.52486547700600
  O          28.73486517806213    -18.75761791889848      0.52973368204754
  H          27.54091632782340    -16.91134398476050     -2.89187231408818
  C          27.73758654565351    -16.68654965023176      0.19849594648973
  C          27.24539062845069    -15.66049871429411     -0.67447804936523
  N          26.86028409500030    -14.82792045197022     -1.35938025628294
  H          24.18531334333385    -18.54544736996641     -2.70365656799858
  H          25.27783232258188    -17.24702153572178     -3.15818123053168
  H          28.37155757355842    -20.50190924286396     -4.06107923565319
  H          29.12209199757526    -19.30463896093881     -5.12156149459252
  H          25.49038824884936    -19.18535438536567     -0.86090712796908
  H          25.68738264227529    -17.43973623876865     -0.91396655628606
  H          23.44201755903302    -20.12141251156959     -3.53276844669138
  H          24.31149060318146    -21.65194335821594     -3.40848120404061
  H          28.00621726702895    -21.11332589450125     -6.43631062490979
  H          27.27160708773101    -19.53872578460091     -6.73046708590115
  H          26.09968510280510    -22.38112115979236     -7.01679696813540
  H          22.99830707660480    -20.54068149697672     -5.93475046678588
  H          22.39534719390315    -21.88096733570794     -4.95156331123656
  H          27.06125822252076    -20.60627090076194     -2.26820068687326
  H          27.40435681334967    -20.45774313075850     -0.54814750186872
  H          28.72582437554269    -20.34155945214455     -1.70766724543976
  H          29.85072540681218    -18.87720896888883     -2.92842572464813
  H          29.86689459034762    -17.20518555148002     -3.49560946459098
  H          29.70047699053265    -16.34321875480050     -1.30189783821625
  H          30.52013096677327    -17.85729330647568     -0.90353988848017
  H          29.48415838294404    -19.33276705564323      0.24967506545742
  H          26.93162431085837    -17.04195224303077      0.84546819872334
  H          28.50408317673067    -16.24490831909844      0.84360888050440
  C          31.06868406601818    -17.36077086574263      2.51820739251907
  S          30.69857498691840    -19.14286349387020      2.67550671699954
  C          29.20807729469050    -18.94247574770206      3.72396068641801
  O          31.74287405613194    -19.70198437630129      3.59021852588712
  H          30.55765410782416    -17.01423100593848      1.62840307863347
  H          30.72400925767460    -16.83007185777987      3.39991877617676
  H          32.14074595389175    -17.24199549110150      2.41165621224165
  H          29.41352908335230    -18.24339799923436      4.52812374092531
  H          28.42398142370718    -18.57675974066647      3.07198871070470
  H          28.93684216181776    -19.91316018732542      4.12655288613850
  C          33.90883050623205    -23.09918810699131     -5.44584095503498
  S          32.22354229008334    -23.20943384116800     -6.18128215679903
  C          31.63020434287920    -21.65707937281095     -5.40331999106240
  O          31.54631776051242    -24.31600268838045     -5.47549333757279
  H          33.81925727556292    -22.86356173124225     -4.38979051292526
  H          34.40342934964480    -24.05365571218737     -5.58398309110433
  H          34.44355533865482    -22.31613516590569     -5.96935218517771
  H          31.80247241661408    -21.71151933576810     -4.33491221306103
  H          32.19253671028116    -20.83560948155857     -5.83175396010722
  H          30.57347273774460    -21.54570224644226     -5.61426422024930
  C          29.62668897161296    -22.18774316059977      0.93445008365206
  S          31.06168071372824    -21.68124934078332     -0.09498807871054
  C          32.27709893921256    -21.94332710243868      1.22556025990814
  O          30.91656035730652    -20.18766665040549     -0.19267209196677
  H          29.74352919040990    -23.24415893417160      1.13572038417805
  H          29.62104864857493    -21.60121609451804      1.84482423794901
  H          28.71496873904695    -22.01548282078943      0.37551910355354
  H          32.10731206254657    -21.23019437704299      2.01971875255037
  H          32.13221025463118    -22.96184029212900      1.55262628115554
  H          33.26768662745003    -21.82291472100266      0.80798335644918
  C          32.59729765906066    -25.05616600837797     -2.49806244209182
  S          31.03298513868308    -24.95911547349133     -1.55434676351617
  C          30.30017400624096    -23.66269761476105     -2.61534881793740
  O          31.38693076661653    -24.27734961714439     -0.27908923951810
  H          33.08735812352342    -24.09136928579424     -2.41836836359357
  H          33.21401516418025    -25.84362339070593     -2.07840939804534
  H          32.34783910180990    -25.27464210784030     -3.53040285705218
  H          30.26209310992295    -24.05183132937961     -3.62692654883651
  H          29.30466700882491    -23.42778778262616     -2.25518512040231
  H          30.94365032090791    -22.79299823236127     -2.55762661983738
  C          33.01200746578684    -15.70337079868869      5.26445105530030
  S          31.67715860962634    -16.44111562806288      6.29698918266444
  C          32.37407727128308    -18.14249471410671      6.29583770141123
  O          30.47408837381342    -16.50340665882583      5.44334791286985
  H          32.60136534066559    -14.83498109002886      4.76064256604965
  H          33.79826216458678    -15.39490125049899      5.94425211344359
  H          33.40029963566284    -16.41801595029498      4.54233744880136
  H          31.78037377947003    -18.75098643677676      6.97168209739696
  H          32.33282673259425    -18.54964885812502      5.28653429865984
  H          33.39587447074326    -18.08257931104062      6.64734335636969
  C          34.57760420833471    -24.47278924941605      0.71146174981423
  S          35.77631585623406    -23.31389498464310     -0.04130397103227
  C          37.05980072929027    -23.52870689025282      1.25578314976506
  O          35.24856278989844    -21.94166787523108      0.17359778188659
  H          34.93751007016504    -25.47475024237703      0.50567078002163
  H          34.53032183401355    -24.29474565883566      1.78036199289697
  H          33.60259680229465    -24.32554152868225      0.25809212273047
  H          37.83551564237428    -22.78691920666817      1.09252692661213
  H          36.60435685747010    -23.39382100480437      2.23373023667891
  H          37.47319568113851    -24.52601967085320      1.15790721519411
  C          34.40993811477932    -21.17470832429863      5.25312878527875
  S          34.14559489677781    -22.20750147050584      3.75893296738380
  C          32.60705648249266    -22.97329102800983      4.41910805684920
  O          35.16928529118869    -23.27632876061747      3.81386259467262
  H          34.49947648802696    -21.80788393542395      6.12707349386138
  H          35.31387539440228    -20.59209125327173      5.12913941668477
  H          33.55284725780947    -20.51818908279605      5.32187413565811
  H          32.29771589378143    -23.77046718311894      3.75191936502572
  H          32.78815133796243    -23.37700931098842      5.40831834578610
  H          31.85950110980756    -22.19010133631154      4.44460543932732
  C          36.04788575377135    -19.53840839700252      2.33557408495865
  S          34.26985152783276    -19.17361050787214      2.68115606039154
  C          33.86944248770310    -18.96302398174760      0.89643520944705
  O          34.26316196305890    -17.79998535496323      3.23072732878955
  H          36.56718258511016    -19.70286177003790      3.27509017014097
  H          36.07338339404404    -20.43833661773968      1.73277190580232
  H          36.49814752403013    -18.70112831772980      1.81173797641048
  H          34.37910213860529    -19.74910837909739      0.35772417253437
  H          32.79968552103780    -19.05515177441583      0.74817383257251
  H          34.21357077390755    -17.98111941294565      0.58798154248232
  C          34.75208533095265    -17.11927901495520     -6.86590104133936
  S          35.13560721930819    -18.71783446421049     -6.03862884114034
  C          35.77857341843960    -19.55408845994152     -7.55783107368069
  O          33.83256683413706    -19.34391409199936     -5.77269249388923
  H          34.06084073554021    -17.29298469381469     -7.68335256538968
  H          34.28992111950591    -16.46848532116464     -6.13017091465802
  H          35.67695037293625    -16.68151915474043     -7.22000745082253
  H          35.04988555389597    -19.47372966083737     -8.35699723309892
  H          36.71847325891992    -19.08718480439726     -7.83553684638894
  H          35.94072845196276    -20.60087428629366     -7.31695492674945
  C          32.90921245905146    -19.36594668745941     -2.55731657831282
  S          33.67673492653782    -20.85103587233498     -1.79751709148810
  C          35.31917568570567    -20.55708783173867     -2.58018478971779
  O          33.12081575292994    -21.99142192332515     -2.55961007323277
  H          33.41409004732684    -18.49132887357002     -2.17051884703131
  H          32.98173195917040    -19.41395039727427     -3.63763162767807
  H          31.87565736473136    -19.36001882959772     -2.23757578140412
  H          35.73288709880710    -19.64497766536014     -2.17012949219239
  H          35.95764923263907    -21.39713450843323     -2.33265184874386
  H          35.18725835821878    -20.47707709365687     -3.65240716622569
