6
Coordinates from ORCA-job MeOHGasXTB2Opt E  -8.226118396670
  H          -2.23314343711472     -1.55249490964529     -0.39626891557604
  C          -1.62458137419735     -1.63278084974704     -1.30359724080885
  O          -0.25313161052719     -1.71866877642483     -1.00411594645807
  H          -1.84415451719970     -0.78128291597718     -1.95685124450827
  H          -1.88576516413770     -2.55273687950298     -1.82332904292554
  H           0.01862610317667     -0.91874566870268     -0.54219760972321
