59
Coordinates from ORCA-job ApixabanGasXTB2Opt E -97.243349929980
  C      23.821044    -17.585907     -0.047241
  C      24.218688    -18.528277      1.082817
  C      25.513274    -19.294877      0.889986
  N      26.422507    -18.805437     -0.017818
  C      26.104522    -17.739219     -0.997385
  C      25.042673    -16.789428     -0.478904
  C      27.679655    -19.458427     -0.178919
  C      28.509780    -19.678851      0.924598
  C      29.743965    -20.287393      0.763855
  C      30.181099    -20.672760     -0.507646
  C      29.360729    -20.441732     -1.611088
  C      28.114451    -19.844468     -1.445839
  N      31.437039    -21.322836     -0.665041
  C      31.528566    -22.416521     -1.664673
  C      32.524780    -23.493563     -1.248401
  C      33.796910    -22.827207     -0.859722
  C      33.782687    -21.534857     -0.366674
  C      32.576496    -20.718933     -0.165748
  O      25.743763    -20.294635      1.571727
  O      32.577766    -19.631975      0.408413
  C      35.153171    -23.192685     -0.863804
  N      35.920104    -22.184835     -0.407978
  N      35.082386    -21.189329     -0.100450
  C      35.620483    -19.971729      0.421051
  C      35.741642    -24.484194     -1.290846
  N      37.092035    -24.534501     -1.305913
  O      35.016908    -25.429961     -1.610269
  C      35.284538    -19.552001      1.706902
  C      35.845753    -18.394364      2.213057
  C      36.751992    -17.651809      1.441178
  C      37.094401    -18.084398      0.156017
  C      36.521760    -19.249536     -0.348011
  O      37.244089    -16.533984      2.029670
  C      38.188974    -15.751187      1.285994
  H      23.441072    -18.162321     -0.901466
  H      23.011694    -16.926204      0.285016
  H      24.358694    -17.956069      2.011659
  H      23.442881    -19.271541      1.291820
  H      27.037237    -17.205254     -1.208620
  H      25.759886    -18.194094     -1.937395
  H      25.436130    -16.212980      0.369257
  H      24.797894    -16.080343     -1.277791
  H      28.182315    -19.377150      1.913398
  H      30.374435    -20.466801      1.628125
  H      29.685504    -20.724758     -2.607642
  H      27.485013    -19.683164     -2.315557
  H      30.530407    -22.848238     -1.766587
  H      31.824246    -21.998497     -2.637770
  H      32.132517    -24.077881     -0.404450
  H      32.674082    -24.186525     -2.080044
  H      37.647574    -23.748140     -1.004438
  H      37.554019    -25.398084     -1.547962
  H      34.590460    -20.132589      2.305159
  H      35.599540    -18.052424      3.213952
  H      37.792926    -17.531065     -0.460577
  H      36.775681    -19.590662     -1.347599
  H      37.742389    -15.362351      0.362723
  H      38.459713    -14.917571      1.936245
  H      39.087056    -16.334485      1.048654
59
Coordinates from ORCA-job ApixabanGasXTB2Opt E -97.248723769760
  C      23.888120    -17.588843      0.020503
  C      24.330800    -18.495671      1.156536
  C      25.615856    -19.263847      0.923366
  N      26.475421    -18.801794     -0.027849
  C      26.126038    -17.777734     -1.010087
  C      25.092146    -16.806011     -0.472501
  C      27.722682    -19.448394     -0.208599
  C      28.561896    -19.658812      0.880808
  C      29.784019    -20.275596      0.711545
  C      30.198641    -20.677852     -0.554271
  C      29.367309    -20.457321     -1.645956
  C      28.134364    -19.853337     -1.472254
  N      31.447769    -21.320572     -0.711009
  C      31.539971    -22.406722     -1.693831
  C      32.522781    -23.493895     -1.266372
  C      33.787915    -22.830064     -0.874021
  C      33.773028    -21.535457     -0.387447
  C      32.571303    -20.722468     -0.197197
  O      25.887325    -20.228766      1.616231
  O      32.556018    -19.655587      0.393654
  C      35.138747    -23.199547     -0.865053
  N      35.888406    -22.192135     -0.402630
  N      35.059234    -21.198489     -0.109398
  C      35.578491    -19.987401      0.409134
  C      35.724589    -24.485728     -1.288961
  N      37.069797    -24.534951     -1.264123
  O      35.023362    -25.418926     -1.648370
  C      35.173986    -19.530854      1.656993
  C      35.709435    -18.364971      2.157848
  C      36.658584    -17.647400      1.423778
  C      37.065882    -18.118183      0.177534
  C      36.520826    -19.289301     -0.324234
  O      37.118895    -16.515352      2.013315
  C      38.093173    -15.746067      1.327776
  H      23.479441    -18.185502     -0.799766
  H      23.097660    -16.920208      0.366217
  H      24.508686    -17.898836      2.058342
  H      23.564947    -19.229567      1.414022
  H      27.051083    -17.257592     -1.273935
  H      25.735931    -18.258501     -1.916366
  H      25.518057    -16.219711      0.345501
  H      24.816600    -16.114215     -1.271324
  H      28.246720    -19.350821      1.864752
  H      30.426562    -20.439893      1.561613
  H      29.675624    -20.751105     -2.637804
  H      27.496471    -19.703139     -2.329830
  H      30.539189    -22.827543     -1.801706
  H      31.851136    -21.992799     -2.662127
  H      32.125746    -24.064151     -0.420926
  H      32.681624    -24.195086     -2.086637
  H      37.607795    -23.756270     -0.927750
  H      37.537348    -25.392148     -1.506050
  H      34.440308    -20.082510      2.222706
  H      35.407100    -17.990585      3.122439
  H      37.795949    -17.588608     -0.411719
  H      36.829658    -19.658037     -1.290858
  H      37.703265    -15.373926      0.377012
  H      38.314437    -14.906271      1.983055
  H      39.003856    -16.325930      1.157286
59
Coordinates from ORCA-job ApixabanGasXTB2Opt E -97.249663008480
  C      23.895651    -17.595016      0.046563
  C      24.350776    -18.492218      1.186110
  C      25.635768    -19.262304      0.942139
  N      26.475580    -18.810161     -0.029813
  C      26.113782    -17.800132     -1.011633
  C      25.096315    -16.815031     -0.461597
  C      27.723939    -19.451147     -0.218203
  C      28.565178    -19.664801      0.867803
  C      29.787359    -20.278616      0.694014
  C      30.201613    -20.674911     -0.572819
  C      29.366949    -20.451279     -1.661185
  C      28.136030    -19.849261     -1.483678
  N      31.453442    -21.309780     -0.730659
  C      31.549878    -22.391723     -1.707930
  C      32.520037    -23.488379     -1.270143
  C      33.785093    -22.825954     -0.876812
  C      33.773234    -21.530999     -0.385358
  C      32.568135    -20.723501     -0.187038
  O      25.910296    -20.226025      1.628499
  O      32.544053    -19.664568      0.412068
  C      35.135254    -23.199645     -0.868899
  N      35.882059    -22.191347     -0.409951
  N      35.059574    -21.199777     -0.111407
  C      35.574095    -19.991040      0.403095
  C      35.716003    -24.481829     -1.306270
  N      37.060888    -24.532261     -1.239532
  O      35.030414    -25.403524     -1.706710
  C      35.116802    -19.492198      1.616555
  C      35.644975    -18.321041      2.109489
  C      36.640203    -17.636954      1.406835
  C      37.099863    -18.150253      0.198451
  C      36.564311    -19.325657     -0.297865
  O      37.089097    -16.495179      1.988350
  C      38.098490    -15.755787      1.339304
  H      23.480888    -18.197281     -0.764830
  H      23.110981    -16.921970      0.395184
  H      24.538161    -17.887992      2.079600
  H      23.586071    -19.222360      1.455621
  H      27.034561    -17.285640     -1.302257
  H      25.696298    -18.285409     -1.904212
  H      25.536936    -16.235745      0.351649
  H      24.811473    -16.121347     -1.254311
  H      28.249713    -19.363984      1.852519
  H      30.432394    -20.442469      1.540656
  H      29.673917    -20.738765     -2.654426
  H      27.498311    -19.695881     -2.339746
  H      30.547690    -22.806260     -1.829080
  H      31.879851    -21.982079     -2.672567
  H      32.116689    -24.046414     -0.420530
  H      32.683633    -24.198299     -2.081088
  H      37.581929    -23.760874     -0.862203
  H      37.535721    -25.383827     -1.486439
  H      34.345960    -20.013705      2.158315
  H      35.301395    -17.911785      3.044370
  H      37.866671    -17.647936     -0.367517
  H      36.918632    -19.727756     -1.233948
  H      37.762441    -15.401534      0.361063
  H      38.294673    -14.903021      1.985883
  H      39.011875    -16.346372      1.227525
59
Coordinates from ORCA-job ApixabanGasXTB2Opt E -97.250131147720
  C      23.871038    -17.617665      0.066586
  C      24.344770    -18.499075      1.212173
  C      25.624572    -19.278235      0.954237
  N      26.445791    -18.835673     -0.039332
  C      26.065255    -17.843919     -1.028725
  C      25.065216    -16.843445     -0.469550
  C      27.701118    -19.463527     -0.229684
  C      28.545589    -19.673516      0.855102
  C      29.774485    -20.273425      0.678454
  C      30.194615    -20.660218     -0.590037
  C      29.355694    -20.440683     -1.676424
  C      28.119666    -19.851407     -1.496766
  N      31.453196    -21.281167     -0.751589
  C      31.554290    -22.364886     -1.720956
  C      32.510371    -23.466643     -1.264423
  C      33.776154    -22.803592     -0.870885
  C      33.769600    -21.507732     -0.375754
  C      32.559729    -20.700889     -0.183428
  O      25.914300    -20.224435      1.656449
  O      32.520377    -19.653603      0.433432
  C      35.126339    -23.181523     -0.873258
  N      35.876365    -22.176902     -0.414232
  N      35.061241    -21.186120     -0.103382
  C      35.582783    -19.981381      0.406907
  C      35.699668    -24.459473     -1.331597
  N      37.044573    -24.513760     -1.225172
  O      35.026226    -25.365360     -1.779416
  C      35.088410    -19.435745      1.587109
  C      35.628447    -18.267187      2.072194
  C      36.674514    -17.629225      1.400352
  C      37.174450    -18.191449      0.231086
  C      36.628939    -19.364004     -0.258868
  O      37.131072    -16.484446      1.971348
  C      38.184139    -15.789812      1.352365
  H      23.445240    -18.230943     -0.730005
  H      23.093154    -16.938206      0.418468
  H      24.549541    -17.881629      2.092327
  H      23.581210    -19.221732      1.503647
  H      26.977958    -17.335022     -1.354191
  H      25.618099    -18.339045     -1.902264
  H      25.524407    -16.264490      0.333090
  H      24.766913    -16.154109     -1.260484
  H      28.226679    -19.381237      1.841328
  H      30.421059    -20.433610      1.524653
  H      29.665213    -20.720854     -2.671387
  H      27.481514    -19.700220     -2.353243
  H      30.551841    -22.774983     -1.856757
  H      31.905635    -21.965517     -2.683118
  H      32.097699    -24.007875     -0.408205
  H      32.679635    -24.189205     -2.062256
  H      37.547388    -23.751142     -0.806910
  H      37.527078    -25.357506     -1.483713
  H      34.282014    -19.920801      2.109854
  H      35.257461    -17.821280      2.979871
  H      37.982827    -17.727144     -0.310550
  H      37.018176    -19.805414     -1.163050
  H      37.905632    -15.452816      0.349009
  H      38.373229    -14.923616      1.984097
  H      39.089408    -16.402488      1.296478
59
Coordinates from ORCA-job ApixabanGasXTB2Opt E -97.250346557380
  C      23.831791    -17.646688      0.048436
  C      24.298665    -18.531993      1.194284
  C      25.585916    -19.304387      0.947070
  N      26.412761    -18.854454     -0.040333
  C      26.031503    -17.864946     -1.032028
  C      25.028627    -16.865583     -0.473919
  C      27.674380    -19.472598     -0.223497
  C      28.509949    -19.695296      0.866662
  C      29.745872    -20.282007      0.692894
  C      30.183921    -20.644535     -0.577532
  C      29.353874    -20.412407     -1.668412
  C      28.111336    -19.835255     -1.492364
  N      31.447380    -21.256346     -0.740459
  C      31.553271    -22.336560     -1.712799
  C      32.498931    -23.442059     -1.245510
  C      33.765357    -22.778551     -0.852401
  C      33.762757    -21.486886     -0.344843
  C      32.547265    -20.686190     -0.147886
  O      25.864491    -20.261052      1.640220
  O      32.498021    -19.643179      0.476077
  C      35.115597    -23.157528     -0.874084
  N      35.871899    -22.156480     -0.418378
  N      35.061706    -21.167576     -0.088763
  C      35.597677    -19.966432      0.413954
  C      35.682854    -24.430618     -1.354897
  N      37.028411    -24.488018     -1.233557
  O      35.012620    -25.325778     -1.828266
  C      35.097072    -19.385863      1.575909
  C      35.659475    -18.223727      2.050865
  C      36.736490    -17.625604      1.390526
  C      37.246706    -18.225520      0.244101
  C      36.679010    -19.391453     -0.236032
  O      37.212701    -16.482478      1.948588
  C      38.295110    -15.828054      1.336908
  H      23.416195    -18.258183     -0.754921
  H      23.048371    -16.971310      0.396650
  H      24.491521    -17.918035      2.079410
  H      23.534540    -19.259309      1.473044
  H      26.941491    -17.352819     -1.359278
  H      25.583368    -18.359330     -1.905774
  H      25.482805    -16.294648      0.337543
  H      24.734450    -16.171017     -1.261495
  H      28.179450    -19.421725      1.854740
  H      30.383615    -20.452125      1.544314
  H      29.676250    -20.673437     -2.665076
  H      27.481820    -19.673902     -2.353940
  H      30.551727    -22.743068     -1.864399
  H      31.921588    -21.939106     -2.669648
  H      32.079669    -23.972844     -0.385454
  H      32.671181    -24.171213     -2.036355
  H      37.521141    -23.729183     -0.796688
  H      37.515478    -25.324609     -1.506054
  H      34.270652    -19.840392      2.094940
  H      35.284620    -17.751281      2.944136
  H      38.080824    -17.794774     -0.287025
  H      37.076382    -19.863185     -1.121678
  H      38.049066    -15.506092      0.319528
  H      38.494299    -14.951730      1.951998
  H      39.188101    -16.461582      1.311953
59
Coordinates from ORCA-job ApixabanGasXTB2Opt E -97.250466971640
  C      23.802781    -17.667431      0.045862
  C      24.272292    -18.555718      1.188181
  C      25.559197    -19.327220      0.938252
  N      26.388667    -18.870659     -0.044566
  C      26.001728    -17.883437     -1.038157
  C      24.998431    -16.885237     -0.478322
  C      27.654699    -19.480200     -0.223491
  C      28.483804    -19.712808      0.870058
  C      29.724662    -20.289664      0.698218
  C      30.174859    -20.634042     -0.573185
  C      29.351746    -20.392184     -1.667308
  C      28.103862    -19.824758     -1.493593
  N      31.441817    -21.238302     -0.738554
  C      31.551796    -22.318088     -1.712541
  C      32.491694    -23.423203     -1.234219
  C      33.757216    -22.757480     -0.840119
  C      33.755829    -21.468365     -0.327039
  C      32.536741    -20.671706     -0.133820
  O      25.842133    -20.280769      1.635189
  O      32.476887    -19.636275      0.502999
  C      35.107309    -23.135829     -0.873558
  N      35.866907    -22.137295     -0.417544
  N      35.057902    -21.148806     -0.078852
  C      35.605377    -19.950800      0.419324
  C      35.673144    -24.407363     -1.362577
  N      37.018988    -24.467093     -1.238007
  O      35.001620    -25.299024     -1.842443
  C      35.093741    -19.338428      1.559962
  C      35.673898    -18.182205      2.028521
  C      36.780596    -17.621547      1.384081
  C      37.303133    -18.254306      0.260083
  C      36.716792    -19.413693     -0.213622
  O      37.271434    -16.480465      1.932624
  C      38.383761    -15.863910      1.332174
  H      23.385435    -18.277486     -0.758071
  H      23.019499    -16.993494      0.397568
  H      24.466595    -17.943902      2.074851
  H      23.508818    -19.284274      1.465940
  H      26.908788    -17.369601     -1.370007
  H      25.551617    -18.380189     -1.909327
  H      25.453817    -16.315326      0.333584
  H      24.702779    -16.190595     -1.265240
  H      28.145348    -19.453533      1.859668
  H      30.356397    -20.466780      1.553264
  H      29.683709    -20.638804     -2.664801
  H      27.479795    -19.657322     -2.358211
  H      30.551308    -22.722657     -1.874572
  H      31.930706    -21.921868     -2.665615
  H      32.066308    -23.945765     -0.371852
  H      32.667723    -24.157489     -2.019412
  H      37.508620    -23.705190     -0.802837
  H      37.508106    -25.299939     -1.517830
  H      34.244544    -19.762604      2.068400
  H      35.290807    -17.685803      2.905612
  H      38.160966    -17.854444     -0.257312
  H      37.121375    -19.911159     -1.082077
  H      38.170417    -15.558827      0.302221
  H      38.590187    -14.978557      1.931868
  H      39.262893    -16.517086      1.341179
59
Coordinates from ORCA-job ApixabanGasXTB2Opt E -97.250545966540
  C      23.774942    -17.687415      0.036748
  C      24.241821    -18.583798      1.173365
  C      25.532484    -19.348126      0.926254
  N      26.369327    -18.881434     -0.045741
  C      25.980102    -17.892970     -1.038633
  C      24.970969    -16.901124     -0.479074
  C      27.637843    -19.485209     -0.220750
  C      28.459224    -19.729387      0.876157
  C      29.703264    -20.299911      0.707073
  C      30.164466    -20.627077     -0.564454
  C      29.349841    -20.373650     -1.662240
  C      28.098318    -19.812771     -1.491627
  N      31.433837    -21.225910     -0.730992
  C      31.547708    -22.305307     -1.706200
  C      32.485262    -23.407959     -1.218400
  C      33.749334    -22.738278     -0.826098
  C      33.747710    -21.450538     -0.310816
  C      32.524095    -20.660958     -0.118291
  O      25.812330    -20.308125      1.616332
  O      32.454205    -19.631116      0.527536
  C      35.099344    -23.113366     -0.871587
  N      35.860379    -22.114021     -0.419872
  N      35.051052    -21.126936     -0.072175
  C      35.610750    -19.932961      0.422089
  C      35.666701    -24.383614     -1.363131
  N      37.012733    -24.442045     -1.247392
  O      34.991824    -25.276448     -1.837586
  C      35.093509    -19.292219      1.543755
  C      35.693076    -18.143253      2.006608
  C      36.824879    -17.618869      1.375654
  C      37.352781    -18.280052      0.269873
  C      36.746265    -19.431232     -0.197960
  O      37.332447    -16.482107      1.917054
  C      38.471052    -15.901609      1.327100
  H      23.360128    -18.292112     -0.772889
  H      22.989351    -17.017677      0.391046
  H      24.429758    -17.978911      2.066389
  H      23.479901    -19.317573      1.441751
  H      26.886065    -17.374865     -1.366018
  H      25.535917    -18.390633     -1.912029
  H      25.421381    -16.332922      0.336984
  H      24.677707    -16.204422     -1.265114
  H      28.113415    -19.483345      1.866613
  H      30.328442    -20.485094      1.565421
  H      29.691300    -20.606826     -2.659726
  H      27.480579    -19.637906     -2.359191
  H      30.548052    -22.708448     -1.875010
  H      31.932625    -21.908349     -2.656214
  H      32.056050    -23.923210     -0.353668
  H      32.664122    -24.146856     -1.998543
  H      37.503218    -23.672627     -0.826590
  H      37.503161    -25.271155     -1.535152
  H      34.223788    -19.685862      2.041827
  H      35.305665    -17.625907      2.869525
  H      38.230057    -17.909667     -0.236133
  H      37.152299    -19.950786     -1.052610
  H      38.284250    -15.610557      0.288292
  H      38.687044    -15.010715      1.914806
  H      39.333851    -16.574781      1.364655
59
Coordinates from ORCA-job ApixabanGasXTB2Opt E -97.250576908580
  C      23.760859    -17.696240      0.034672
  C      24.225587    -18.601394      1.165047
  C      25.516938    -19.362847      0.916013
  N      26.358843    -18.888041     -0.047625
  C      25.969343    -17.895541     -1.036639
  C      24.957954    -16.908120     -0.474422
  C      27.628124    -19.489073     -0.221349
  C      28.443157    -19.742278      0.877928
  C      29.688472    -20.310740      0.711293
  C      30.156814    -20.626161     -0.560023
  C      29.348656    -20.364029     -1.660523
  C      28.095891    -19.805543     -1.492481
  N      31.427639    -21.222441     -0.725695
  C      31.544924    -22.300660     -1.701845
  C      32.482646    -23.401248     -1.209764
  C      33.745229    -22.728322     -0.818874
  C      33.742148    -21.440426     -0.303974
  C      32.514525    -20.657945     -0.108273
  O      25.795778    -20.326847      1.600803
  O      32.438697    -19.630974      0.541724
  C      35.095537    -23.100017     -0.869471
  N      35.855320    -22.098181     -0.421667
  N      35.044911    -21.111593     -0.072325
  C      35.611411    -19.920102      0.419328
  C      35.666365    -24.368908     -1.359810
  N      37.011696    -24.425655     -1.247400
  O      34.990548    -25.264648     -1.827856
  C      35.087530    -19.259369      1.525567
  C      35.698996    -18.115145      1.985458
  C      36.848450    -17.615878      1.366902
  C      37.381268    -18.295840      0.274881
  C      36.762996    -19.441582     -0.190035
  O      37.366016    -16.482129      1.905285
  C      38.522602    -15.925448      1.327112
  H      23.345498    -18.294350     -0.779633
  H      22.975625    -17.028469      0.393099
  H      24.411528    -18.003491      2.063296
  H      23.463844    -19.337620      1.426888
  H      26.875704    -17.374994     -1.359090
  H      25.528625    -18.391242     -1.912816
  H      25.406102    -16.342752      0.344776
  H      24.666809    -16.207881     -1.258241
  H      28.091831    -19.505373      1.868534
  H      30.308677    -20.502681      1.571604
  H      29.696474    -20.588806     -2.657575
  H      27.483214    -19.624228     -2.362092
  H      30.545630    -22.703248     -1.873633
  H      31.931698    -21.901482     -2.650046
  H      32.051916    -23.913256     -0.344156
  H      32.663433    -24.142274     -1.987376
  H      37.502754    -23.650839     -0.837230
  H      37.503598    -25.252427     -1.538998
  H      34.202492    -19.631069      2.012983
  H      35.306360    -17.583269      2.836832
  H      38.271444    -17.944871     -0.221963
  H      37.171747    -19.975729     -1.034043
  H      38.354970    -15.642400      0.283075
  H      38.743183    -15.032409      1.909580
  H      39.372974    -16.612478      1.385268
59
Coordinates from ORCA-job ApixabanGasXTB2Opt E -97.250585974220
  C      23.753560    -17.701891      0.034854
  C      24.218357    -18.609699      1.163147
  C      25.511129    -19.368570      0.913652
  N      26.353725    -18.890683     -0.047959
  C      25.962975    -17.897108     -1.035168
  C      24.950352    -16.912018     -0.471606
  C      27.623126    -19.490716     -0.222832
  C      28.437583    -19.744541      0.876540
  C      29.683272    -20.312474      0.709978
  C      30.151979    -20.625791     -0.561440
  C      29.344388    -20.363040     -1.662198
  C      28.091532    -19.805280     -1.494188
  N      31.423797    -21.220402     -0.726764
  C      31.542643    -22.299393     -1.701283
  C      32.481431    -23.397854     -1.206899
  C      33.743094    -22.722794     -0.817125
  C      33.739119    -21.433198     -0.305376
  C      32.509235    -20.653499     -0.109813
  O      25.789001    -20.335619      1.594192
  O      32.429396    -19.629289      0.543874
  C      35.093660    -23.093127     -0.867461
  N      35.852056    -22.089378     -0.422259
  N      35.041217    -21.102554     -0.074179
  C      35.611445    -19.912814      0.416950
  C      35.666592    -24.361836     -1.355227
  N      37.011413    -24.417620     -1.242203
  O      34.991617    -25.258217     -1.823173
  C      35.085798    -19.243413      1.517017
  C      35.704035    -18.102398      1.976375
  C      36.861411    -17.615052      1.363706
  C      37.394807    -18.302745      0.277105
  C      36.770350    -19.445059     -0.187365
  O      37.385212    -16.483917      1.902136
  C      38.550013    -15.938555      1.330402
  H      23.338306    -18.297804     -0.781023
  H      22.968154    -17.035202      0.394844
  H      24.402612    -18.014115      2.063237
  H      23.457520    -19.347614      1.422696
  H      26.869081    -17.374962     -1.356029
  H      25.523500    -18.392523     -1.912189
  H      25.397313    -16.347147      0.348482
  H      24.659248    -16.210478     -1.254399
  H      28.085584    -19.509032      1.867127
  H      30.303405    -20.504892      1.570097
  H      29.693046    -20.586831     -2.659096
  H      27.479427    -19.622950     -2.363924
  H      30.543382    -22.702584     -1.872330
  H      31.928835    -21.900380     -2.649835
  H      32.050513    -23.908461     -0.340684
  H      32.663437    -24.140369     -1.982773
  H      37.502850    -23.641288     -0.835337
  H      37.504415    -25.242774     -1.536611
  H      34.194002    -19.604686      1.999511
  H      35.309909    -17.564533      2.823151
  H      38.290374    -17.960418     -0.216103
  H      37.179823    -19.985229     -1.027004
  H      38.390528    -15.656181      0.284951
  H      38.774055    -15.046536      1.913042
  H      39.393361    -16.633470      1.395795
59
Coordinates from ORCA-job ApixabanGasXTB2Opt E -97.250589733340
  C      23.751922    -17.702727      0.035426
  C      24.215562    -18.613513      1.161892
  C      25.508159    -19.372572      0.911117
  N      26.351569    -18.892140     -0.048552
  C      25.962050    -17.895819     -1.033274
  C      24.949393    -16.911815     -0.467893
  C      27.621061    -19.491968     -0.223868
  C      28.434309    -19.747305      0.876002
  C      29.680153    -20.315274      0.709870
  C      30.149805    -20.626576     -0.561703
  C      29.343240    -20.362494     -1.662877
  C      28.090444    -19.804730     -1.495240
  N      31.422082    -21.220871     -0.726128
  C      31.541998    -22.299190     -1.700954
  C      32.481560    -23.397101     -1.207121
  C      33.742722    -22.721389     -0.817181
  C      33.738017    -21.431169     -0.306429
  C      32.506853    -20.653588     -0.108375
  O      25.785504    -20.340992      1.589710
  O      32.426349    -19.629958      0.545958
  C      35.093568    -23.091190     -0.866116
  N      35.851039    -22.086482     -0.421875
  N      35.039781    -21.099426     -0.075583
  C      35.610969    -19.909912      0.414798
  C      35.667492    -24.359618     -1.353308
  N      37.011935    -24.415738     -1.236446
  O      34.993787    -25.255806     -1.823287
  C      35.083613    -19.236343      1.511588
  C      35.703945    -18.096236      1.970568
  C      36.864782    -17.613666      1.360917
  C      37.399120    -18.304839      0.277190
  C      36.772957    -19.446243     -0.187015
  O      37.390653    -16.483200      1.899157
  C      38.559156    -15.942688      1.330812
  H      23.336895    -18.296251     -0.782201
  H      22.966734    -17.036391      0.396636
  H      24.399477    -18.020153      2.063488
  H      23.454195    -19.351608      1.419274
  H      26.868651    -17.373046     -1.351894
  H      25.523049    -18.388726     -1.911983
  H      25.395810    -16.348980      0.353842
  H      24.659021    -16.208005     -1.248974
  H      28.081082    -19.513256      1.866482
  H      30.299585    -20.509195      1.570076
  H      29.692822    -20.585340     -2.659669
  H      27.479201    -19.620770     -2.365265
  H      30.542872    -22.702962     -1.871863
  H      31.927707    -21.899478     -2.649487
  H      32.050961    -23.908642     -0.341265
  H      32.664234    -24.139306     -1.983151
  H      37.503420    -23.640060     -0.828435
  H      37.505587    -25.240144     -1.532034
  H      34.188727    -19.593337      1.991472
  H      35.308338    -17.555597      2.814895
  H      38.296792    -17.965613     -0.214488
  H      37.183683    -19.989071     -1.024288
  H      38.403655    -15.660189      0.284759
  H      38.784486    -15.051306      1.913951
  H      39.399471    -16.640997      1.399345
59
Coordinates from ORCA-job ApixabanGasXTB2Opt E -97.250591504480
  C      23.749851    -17.704782      0.035381
  C      24.212779    -18.617263      1.160811
  C      25.505686    -19.375911      0.909577
  N      26.349417    -18.893343     -0.048732
  C      25.960842    -17.895069     -1.031777
  C      24.947502    -16.912301     -0.465326
  C      27.619216    -19.492743     -0.224384
  C      28.432031    -19.748701      0.875710
  C      29.678116    -20.316258      0.709599
  C      30.148165    -20.626330     -0.562223
  C      29.341973    -20.361724     -1.663488
  C      28.088986    -19.804366     -1.495828
  N      31.420861    -21.220058     -0.726330
  C      31.541504    -22.297843     -1.701541
  C      32.481531    -23.395395     -1.208157
  C      33.742261    -22.719398     -0.817378
  C      33.737118    -21.428858     -0.307181
  C      32.505175    -20.652352     -0.108109
  O      25.782710    -20.345507      1.586569
  O      32.423891    -19.629796      0.547701
  C      35.093226    -23.089264     -0.864875
  N      35.850293    -22.084458     -0.420457
  N      35.038834    -21.097129     -0.075343
  C      35.611020    -19.907695      0.414174
  C      35.667262    -24.357669     -1.352152
  N      37.011378    -24.415181     -1.230700
  O      34.994534    -25.252908     -1.825211
  C      35.083283    -19.231034      1.508993
  C      35.705440    -18.091669      1.967374
  C      36.868489    -17.612608      1.359224
  C      37.402936    -18.306591      0.277389
  C      36.775102    -19.447301     -0.186260
  O      37.396305    -16.482639      1.896762
  C      38.567593    -15.946336      1.330148
  H      23.335863    -18.297033     -0.783641
  H      22.964173    -17.039214      0.397050
  H      24.395863    -18.025241      2.063431
  H      23.451250    -19.355836      1.416375
  H      26.867602    -17.371441     -1.348546
  H      25.522559    -18.386003     -1.911958
  H      25.393009    -16.350929      0.357904
  H      24.657418    -16.206942     -1.245122
  H      28.078120    -19.515472      1.866161
  H      30.297431    -20.510912      1.569719
  H      29.692018    -20.583995     -2.660277
  H      27.477917    -19.619648     -2.365857
  H      30.542605    -22.702224     -1.872566
  H      31.927077    -21.897824     -2.650031
  H      32.051043    -23.908125     -0.342871
  H      32.665003    -24.137071     -1.984551
  H      37.503173    -23.640749     -0.820771
  H      37.505160    -25.239227     -1.527218
  H      34.186594    -19.585068      1.987722
  H      35.309344    -17.549025      2.810242
  H      38.301969    -17.969809     -0.213593
  H      37.186308    -19.992203     -1.021975
  H      38.414893    -15.663831      0.283650
  H      38.794761    -15.055373      1.913254
  H      39.405538    -16.647327      1.400509
