109
Coordinates from ORCA-job r2SCAN-3c_LooseOpt_KeepDens
  C          25.63938780867666    -22.19260168860490     -9.48633114618521
  C          25.05469647912809    -23.06449657723508     -8.37956292922777
  C          25.16905221709828    -22.48857800454441     -6.98111143985053
  N          26.11165088772411    -21.51935574034424     -6.76465873525667
  C          26.93071731773056    -20.87821583342721     -7.80968407872417
  C          27.02891872714062    -21.72553876230266     -9.06519902565405
  C          26.18234242968563    -20.91966109802952     -5.46511037827498
  C          27.26318977646872    -21.18733060758064     -4.63286511149289
  C          27.33731117183844    -20.61936081283554     -3.37045463170410
  C          26.32006849358630    -19.77151953108545     -2.92808336876426
  C          25.25410565495360    -19.48070568660091     -3.77781934470806
  C          25.18381364975698    -20.05608302592414     -5.03858224536111
  N          26.32105380830909    -19.26047123642233     -1.60375862139053
  C          25.01028168874827    -19.07920712855790     -0.93535629496274
  C          25.07951105849552    -19.37627607424480      0.55676327647225
  C          26.21749106733219    -18.61591992773237      1.12959851604025
  C          27.29110045663703    -18.27197687788692      0.33035872752859
  C          27.47787411267843    -18.71871345919410     -1.06182057109936
  O          24.45606628720935    -22.91540711890174     -6.07447193932277
  O          28.55211701080841    -18.66024634466960     -1.64676178889679
  C          26.55970470863394    -18.15727901728020      2.41054632254331
  N          27.76377462801416    -17.55681388175758      2.39466662965005
  N          28.20421195471115    -17.63555756519774      1.13267028546147
  C          29.43475858202270    -16.99782527804476      0.80026633809998
  C          25.75062651629977    -18.22446324543680      3.64278391087634
  N          26.39747875926876    -17.96968400740626      4.79268920189051
  O          24.54223566501893    -18.50513048444874      3.58830478651201
  C          29.52005407216669    -16.16568909324203     -0.31354239381590
  C          30.69498159933532    -15.48812178603848     -0.56784133879706
  C          31.78997707614925    -15.62322295292710      0.29361725884084
  C          31.70392865911366    -16.46581924883323      1.40283891083879
  C          30.52124849226502    -17.15432969179511      1.64739284760540
  O          32.88451479877706    -14.88923827722158     -0.03194793036733
  C          34.00347805312894    -14.93596057214009      0.85542807105087
  H          25.67638189785741    -22.75151005353544    -10.42841974624559
  H          24.99360916606403    -21.31856824371967     -9.65805999078184
  H          23.99558844647445    -23.28367305045175     -8.53478645152244
  H          25.56692585252765    -24.03323723126343     -8.35092251076543
  H          26.49270059662743    -19.89514188700766     -8.04998904727764
  H          27.92654506815369    -20.68944601794094     -7.38712532279258
  H          27.51573322775030    -21.13342986205762     -9.84977790778466
  H          27.66676094458168    -22.60105760894700     -8.87196627522648
  H          28.03535840788747    -21.87516626480453     -4.96533927121989
  H          28.16284607653245    -20.85271261449637     -2.71539611275747
  H          24.47463900372980    -18.80675268237267     -3.46121054723902
  H          24.34070670278476    -19.84898871774074     -5.68784138572659
  H          24.65599992065545    -18.05007623112705     -1.08147714029280
  H          24.30422803857153    -19.75922953175967     -1.41118888256703
  H          24.13346337349489    -19.08671011395498      1.01759491284904
  H          25.21385712579444    -20.45418029558684      0.72603984667009
  H          27.37200221414831    -17.70703009286223      4.79277342560976
  H          25.89258282093432    -17.97683464483840      5.66662998389926
  H          28.66609127721933    -16.04438309897355     -0.97009241163308
  H          30.78412983652600    -14.82752923435327     -1.42273776701476
  H          32.53826342591352    -16.59518648934700      2.08112714544686
  H          30.44202056940394    -17.81185555319081      2.50687779422475
  H          33.73598039333814    -14.55294764752022      1.85453010844613
  H          34.39872684639167    -15.95247397166676      0.94443677343871
  H          34.76581119219995    -14.29766140964022      0.40727001654486
  C          23.52807846764465    -22.81444128768382     -3.09595810323552
  H          24.04066021456802    -22.63293767633154     -4.04697220511598
  Cl         24.73554793572475    -22.80230396936764     -1.76368485373257
  Cl         22.71585369627197    -24.39432091578287     -3.18290982495067
  Cl         22.32114851211317    -21.50687022813384     -2.85141444813666
  C          23.82886640490997    -22.65224316267961      7.93496089656413
  H          23.84605263723546    -22.80210919230670      9.01308980606272
  Cl         25.45100453932720    -23.09058046676253      7.30643311965273
  Cl         23.47676161872101    -20.93434718537101      7.61819566973093
  Cl         22.57106595048590    -23.71142195226741      7.24477882150353
  C          22.91141661937425    -21.07173166812462      3.12428473045858
  H          23.52424735878126    -20.18280190365296      2.96723186756675
  Cl         22.31782503850249    -21.66555020237990      1.54140121361375
  Cl         21.54798645986256    -20.59467724670904      4.18439028066576
  Cl         23.93940682803879    -22.29992981039931      3.92082691047199
  C          30.17865652381184    -28.50948547419438     -2.15582962414906
  H          31.03331746809249    -28.88582678190457     -2.71684844047485
  Cl         30.07091983378724    -29.43016871792077     -0.62971199752197
  Cl         28.71530244135081    -28.74115183852630     -3.15192500344681
  Cl         30.45733164719271    -26.77294832541974     -1.83204841695635
  C          29.11603738435184    -14.91246143929608      3.89137760237603
  H          28.81321127250454    -15.70871928414664      3.20952242584971
  Cl         29.77167928893977    -13.55592083973682      2.94588952023909
  Cl         30.37145396480893    -15.59271327751110      4.98542426678230
  Cl         27.67810564028973    -14.41620884735234      4.82822852498829
  C          22.24209482002764    -16.46598080774774      1.87608019133484
  H          22.48794440057427    -16.67452903598124      2.91766951296378
  Cl         21.03880750997553    -15.15057070169113      1.83982578826146
  Cl         21.58332542956933    -17.95807782829149      1.14766757976174
  Cl         23.75341854223250    -15.96331236370322      1.05496845859079
  C          22.92926405900561    -17.04209341077493      5.79211865743727
  H          23.18642182346342    -17.80153546714489      5.04551466146573
  Cl         21.16239439414460    -16.99415343719359      6.00280792770260
  Cl         23.54777354235393    -15.46963424409432      5.19062590100349
  Cl         23.75398886805387    -17.48020348371899      7.32435214304275
  C          30.47078068632606    -25.98473477153925     -7.43663442909291
  H          30.53840360322296    -25.60446167852826     -6.41704445244984
  Cl         29.85758701128919    -27.65711016504612     -7.36737271321383
  Cl         32.10171363696389    -25.92577950744893     -8.16081840551505
  Cl         29.33975635704687    -24.92704138802623     -8.33798924637126
  C          27.79406743928238    -18.20606030492992      8.83721479074215
  H          28.54647795177523    -18.56459203373304      9.54229277765437
  Cl         26.95023331394708    -19.62682689358968      8.15698067215066
  Cl         28.63850517392471    -17.28586650786036      7.55103753142393
  Cl         26.65485624096544    -17.15336824670566      9.72704787974093
  C          36.44633283138312    -18.23817378216563      0.26476900575192
  H          37.12386218493467    -19.05800176464682      0.02216400934542
  Cl         35.18593545317958    -18.17224215318747     -0.98901647525771
  Cl         37.39968323731548    -16.72710600964566      0.29685342481629
  Cl         35.73132781776599    -18.57135567308286      1.87069133746828
