9
Coordinates from ORCA-job Monomer_XTB2_SMD E -11.399462738910
  C          -0.15569287848686      0.07038811662368      0.00285888928460
  C           1.35577650138691     -0.07266497458495      0.10788864179048
  O           1.95786824669423      1.10809881979048     -0.38897556674417
  H           2.91701128189386      1.02793101470803     -0.32878569657824
  H           1.64246644852005     -0.23085303101191      1.15775541745351
  H           1.68862451665369     -0.94236677896771     -0.47715918563711
  H          -0.48445943718472      0.92930133821860      0.58208236881752
  H          -0.64071843261388     -0.82557469960677      0.37921670539093
  H          -0.43887624686327      0.22574019483055     -1.03488157377753
