22
Coordinates from ORCA-job Phenanthroline_C2v_r2SCAN3c_Opt E -571.498779394605
  C       0.000000      3.470990      0.348120
  C       0.000000      2.699560      1.523050
  N       0.000000      1.378530      1.540430
  C       0.000000      0.726370      0.359540
  C       0.000000      1.410800     -0.887500
  C       0.000000      2.818040     -0.861810
  C       0.000000      0.678960     -2.114330
  C       0.000000     -0.678960     -2.114330
  C       0.000000     -1.410800     -0.887500
  C       0.000000     -2.818040     -0.861810
  C       0.000000     -3.470990      0.348120
  C       0.000000     -2.699560      1.523050
  N       0.000000     -1.378530      1.540430
  C       0.000000     -0.726370      0.359540
  H       0.000000      4.555240      0.405670
  H       0.000000      3.193360      2.495440
  H       0.000000      3.369300     -1.799220
  H       0.000000      1.233040     -3.049950
  H       0.000000     -1.233040     -3.049950
  H       0.000000     -3.369300     -1.799220
  H       0.000000     -4.555240      0.405670
  H       0.000000     -3.193360      2.495440
22
Coordinates from ORCA-job Phenanthroline_C2v_r2SCAN3c_Opt E -571.498873840735
  C       0.000000      3.475151      0.345594
  C       0.000000      2.708581      1.522160
  N      -0.000000      1.384413      1.541828
  C       0.000000      0.726424      0.360677
  C      -0.000000      1.410564     -0.886066
  C      -0.000000      2.818750     -0.862965
  C       0.000000      0.679188     -2.113208
  C       0.000000     -0.679188     -2.113208
  C       0.000000     -1.410564     -0.886066
  C       0.000000     -2.818750     -0.862965
  C       0.000000     -3.475151      0.345594
  C       0.000000     -2.708581      1.522160
  N       0.000000     -1.384413      1.541828
  C       0.000000     -0.726424      0.360677
  H       0.000000      4.559489      0.400803
  H       0.000000      3.206977      2.491970
  H       0.000000      3.367727     -1.801655
  H       0.000000      1.234273     -3.048187
  H      -0.000000     -1.234273     -3.048187
  H       0.000000     -3.367727     -1.801655
  H       0.000000     -4.559489      0.400803
  H       0.000000     -3.206977      2.491970
22
Coordinates from ORCA-job Phenanthroline_C2v_r2SCAN3c_Opt E -571.498882823532
  C       0.000000      3.475158      0.344668
  C      -0.000000      2.710390      1.521733
  N       0.000000      1.385292      1.542590
  C       0.000000      0.725865      0.361183
  C      -0.000000      1.409836     -0.885344
  C      -0.000000      2.818073     -0.863527
  C       0.000000      0.679246     -2.113138
  C       0.000000     -0.679246     -2.113138
  C       0.000000     -1.409836     -0.885344
  C       0.000000     -2.818073     -0.863527
  C      -0.000000     -3.475158      0.344668
  C       0.000000     -2.710390      1.521733
  N       0.000000     -1.385292      1.542590
  C       0.000000     -0.725865      0.361183
  H      -0.000000      4.559574      0.399574
  H       0.000000      3.210569      2.490359
  H       0.000000      3.366072     -1.802715
  H       0.000000      1.235348     -3.047484
  H       0.000000     -1.235348     -3.047484
  H       0.000000     -3.366072     -1.802715
  H       0.000000     -4.559574      0.399574
  H       0.000000     -3.210569      2.490359
22
Coordinates from ORCA-job Phenanthroline_C2v_r2SCAN3c_Opt E -571.498883969367
  C      -0.000000      3.474775      0.344315
  C       0.000000      2.710417      1.521515
  N       0.000000      1.385270      1.542949
  C       0.000000      0.725624      0.361463
  C      -0.000000      1.409491     -0.885042
  C       0.000000      2.817702     -0.863836
  C      -0.000000      0.679252     -2.113195
  C       0.000000     -0.679252     -2.113195
  C       0.000000     -1.409491     -0.885042
  C       0.000000     -2.817702     -0.863836
  C       0.000000     -3.474775      0.344315
  C       0.000000     -2.710417      1.521515
  N       0.000000     -1.385270      1.542949
  C       0.000000     -0.725624      0.361463
  H       0.000000      4.559204      0.399464
  H       0.000000      3.211147      2.489830
  H      -0.000000      3.365297     -1.803234
  H       0.000000      1.235997     -3.047133
  H       0.000000     -1.235997     -3.047133
  H       0.000000     -3.365297     -1.803234
  H       0.000000     -4.559204      0.399464
  H      -0.000000     -3.211147      2.489830
