22
Coordinates from ORCA-job Phenanthroline_C2v_r2SCAN3c_Opt E -571.498883969367
  C          -0.00000000000000      3.47477546883077      0.34431516657885
  C           0.00000000000000      2.71041661867982      1.52151477670189
  N           0.00000000000000      1.38527025106543      1.54294913073165
  C           0.00000000000000      0.72562350514483      0.36146347595905
  C          -0.00000000000000      1.40949093128089     -0.88504160405189
  C           0.00000000000000      2.81770249892192     -0.86383597802447
  C          -0.00000000000000      0.67925157773260     -2.11319454090558
  C           0.00000000000000     -0.67925157773260     -2.11319454090558
  C           0.00000000000000     -1.40949093128089     -0.88504160405189
  C           0.00000000000000     -2.81770249892192     -0.86383597802447
  C           0.00000000000000     -3.47477546883077      0.34431516657885
  C           0.00000000000000     -2.71041661867982      1.52151477670189
  N           0.00000000000000     -1.38527025106543      1.54294913073165
  C           0.00000000000000     -0.72562350514483      0.36146347595905
  H           0.00000000000000      4.55920436904704      0.39946412864671
  H           0.00000000000000      3.21114732646967      2.48982981653014
  H          -0.00000000000000      3.36529683249667     -1.80323370048653
  H           0.00000000000000      1.23599654062249     -3.04713312515788
  H           0.00000000000000     -1.23599654062249     -3.04713312515788
  H           0.00000000000000     -3.36529683249667     -1.80323370048653
  H           0.00000000000000     -4.55920436904704      0.39946412864671
  H          -0.00000000000000     -3.21114732646967      2.48982981653014
