10
Coordinates from ORCA-job DMSOGasXTB2Opt E -14.616465686760
  C      19.564183    -20.481124      1.064957
  S      20.423418    -21.070636      2.571075
  C      19.980240    -19.640235      3.625456
  O      21.924190    -20.956426      2.289455
  H      19.772500    -21.201232      0.268516
  H      18.486495    -20.441393      1.254632
  H      19.949444    -19.492380      0.796246
  H      20.330039    -18.719846      3.147151
  H      18.894753    -19.617339      3.767869
  H      20.476107    -19.781180      4.590093
10
Coordinates from ORCA-job DMSOGasXTB2Opt E -14.619912584300
  C      19.568135    -20.480389      1.068732
  S      20.426308    -21.085664      2.575537
  C      19.983050    -19.642217      3.621099
  O      21.889960    -20.940432      2.289808
  H      19.772009    -21.188165      0.271486
  H      18.501061    -20.440609      1.261363
  H      19.950668    -19.500222      0.801751
  H      20.329656    -18.729403      3.146780
  H      18.906888    -19.622469      3.758337
  H      20.473633    -19.772219      4.580556
10
Coordinates from ORCA-job DMSOGasXTB2Opt E -14.621103576120
  C      19.570268    -20.480813      1.066324
  S      20.439143    -21.093956      2.576148
  C      19.985730    -19.641497      3.622667
  O      21.860650    -20.933586      2.292468
  H      19.769929    -21.183629      0.265981
  H      18.507168    -20.441186      1.267133
  H      19.951934    -19.504999      0.795174
  H      20.332228    -18.729633      3.153860
  H      18.911025    -19.627655      3.753154
  H      20.473296    -19.764835      4.582540
10
Coordinates from ORCA-job DMSOGasXTB2Opt E -14.621165988730
  C      19.568844    -20.480620      1.065654
  S      20.443681    -21.091590      2.574636
  C      19.984456    -19.640814      3.623448
  O      21.870018    -20.937812      2.292332
  H      19.766050    -21.186115      0.265476
  H      18.505205    -20.439599      1.269662
  H      19.951798    -19.504248      0.792126
  H      20.333151    -18.727281      3.155901
  H      18.908195    -19.627520      3.750790
  H      20.469971    -19.766190      4.585424
10
Coordinates from ORCA-job DMSOGasXTB2Opt E -14.621176984440
  C      19.568128    -20.480129      1.066245
  S      20.448538    -21.091547      2.573838
  C      19.983528    -19.640663      3.622889
  O      21.874751    -20.939196      2.292003
  H      19.761943    -21.186803      0.265774
  H      18.505253    -20.437553      1.274558
  H      19.952354    -19.504132      0.791154
  H      20.334332    -18.726706      3.156549
  H      18.906611    -19.628477      3.745655
  H      20.465934    -19.766585      4.586787
10
Coordinates from ORCA-job DMSOGasXTB2Opt E -14.621179020810
  C      19.567888    -20.479844      1.066959
  S      20.451127    -21.091928      2.573551
  C      19.983097    -19.640775      3.622215
  O      21.876899    -20.938484      2.291397
  H      19.759041    -21.187042      0.266354
  H      18.505870    -20.435991      1.278382
  H      19.953094    -19.504511      0.791135
  H      20.335548    -18.727096      3.156712
  H      18.905968    -19.629174      3.741364
  H      20.462839    -19.766945      4.587382
10
Coordinates from ORCA-job DMSOGasXTB2Opt E -14.621179570180
  C      19.567810    -20.479828      1.067268
  S      20.452339    -21.092024      2.573393
  C      19.982982    -19.640885      3.621962
  O      21.877818    -20.937133      2.290785
  H      19.757136    -21.187436      0.266709
  H      18.506342    -20.435041      1.280679
  H      19.953739    -19.505064      0.790937
  H      20.336751    -18.727520      3.157132
  H      18.905696    -19.629447      3.738618
  H      20.460756    -19.767412      4.587967
