208
Coordinates from ORCA-job Dienogest_10NMP_XTB E -289.890288455800
  C         -11.43584583360830      3.69463107697608      5.08712874730081
  C         -11.69128986686446      2.46983504918864      5.93002626441503
  C         -10.96192860509299      3.34142747405339      3.71293371412027
  C         -11.63080042725093      4.94636889046703      5.54611011321626
  C         -10.68455890443935      1.36677223782808      5.54456115472425
  C         -11.76383940112369      2.81552567101883      7.41641226166985
  C          -9.56208113283015      2.69378959609823      3.73523594074911
  C         -12.18639230121300      5.18149550019176      6.86498539570367
  C         -11.35935749531348      6.19121207436064      4.73845572047088
  C          -9.33407652787224      1.90272649596996      5.03016510213527
  C         -12.72258798062562      3.98806517590442      7.59540560634553
  C         -12.25567086438149      6.41590850182874      7.40612592919166
  C         -10.77353323088002      7.29856854214568      5.60915842874565
  C         -11.65983404768965      7.59436462169415      6.80214716243756
  O         -11.80791522781796      8.71777188280059      7.24305354117609
  H         -12.69077431054243      2.10080504564013      5.65290158391076
  C          -8.65163872998305      2.83049294530773      6.04190782154667
  C         -10.30012228574495      0.35973588332616      6.62525754438189
  C          -9.03152095380172     -0.30003776186320      6.07320461677980
  C          -8.48820499038544      0.59162796534536      4.91930752545952
  O          -7.12083144752938      0.87961557601384      5.07563519745885
  H         -11.11993621262690      0.79984945119188      4.71635254093160
  C          -8.68517438765702     -0.18538380648965      3.58658886341019
  C          -8.03020839921881      0.41121696878974      2.45527685040437
  N          -7.51479868515350      0.84777302102319      1.53038280923630
  H         -10.95687464995006      4.19841618335156      3.04205627496304
  H         -11.66975887832161      2.61506474423779      3.30734281669860
  H         -10.78306403438832      3.10055523634482      7.79543925723813
  H         -12.11871453146982      1.95311240320168      7.98200150177589
  H          -8.79704034645537      3.46589366120292      3.64765939294407
  H          -9.47783456425250      2.05762218391436      2.85739556267605
  H         -12.30331568718932      6.54277309503141      4.30693123403402
  H         -10.66981236902074      5.98688823309800      3.92024535945117
  H         -12.86024293392111      4.22256761543816      8.65212365336867
  H         -13.70057431530036      3.72193453498577      7.17965323043664
  H         -12.74636086327471      6.56805364511243      8.35769857360666
  H         -10.62378617585493      8.21227981242209      5.03198807134564
  H          -9.80075481211065      6.98364348205539      6.00020141520843
  H          -8.53596481655021      2.34934930082436      7.00803462235427
  H          -9.22428197658514      3.74581936208323      6.16153033250162
  H          -7.66120262733049      3.08625619628619      5.67416450332978
  H         -10.08297303482416      0.85978290234692      7.56678019159260
  H         -11.08858686832576     -0.36558482202585      6.81091060033296
  H          -9.24498642827148     -1.30425509861958      5.70909573968049
  H          -8.26494983688232     -0.39367346039934      6.84088625573811
  H          -6.66168067497457      0.06093370263710      5.34606601444493
  H          -8.24320623257428     -1.17913130179527      3.71775223451572
  H          -9.74680868893902     -0.29512119957748      3.35462242400845
  N          -9.50253333284496     -2.58774900240567     10.56959542348989
  C          -8.42958919003984     -3.39016370064251     10.52655546307876
  C          -8.66043300313720     -4.53050207200646     11.49620989071476
  C          -9.79951094794514     -4.02911510697127     12.38081680492713
  C         -10.54104820980409     -3.06087438896231     11.45640645902513
  O          -7.45083427703417     -3.22479762622157      9.81364192514631
  C          -9.73173468436732     -1.47748050977673      9.68661884851655
  H          -9.84668712599510     -0.55434790122434     10.26045427736035
  H         -10.63291229218241     -1.63995714078485      9.09098068011933
  H          -8.87096646366075     -1.38973666734798      9.02575417082812
  H          -8.98938350651830     -5.39089950824347     10.90908754100968
  H          -7.75458742259700     -4.79455017051850     12.03844675356344
  H         -10.44170302389300     -4.83456236449405     12.72942283533078
  H          -9.40327910944024     -3.49504908860637     13.24691929944931
  H         -11.31833752418816     -3.57771340641663     10.88009067189031
  H         -10.99862808558187     -2.22266558873446     11.98817796781172
  N          -7.65298609588131     -3.75837441042466    -10.48712557186608
  C          -6.70835660134700     -3.67234077164310    -11.44794453252724
  C          -7.42622557132771     -3.47716187458255    -12.77662419263667
  C          -8.85231914527269     -3.09799447937884    -12.38100242263562
  C          -9.00783534123280     -3.69549302688090    -10.97805375356615
  O          -5.51422047305458     -3.74983825971163    -11.26701001876433
  C          -7.36740938101382     -4.03279100153946     -9.10765904496214
  H          -6.28480454953769     -4.05418456281247     -8.99282409076311
  H          -7.78213653514060     -4.99974758478942     -8.80986479721346
  H          -7.78623286972901     -3.25225540291488     -8.46815595331704
  H          -6.92479900175945     -2.72517829942812    -13.38213621283670
  H          -7.39211115333139     -4.42466000973320    -13.31894188433457
  H          -8.94860651301025     -2.01289284608605    -12.33298431853531
  H          -9.59970795997419     -3.47940589121857    -13.07364993506129
  H          -9.62406207682799     -3.07491674192606    -10.32131871345371
  H          -9.44875256447162     -4.70149474995341    -11.01111112374397
  N          -6.84006623700968     -5.70411947377594      6.87079281290375
  C          -7.72149882674041     -6.69235539338249      6.68052371847223
  C          -7.71076147848896     -7.57397954648660      7.91437425595441
  C          -6.42361991165780     -7.18364558966449      8.63765493613948
  C          -6.16638597963218     -5.75518528264777      8.15037818470212
  O          -8.41137868481277     -6.84491347762447      5.68162785789250
  C          -6.60923947835777     -4.61445908239069      5.96385072930102
  H          -7.27321529226966     -4.73163891577122      5.10926453108830
  H          -5.57511883210095     -4.62345852199074      5.61233114523303
  H          -6.80166806740403     -3.65533299842827      6.44921541766553
  H          -8.58468717140821     -7.32028720940120      8.51586243463764
  H          -7.77295461523261     -8.62934581992773      7.65603386337097
  H          -6.52375735799626     -7.23333285018956      9.71920366508311
  H          -5.60367824422541     -7.83814982894364      8.33773541470143
  H          -6.59498386269677     -5.00578077279472      8.82650370826025
  H          -5.10215567514663     -5.54111718212954      8.02234163963097
  N         -13.66064343128729      1.06153313020123      2.09595205036420
  C         -12.43806514182155      0.57476613015756      1.86114860262146
  C         -12.04025590033293      0.95485353176285      0.44903812556883
  C         -13.36607164237203      1.32470988397028     -0.21533601957439
  C         -14.27236003615845      1.71094374604095      0.96075121551119
  O         -11.76105505240590     -0.04672275918881      2.66622402381312
  C         -14.37373024670218      0.92813951902438      3.33543964540579
  H         -13.74269338555597      0.38202868070437      4.03466607206398
  H         -15.30130611318834      0.37921919219113      3.16167867838856
  H         -14.60816195615787      1.91441234520505      3.74460024046547
  H         -11.36062661469741      1.80795223290308      0.51034576810038
  H         -11.51029159710579      0.14328059666746     -0.04515841705279
  H         -13.26313034103272      2.13411077498159     -0.93446222194648
  H         -13.78284587799097      0.45730519990924     -0.72723821396817
  H         -14.29990708523609      2.79658404588821      1.11889090350796
  H         -15.29216912797887      1.34029666064224      0.83842069831708
  N         -15.03705757382937     -3.10865655173708      1.18514408593338
  C         -16.06503296755076     -2.27542354821344      1.39646783812019
  C         -17.32500402202701     -3.11786653620439      1.53249183588700
  C         -16.79872822461400     -4.53213679973520      1.77391754972147
  C         -15.40096833256917     -4.50677838525630      1.14776823580199
  O         -15.99809545638071     -1.06126824686565      1.46570965454626
  C         -13.67195799424310     -2.70819192122778      0.98869766011384
  H         -13.38449806125608     -2.79537618209331     -0.06344898070891
  H         -13.02457603410505     -3.34741047953490      1.58957669086559
  H         -13.56293165328120     -1.67356672889180      1.30309066414955
  H         -17.95889150156686     -2.74340109872009      2.33362188439138
  H         -17.88500149591049     -3.04520674242445      0.59789406086982
  H         -16.72276365506815     -4.72197862686511      2.84497585623886
  H         -17.43410013663127     -5.29712850450056      1.33406901576015
  H         -14.66518897610557     -5.08955713010695      1.70631264672906
  H         -15.41697309405979     -4.86464915610252      0.10939554654984
  N          -5.11365035668627     -0.03266244599140      8.25549647380348
  C          -5.32588338108413     -1.14559856364997      7.53804208184000
  C          -4.73300283011852     -2.31198808329201      8.29969185990727
  C          -3.80676501205329     -1.65758000150849      9.32060921855078
  C          -4.43063610661526     -0.27331216083824      9.50806494171513
  O          -5.91061083805885     -1.21239648208929      6.46749565742901
  C          -5.59156171012062      1.28763674377169      7.94625746452361
  H          -6.06143518864552      1.28582747058728      6.96483439393238
  H          -4.75650446241788      1.99232629855874      7.94087938959489
  H          -6.31799556200876      1.61212664080289      8.69707501769514
  H          -5.55893645703925     -2.83057871467669      8.79049182027880
  H          -4.23190888377741     -3.00620045027391      7.62911834697146
  H          -3.75208286567218     -2.21309898346374     10.25398064781293
  H          -2.79940853729445     -1.56167615746923      8.91195034860943
  H          -5.15232694269009     -0.26836101359480     10.33546259280724
  H          -3.68816178108281      0.50847157944565      9.69085296946518
  N          -4.46107504637896     -9.53496038677506      3.36034182351806
  C          -4.06282967974047     -9.22515440244899      4.61252571758824
  C          -4.99409780806525     -8.14197737668193      5.13305895025650
  C          -5.72126908178428     -7.63611339894955      3.88893928654162
  C          -5.62866043642281     -8.81388158896509      2.91356651537248
  O          -3.13811033595605     -9.73854395146752      5.20316911927050
  C          -3.87895815148127    -10.58571095588561      2.57596854052968
  H          -3.03668144387720    -10.98694623812909      3.13762125134158
  H          -3.52606609817376    -10.19960728574885      1.61635858510634
  H          -4.60536016545958    -11.38273731295272      2.39231583770996
  H          -5.68695636632746     -8.60584976915901      5.83749896088904
  H          -4.43736139305215     -7.37045955327583      5.66025962656148
  H          -6.75036884962282     -7.35691113513688      4.09717104228198
  H          -5.20152446823859     -6.77138400456337      3.47572917064000
  H          -6.51812099832093     -9.45682215978826      2.96885226175772
  H          -5.50387459213832     -8.49282385503296      1.87564732923359
  N         -10.84330580464639     -5.48405475187406      7.36374301645187
  C         -10.96190775454995     -6.35211722558037      8.37356153241648
  C         -11.86847888050141     -7.48498145340612      7.91272630333556
  C         -11.85201307895508     -7.35045268999445      6.39223240994149
  C         -11.56636002666148     -5.86267438485005      6.17391174764891
  O         -10.43185973399913     -6.25410974540455      9.46709858383891
  C         -10.08998553317292     -4.26201830797177      7.41806560460029
  H          -9.47081940567249     -4.27977115122119      8.31159263489657
  H         -10.75902604241018     -3.39830987631193      7.45604551515892
  H          -9.44964554389226     -4.18841250042984      6.53847799707090
  H         -11.51108812378493     -8.44638936917048      8.27545652032482
  H         -12.86490581545860     -7.31194497787940      8.32738108108189
  H         -11.02626465120361     -7.93255759069372      5.98222859656116
  H         -12.78254252688347     -7.66804561820288      5.92525838140213
  H         -10.94720061841351     -5.68728510853778      5.29304480579941
  H         -12.48748475292183     -5.27481032164281      6.08115265936438
  N         -13.41936878920120     -2.44668126013807      5.36306725611541
  C         -13.48238380187240     -2.24939268782225      6.68495473237236
  C         -14.94388205137666     -2.32055494930571      7.10197061978006
  C         -15.71601993895864     -2.24658940659557      5.78473914019540
  C         -14.69422745288311     -2.69452520675267      4.73315897111006
  O         -12.53084238496390     -2.06348580472370      7.42452394152074
  C         -12.20463269597844     -2.56032030373475      4.60042161914083
  H         -11.36714025054811     -2.54795029204582      5.29415552420381
  H         -12.10489142659095     -1.72663707528748      3.90292238428556
  H         -12.21984050188080     -3.49731106070085      4.04203865358417
  H         -15.09929547030924     -3.27153916713115      7.61543441840106
  H         -15.18931696095665     -1.51992986302556      7.79708217493540
  H         -16.60539096410092     -2.87315293105960      5.78579165097501
  H         -16.02111886867174     -1.21843586051334      5.58834629367070
  H         -14.78592407756257     -3.76165647707764      4.49164543710253
  H         -14.77430011924615     -2.12769211865538      3.80382778064243
  N         -11.15054066507333     -7.12797652490019      2.62865697566273
  C         -11.47767658426802     -5.83047879654909      2.57716166725806
  C         -10.21173042762679     -5.03727389840608      2.30999885716721
  C          -9.09081839299888     -6.01931817761525      2.64359806094654
  C          -9.74071668090686     -7.39443435690736      2.45863609187420
  O         -12.60580283412732     -5.38167646616201      2.70488871736677
  C         -12.09643928876043     -8.19843416360934      2.76445546160227
  H         -12.12035812282680     -8.80844123596099      1.85743661293161
  H         -13.07922077860331     -7.75997274653048      2.92928900875151
  H         -11.83295586047086     -8.83456855344557      3.61135440395651
  H         -10.20873006298767     -4.75801473793682      1.25344108025019
  H         -10.18169665433363     -4.12048885194387      2.89587184883658
  H          -8.21435856397903     -5.89030871535499      2.01319834849259
  H          -8.79484151433727     -5.91543313441053      3.68741771343147
  H          -9.55308481124315     -7.81519709721980      1.46160297462797
  H          -9.39846480586461     -8.10662396828402      3.21292508957501
