148
Coordinates from ORCA-job Dienogest_10DMSO_XTB E -213.025259079990
  C          32.77453926400189    -14.45758878733533      1.90484061935193
  C          33.57667008931473    -15.73100389419894      1.77455316287391
  C          31.27077217666925    -14.46098508100261      1.85520724044550
  C          33.42923014938133    -13.27902968683224      2.06255990857173
  C          32.74705015894786    -16.94549997992181      1.32664920209448
  C          34.81551326809175    -15.44084193078846      0.91903486444655
  C          30.59576024238910    -15.78956199113130      1.50308451091219
  C          34.86450687175905    -13.18444135785919      1.99747231209736
  C          32.72640440903447    -11.94895862104677      2.17849755175279
  C          31.47280521851838    -16.59018874938477      0.54986251965952
  C          35.66185241727931    -14.39802211590907      1.63255362239772
  C          35.51482404552009    -12.01523655679881      2.23456834870561
  C          33.43146177314723    -11.01770952176242      3.15935283418958
  C          34.88968599721121    -10.85846529152868      2.80921829304821
  O          35.50710598381735     -9.83193443945373      3.08112925817030
  H          33.95498932386894    -15.96621060215054      2.77986273327203
  C          31.74189166366817    -15.78000143061026     -0.72139093615193
  C          33.41657001818443    -18.00640719470655      0.45326520923726
  C          32.23511401023035    -18.83548417292909     -0.06905175797929
  C          30.94067234714716    -17.99192606561187      0.13077378106099
  O          30.18990940564207    -17.89971347283243     -1.04825350149730
  H          32.42363194445285    -17.44431815265037      2.24496752174001
  C          30.08441236227748    -18.69660030181509      1.21957000133347
  C          28.80158062114441    -18.10406385630077      1.43326740487775
  N          27.75720687583948    -17.67462952502254      1.63366495272904
  H          30.97116492548994    -13.70964153062857      1.11981373020248
  H          30.87802511184898    -14.12785589133870      2.82056482772648
  H          34.51979229689843    -15.07549290157688     -0.06529898774910
  H          35.40287848602701    -16.34849891399313      0.78951928937148
  H          29.61910779871192    -15.58791334820953      1.06185309064864
  H          30.44314338775833    -16.36139252647693      2.41844157048032
  H          31.68844588433137    -12.06489020883384      2.48491096734632
  H          32.74211204787581    -11.47344838113945      1.19146366575081
  H          36.52482213888648    -14.10919239827890      1.03017083015351
  H          36.05329409159540    -14.83195425304470      2.55979457896771
  H          36.56885085205354    -11.93197446385245      2.02920718619403
  H          33.38432362796695    -11.41840496372639      4.17830966669576
  H          32.95572768053061    -10.03649527771927      3.16977538170515
  H          30.79315170392622    -15.52596507196164     -1.18667760390059
  H          32.31259386713180    -16.36294702299949     -1.43701561904340
  H          32.27985227145658    -14.86377056605206     -0.50065967319374
  H          33.94906188208093    -17.55109694997207     -0.37963376640297
  H          34.12045547356055    -18.61709150317754      1.01778754748617
  H          32.15581292828991    -19.78086308705361      0.46597479091172
  H          32.34431290292470    -19.06617445106237     -1.12869129338744
  H          29.96942429445437    -18.82710508132605     -1.31067989686319
  H          29.90697003810913    -19.72294866637904      0.87857164853430
  H          30.61577384400799    -18.71698027753267      2.17378358848236
  C          30.41409916913254    -23.15501104186829     -1.36795561003787
  S          29.46578870894092    -22.29623595183285     -0.05046040689179
  C          29.59219666917918    -23.71484106575991      1.12765514856010
  O          28.04227494030304    -22.35713923568454     -0.47203708579879
  H          29.91399034701754    -24.08002120900341     -1.63205753866576
  H          30.45963497231806    -22.48759692589412     -2.21962463128336
  H          31.41169531529572    -23.34751891172188     -0.99096350056276
  H          30.63205193721833    -23.83823354075096      1.40714260093571
  H          28.99581872980058    -23.47670315542321      2.00476235215160
  H          29.20872109952150    -24.61663491208364      0.66595613499599
  C          30.97659952790503    -17.95290243834412      6.70485060171003
  S          30.60276728576778    -17.32241187913910      5.03062357413531
  C          28.85271168623421    -17.88392126594728      5.02441486661762
  O          31.30422306800242    -18.21956374240574      4.08272537713373
  H          30.37695605632605    -17.39024738098886      7.41134335658509
  H          30.74539625523860    -19.01043875324589      6.75375896810874
  H          32.03134267081454    -17.77321382052561      6.89262029582328
  H          28.42412416873966    -17.68009019733979      4.04815662149723
  H          28.83250954044380    -18.94947496367382      5.23365128929790
  H          28.32214203433211    -17.32497708892544      5.78669954342634
  C          39.22797268643034    -12.54785818646176      3.03474933874249
  S          37.82038178088813    -13.11761653426528      4.08159435224665
  C          37.70970428003577    -11.57323967650657      5.08016215074378
  O          38.37234093247014    -14.14172346996992      4.97896408857469
  H          38.88689351209143    -11.73086494451082      2.40951355069664
  H          40.05297930401468    -12.24090018305254      3.66737870797742
  H          39.53600352533751    -13.38677785824962      2.41898346044244
  H          37.31237529216904    -10.78784627342958      4.44725246078492
  H          37.03368953476215    -11.77047254205900      5.90558988861913
  H          38.68768832508880    -11.31139874124790      5.46710996362849
  C          36.86105730199658     -7.66585223588750      1.78689217476206
  S          37.80764911155634     -9.17279234843219      2.21939464041415
  C          39.45947580920202     -8.32229897514106      2.08713367168290
  O          37.77602152505264    -10.04145124015925      1.02589094755336
  H          35.82012246706140     -7.95427261998414      1.70287647019068
  H          36.98314576470094     -6.95369629552887      2.59453171716821
  H          37.22346418941655     -7.25802361295479      0.85003447750178
  H          39.51448640148047     -7.54739985302187      2.84239484202010
  H          40.23074647844345     -9.06394095503600      2.26609136019689
  H          39.58570582738450     -7.90387699155182      1.09570917349640
  C          31.25207871332121    -21.35642833161265      4.00890257947397
  S          30.68893372040500    -21.57744740254345      5.73758110955320
  C          30.29465969289395    -23.36253891452749      5.58992666107507
  O          29.37432586396800    -20.89567613144644      5.81753837572414
  H          32.18903940207140    -21.88821731833837      3.89153593177732
  H          30.49075723538893    -21.72993098694399      3.33533049529934
  H          31.40752009681138    -20.29008009735923      3.86071226641402
  H          31.18284259852694    -23.89028090170480      5.26363869382391
  H          29.98382841461957    -23.72126119322649      6.56576181416493
  H          29.48006991825788    -23.46071170728729      4.87703905380360
  C          35.00831127974650    -14.34043710783657      5.52614044067133
  S          33.57281635563719    -15.49750591406015      5.43944249768085
  C          32.31285550172581    -14.15018977238096      5.56736789725247
  O          33.54203945692016    -16.18770397496517      6.73312326975883
  H          34.97845668750372    -13.81522401689788      6.47431047283104
  H          35.92669082493551    -14.91586729307403      5.46655314910451
  H          34.95094442897337    -13.65004404624616      4.69232255444965
  H          31.33618272013106    -14.61415810138094      5.65111074555707
  H          32.51005629064511    -13.54851123441985      6.44758571198643
  H          32.37052224934417    -13.55532000062035      4.66477163509833
  C          25.00308948139382    -22.28925419654581     -1.40116603286652
  S          25.38472714685956    -22.35323227111291     -3.19693075679719
  C          26.72754121008978    -23.59513218021354     -3.03662071484371
  O          26.05255091462838    -21.07657024643665     -3.51968500628098
  H          25.92538915510286    -22.18116847884153     -0.84041437665218
  H          24.35117887821955    -21.43994066126773     -1.22592210372226
  H          24.49497052095033    -23.21000771671673     -1.13827961079137
  H          26.26521379403706    -24.56286236507702     -2.87641265632890
  H          27.29448999775347    -23.59813440141226     -3.96099614499965
  H          27.35908197401970    -23.31848664917116     -2.19809419510799
  C          35.85013147779350     -8.96309979360325     -1.37348213879486
  S          35.30060107947624    -10.25963456498430     -0.17692119115434
  C          36.13879264072398    -11.63044770070081     -1.07088965999834
  O          33.86275203123845    -10.44670061975540     -0.44517244875379
  H          36.93173799809811     -8.93076940202892     -1.33707948637004
  H          35.49423466140707     -9.20897246092936     -2.36729372435342
  H          35.42760414093489     -8.01399742084600     -1.06013027188096
  H          35.93540754659379    -11.56335970126027     -2.13328400001454
  H          37.19668303924957    -11.54123198026474     -0.85944914673898
  H          35.74665767229671    -12.56097623890447     -0.67803029144913
  C          26.53073126822897    -20.88473422118484      4.96704060644028
  S          27.81035543102827    -21.16064620137987      3.68063003537885
  C          26.66567263570666    -20.87110148804952      2.26495263771233
  O          28.04027289083551    -22.62267020317167      3.64867341887050
  H          26.10867708771717    -19.89749791892158      4.81967048134608
  H          25.77352525702112    -21.65673300336264      4.88649913722485
  H          27.02825718442666    -20.94243049713185      5.92834952135212
  H          25.72332997095886    -21.38014579189161      2.43232992336724
  H          26.52133795601522    -19.80178151675683      2.15997908887902
  H          27.14167367322793    -21.27619468597334      1.37711296368906
  C          28.45127882517327    -19.43283454325454     -3.77941110891222
  S          28.19683272645896    -20.52116340909555     -2.33301326801169
  C          27.14351226530314    -19.34907722833483     -1.42153444499436
  O          29.53334160723210    -20.40711474846811     -1.63715792594799
  H          28.82780670695606    -18.47410639767351     -3.44332178322547
  H          29.17691549376173    -19.91197370498088     -4.42847712501136
  H          27.49991603367619    -19.34116104313324     -4.28520696812053
  H          26.89857165135142    -19.79598082613942     -0.46549846214954
  H          27.68925888390050    -18.42505012476025     -1.26872204968162
  H          26.24880923275698    -19.19325741546272     -2.00908064844419
