      -----------------------------------------------------------      
     |                   =====================                   |     
     |                           x T B                           |     
     |                   =====================                   |     
     |                         S. Grimme                         |     
     |          Mulliken Center for Theoretical Chemistry        |     
     |                    University of Bonn                     |     
      -----------------------------------------------------------      

   * xtb version 6.7.1pre (5071a88) compiled by 'Marcel@Raven' on 2024-07-23

   xtb is free software: you can redistribute it and/or modify it under
   the terms of the GNU Lesser General Public License as published by
   the Free Software Foundation, either version 3 of the License, or
   (at your option) any later version.
   
   xtb is distributed in the hope that it will be useful,
   but WITHOUT ANY WARRANTY; without even the implied warranty of
   MERCHANTABILITY or FITNESS FOR A PARTICULAR PURPOSE.  See the
   GNU Lesser General Public License for more details.
   
   Cite this work as:
   * C. Bannwarth, E. Caldeweyher, S. Ehlert, A. Hansen, P. Pracht,
     J. Seibert, S. Spicher, S. Grimme, WIREs Comput. Mol. Sci., 2020, 11,
     e01493. DOI: 10.1002/wcms.1493
   
   for GFN2-xTB:
   * C. Bannwarth, S. Ehlert and S. Grimme., J. Chem. Theory Comput., 2019,
     15, 1652-1671. DOI: 10.1021/acs.jctc.8b01176
   for GFN1-xTB:
   * S. Grimme, C. Bannwarth, P. Shushkov, J. Chem. Theory Comput., 2017,
     13, 1989-2009. DOI: 10.1021/acs.jctc.7b00118
   for GFN0-xTB:
   * P. Pracht, E. Caldeweyher, S. Ehlert, S. Grimme, ChemRxiv, 2019, preprint.
     DOI: 10.26434/chemrxiv.8326202.v1
   for GFN-FF:
   * S. Spicher and S. Grimme, Angew. Chem. Int. Ed., 2020, 59, 15665-15673.
     DOI: 10.1002/anie.202004239
   
   for ALPB and GBSA implicit solvation:
   * S. Ehlert, M. Stahn, S. Spicher, S. Grimme, J. Chem. Theory Comput.,
     2021, 17, 4250-4261. DOI: 10.1021/acs.jctc.1c00471
   
   for ddCOSMO and CPCM-X implicit solvation:
   * M. Stahn, S. Ehlert, S. Grimme, J. Phys. Chem. A,
     2023, XX, XXXX-XXXX. DOI: 10.1021/acs.jpca.3c04382
   
   for DFT-D4:
   * E. Caldeweyher, C. Bannwarth and S. Grimme, J. Chem. Phys., 2017,
     147, 034112. DOI: 10.1063/1.4993215
   * E. Caldeweyher, S. Ehlert, A. Hansen, H. Neugebauer, S. Spicher,
     C. Bannwarth and S. Grimme, J. Chem. Phys., 2019, 150, 154122.
     DOI: 10.1063/1.5090222
   * E. Caldeweyher, J.-M. Mewes, S. Ehlert and S. Grimme, Phys. Chem. Chem. Phys.
     2020, 22, 8499-8512. DOI: 10.1039/D0CP00502A
   
   for sTDA-xTB:
   * S. Grimme and C. Bannwarth, J. Chem. Phys., 2016, 145, 054103.
     DOI: 10.1063/1.4959605
   
   in the mass-spec context:
   * V. Asgeirsson, C. Bauer and S. Grimme, Chem. Sci., 2017, 8, 4879.
     DOI: 10.1039/c7sc00601b
   * J. Koopman and S. Grimme, ACS Omega 2019, 4, 12, 15120-15133.
     DOI: 10.1021/acsomega.9b02011
   
   for metadynamics refer to:
   * S. Grimme, J. Chem. Theory Comput., 2019, 155, 2847-2862
     DOI: 10.1021/acs.jctc.9b00143
   
   for SPH calculations refer to:
   * S. Spicher and S. Grimme, J. Chem. Theory Comput., 2021, 17, 1701-1714
     DOI: 10.1021/acs.jctc.0c01306
   
   for ONIOM refer to:
   * C. Plett, A. Katbashev, S. Ehlert, S. Grimme, M. Bursch,
     Phys. Chem. Chem. Phys., 2023, 25, 17860-17868. DOI: 10.1039/D3CP02178E
   
   for DIPRO refer to:
   * J. Kohn, N. Gildemeister, S. Grimme, D. Fazzi, A. Hansen,
     J. Chem. Phys., 2023, just accepted.
   
   for PTB refer to:
   * S. Grimme, M. Mueller, A. Hansen, J. Chem. Phys., 2023, 158, 124111.
     DOI: 10.1063/5.0137838
   
   with help from (in alphabetical order)
   P. Atkinson, C. Bannwarth, F. Bohle, G. Brandenburg, E. Caldeweyher
   M. Checinski, S. Dohm, S. Ehlert, S. Ehrlich, I. Gerasimov, C. Hölzer
   A. Katbashev, J. Kohn, J. Koopman, C. Lavigne, S. Lehtola, F. März, M. Müller,
   F. Musil, H. Neugebauer, J. Pisarek, C. Plett, P. Pracht, F. Pultar,
   J. Seibert, P. Shushkov, S. Spicher, M. Stahn, M. Steiner, T. Strunk,
   J. Stückrath, T. Rose, and J. Unsleber
   
 * started run on 2026/10/03 at 18:56:04.173     
   ID    Z sym.   atoms
    1    1 H      1, 3, 6, 11, 12, 17, 19, 22, 24, 26-30, 39, 40, 42, 43, 45,
                  46, 48, 49, 52, 56, 57, 61, 62, 64, 65, 67, 68, 71, 74, 76,
                  78, 81, 83, 84, 89, 90, 95, 98-100, 108-110, 114, 116, 117
    2    6 C      2, 4, 5, 7-10, 13-16, 18, 20, 21, 23, 25, 38, 41, 44, 47,
                  50, 51, 53-55, 60, 63, 66, 69, 70, 72, 73, 75, 77, 80, 82,
                  85-88, 91-94, 96, 97, 107, 112, 113, 115
    3    7 N      31-34, 58, 79, 101-104
    4    8 O      35-37, 59, 105, 106, 111, 118

           -------------------------------------------------
          |                Calculation Setup                |
           -------------------------------------------------

          program call               : C:\ORCA_6.1.1\xTB_bigstack\xtb.exe p_A_D5b.xyz -c 0 -u 0 -P 1 --acc 1.0 --namespace p_A_D5b
          calculation namespace      : p_A_D5b
          coordinate file            : p_A_D5b.xyz
          omp threads                :                     1


molecular fragmentation (1/2 indicates fragments):
111111111111111111111111111111111111111111111111111111111112222222222222
2222222222222222222222222222222222222222222222
# atoms in fragment 1/2:    59    59
 fragment masses (1/2) :      459.50      459.50
CMA distance (Bohr)    :  19.169
constraining FC (au)   :  0.0500

           -------------------------------------------------
          |                 G F N 2 - x T B                 |
           -------------------------------------------------

        Reference                      10.1021/acs.jctc.8b01176
      * Hamiltonian:
        H0-scaling (s, p, d)           1.850000    2.230000    2.230000
        zeta-weighting                 0.500000
      * Dispersion:
        s8                             2.700000
        a1                             0.520000
        a2                             5.000000
        s9                             5.000000
      * Repulsion:
        kExp                           1.500000    1.000000
        rExp                           1.000000
      * Coulomb:
        alpha                          2.000000
        third order                    shell-resolved
        anisotropic                    true
        a3                             3.000000
        a5                             4.000000
        cn-shift                       1.200000
        cn-exp                         4.000000
        max-rad                        5.000000


          ...................................................
          :                      SETUP                      :
          :.................................................:
          :  # basis functions                 322          :
          :  # atomic orbitals                 322          :
          :  # shells                          186          :
          :  # electrons                       348          :
          :  max. iterations                   250          :
          :  Hamiltonian                  GFN2-xTB          :
          :  restarted?                      false          :
          :  GBSA solvation                  false          :
          :  PC potential                    false          :
          :  electronic temp.          300.0000000     K    :
          :  accuracy                    1.0000000          :
          :  -> integral cutoff          0.2500000E+02      :
          :  -> integral neglect         0.1000000E-07      :
          :  -> SCF convergence          0.1000000E-05 Eh   :
          :  -> wf. convergence          0.1000000E-03 e    :
          :  Broyden damping             0.4000000          :
          :  net charge                          0          :
          :  unpaired electrons                  0          :
          ...................................................

 iter      E             dE          RMSdq      gap      omega  full diag
   1   -197.4574048 -0.197457E+03  0.413E+00    2.88       0.0  T
   2   -197.9812437 -0.523839E+00  0.242E+00    2.63       1.0  T
   3   -198.0307019 -0.494582E-01  0.129E+00    2.82       1.0  T
   4   -198.0375661 -0.686426E-02  0.437E-01    2.61       1.0  T
   5   -198.0532836 -0.157174E-01  0.930E-02    2.63       1.0  T
   6   -198.0535062 -0.222629E-03  0.533E-02    2.63       1.0  T
   7   -198.0536699 -0.163665E-03  0.221E-02    2.65       1.0  T
   8   -198.0536769 -0.701504E-05  0.832E-03    2.64       1.1  T
   9   -198.0536798 -0.292133E-05  0.365E-03    2.64       2.5  T
  10   -198.0536800 -0.202199E-06  0.144E-03    2.64       6.4  T
  11   -198.0536801 -0.116965E-06  0.530E-04    2.64      17.4  T
  12   -198.0536801 -0.860393E-08  0.253E-04    2.64      36.3  T

   *** convergence criteria satisfied after 12 iterations ***

         #    Occupation            Energy/Eh            Energy/eV
      -------------------------------------------------------------
         1        2.0000           -0.7267383             -19.7756
       ...           ...                  ...                  ...
       168        2.0000           -0.3862009             -10.5091
       169        2.0000           -0.3853699             -10.4864
       170        2.0000           -0.3833598             -10.4318
       171        2.0000           -0.3824111             -10.4059
       172        2.0000           -0.3808836             -10.3644
       173        2.0000           -0.3784391             -10.2979
       174        2.0000           -0.3694222             -10.0525 (HOMO)
       175                         -0.2722968              -7.4096 (LUMO)
       176                         -0.2615608              -7.1174
       177                         -0.2447410              -6.6597
       178                         -0.2368543              -6.4451
       179                         -0.2366965              -6.4408
       ...                                ...                  ...
       322                          0.8862534              24.1162
      -------------------------------------------------------------
                  HL-Gap            0.0971254 Eh            2.6429 eV
             Fermi-level           -0.3208595 Eh           -8.7310 eV

 SCC (total)                   0 d,  0 h,  0 min,  0.375 sec
 SCC setup                      ...        0 min,  0.001 sec (  0.267%)
 Dispersion                     ...        0 min,  0.003 sec (  0.800%)
 classical contributions        ...        0 min,  0.000 sec (  0.000%)
 integral evaluation            ...        0 min,  0.035 sec (  9.333%)
 iterations                     ...        0 min,  0.194 sec ( 51.733%)
 molecular gradient             ...        0 min,  0.140 sec ( 37.333%)
 printout                       ...        0 min,  0.002 sec (  0.533%)

         :::::::::::::::::::::::::::::::::::::::::::::::::::::
         ::                     SUMMARY                     ::
         :::::::::::::::::::::::::::::::::::::::::::::::::::::
         :: total energy            -193.671009889456 Eh    ::
         :: gradient norm              1.318777048756 Eh/a0 ::
         :: HOMO-LUMO gap              2.642917743950 eV    ::
         ::.................................................::
         :: SCC energy              -198.053830687367 Eh    ::
         :: -> isotropic ES            0.295972763096 Eh    ::
         :: -> anisotropic ES          0.003990289640 Eh    ::
         :: -> anisotropic XC          0.036939663239 Eh    ::
         :: -> dispersion             -0.148348514923 Eh    ::
         :: repulsion energy           4.382820797911 Eh    ::
         :: add. restraining           0.000000000000 Eh    ::
         :: total charge               0.000000000000 e     ::
         :::::::::::::::::::::::::::::::::::::::::::::::::::::

           -------------------------------------------------
          |                Property Printout                |
           -------------------------------------------------

    * Orbital Energies and Occupations

         #    Occupation            Energy/Eh            Energy/eV
      -------------------------------------------------------------
         1        2.0000           -0.7267383             -19.7756
       ...           ...                  ...                  ...
       162        2.0000           -0.4022133             -10.9448
       163        2.0000           -0.4011441             -10.9157
       164        2.0000           -0.3947330             -10.7412
       165        2.0000           -0.3921340             -10.6705
       166        2.0000           -0.3918298             -10.6622
       167        2.0000           -0.3862726             -10.5110
       168        2.0000           -0.3862009             -10.5091
       169        2.0000           -0.3853699             -10.4864
       170        2.0000           -0.3833598             -10.4318
       171        2.0000           -0.3824111             -10.4059
       172        2.0000           -0.3808836             -10.3644
       173        2.0000           -0.3784391             -10.2979
       174        2.0000           -0.3694222             -10.0525 (HOMO)
       175                         -0.2722968              -7.4096 (LUMO)
       176                         -0.2615608              -7.1174
       177                         -0.2447410              -6.6597
       178                         -0.2368543              -6.4451
       179                         -0.2366965              -6.4408
       180                         -0.2364955              -6.4354
       181                         -0.2330341              -6.3412
       182                         -0.2320465              -6.3143
       183                         -0.2260524              -6.1512
       184                         -0.2187684              -5.9530
       185                         -0.2179522              -5.9308
       ...                                ...                  ...
       322                          0.8862534              24.1162
      -------------------------------------------------------------
                  HL-Gap            0.0971254 Eh            2.6429 eV
             Fermi-level           -0.3208595 Eh           -8.7310 eV

     #   Z          covCN         q      C6AA      α(0)
     1   1 H        0.930     0.077     2.011     2.217
     2   6 C        2.936    -0.047    29.164     8.857
     3   1 H        0.930     0.072     2.068     2.248
     4   6 C        2.928     0.070    26.428     8.431
     5   6 C        3.764    -0.012    20.835     6.506
     6   1 H        0.930     0.056     2.240     2.340
     7   6 C        2.767     0.268    22.477     7.764
     8   6 C        3.096    -0.010    28.146     8.695
     9   6 C        3.070    -0.017    28.360     8.732
    10   6 C        3.821    -0.082    22.056     6.683
    11   1 H        0.930     0.077     2.012     2.218
    12   1 H        0.930     0.083     1.946     2.181
    13   6 C        3.172     0.025    27.074     8.500
    14   6 C        2.748     0.277    22.304     7.733
    15   6 C        2.920     0.042    27.048     8.529
    16   6 C        2.934    -0.040    28.997     8.831
    17   1 H        0.930     0.068     2.104     2.268
    18   6 C        2.932    -0.077    29.930     8.972
    19   1 H        0.930     0.094     1.838     2.120
    20   6 C        2.878     0.145    24.854     8.173
    21   6 C        2.936    -0.069    29.715     8.940
    22   1 H        0.930     0.075     2.028     2.227
    23   6 C        2.932    -0.049    29.208     8.863
    24   1 H        0.930     0.076     2.018     2.221
    25   6 C        3.664     0.010    20.679     6.522
    26   1 H        0.930     0.068     2.105     2.269
    27   1 H        0.930     0.064     2.150     2.293
    28   1 H        0.930     0.062     2.172     2.305
    29   1 H        0.862     0.205     1.081     1.629
    30   1 H        0.863     0.211     1.049     1.604
    31   7 N        2.745    -0.122    23.650     7.223
    32   7 N        3.019     0.090    19.686     6.590
    33   7 N        1.991    -0.242    27.119     7.723
    34   7 N        2.645    -0.284    27.338     7.765
    35   8 O        0.858    -0.440    22.501     6.360
    36   8 O        0.860    -0.451    22.730     6.392
    37   8 O        1.705    -0.283    18.699     5.838
    38   6 C        3.762    -0.011    20.819     6.504
    39   1 H        0.930     0.057     2.231     2.336
    40   1 H        0.930     0.061     2.189     2.314
    41   6 C        3.827    -0.083    22.059     6.683
    42   1 H        0.930     0.055     2.253     2.347
    43   1 H        0.930     0.058     2.227     2.334
    44   6 C        3.825    -0.080    22.001     6.675
    45   1 H        0.930     0.054     2.275     2.359
    46   1 H        0.930     0.050     2.316     2.380
    47   6 C        3.826    -0.108    22.537     6.755
    48   1 H        0.930     0.076     2.021     2.223
    49   1 H        0.930     0.076     2.018     2.221
    50   6 C        2.766     0.268    22.475     7.764
    51   6 C        2.935    -0.056    29.385     8.890
    52   1 H        0.930     0.065     2.138     2.286
    53   6 C        2.930     0.069    26.448     8.434
    54   6 C        2.938    -0.045    29.106     8.848
    55   6 C        2.935    -0.057    29.404     8.893
    56   1 H        0.930     0.069     2.092     2.262
    57   1 H        0.930     0.069     2.098     2.265
    58   7 N        2.739    -0.112    23.454     7.193
    59   8 O        0.859    -0.470    23.121     6.447
    60   6 C        3.762    -0.011    20.812     6.503
    61   1 H        0.930     0.057     2.230     2.335
    62   1 H        0.930     0.060     2.196     2.317
    63   6 C        3.827    -0.083    22.058     6.683
    64   1 H        0.930     0.055     2.255     2.348
    65   1 H        0.930     0.058     2.227     2.334
    66   6 C        3.825    -0.080    21.998     6.674
    67   1 H        0.930     0.053     2.283     2.363
    68   1 H        0.930     0.051     2.310     2.376
    69   6 C        2.766     0.268    22.473     7.764
    70   6 C        2.935    -0.056    29.381     8.890
    71   1 H        0.930     0.066     2.132     2.283
    72   6 C        2.930     0.070    26.437     8.432
    73   6 C        2.938    -0.042    29.043     8.838
    74   1 H        0.930     0.075     2.029     2.227
    75   6 C        2.936    -0.044    29.083     8.844
    76   1 H        0.930     0.072     2.062     2.246
    77   6 C        2.935    -0.057    29.410     8.894
    78   1 H        0.930     0.069     2.093     2.262
    79   7 N        2.739    -0.113    23.465     7.194
    80   6 C        2.928     0.070    26.444     8.433
    81   1 H        0.930     0.069     2.096     2.264
    82   6 C        3.764    -0.013    20.845     6.508
    83   1 H        0.930     0.059     2.208     2.324
    84   1 H        0.930     0.070     2.086     2.258
    85   6 C        2.767     0.269    22.466     7.763
    86   6 C        3.096    -0.008    28.112     8.690
    87   6 C        3.070    -0.016    28.339     8.729
    88   6 C        3.821    -0.083    22.064     6.685
    89   1 H        0.930     0.075     2.027     2.226
    90   1 H        0.930     0.082     1.956     2.187
    91   6 C        3.172     0.027    27.036     8.493
    92   6 C        2.748     0.280    22.260     7.725
    93   6 C        2.920     0.047    26.949     8.513
    94   6 C        2.934    -0.041    29.010     8.833
    95   1 H        0.930     0.071     2.075     2.252
    96   6 C        2.932    -0.078    29.942     8.974
    97   6 C        2.932    -0.046    29.144     8.854
    98   1 H        0.930     0.080     1.982     2.202
    99   1 H        0.862     0.206     1.078     1.626
   100   1 H        0.863     0.215     1.030     1.590
   101   7 N        2.745    -0.120    23.600     7.215
   102   7 N        3.019     0.089    19.691     6.591
   103   7 N        1.991    -0.239    27.041     7.712
   104   7 N        2.645    -0.281    27.264     7.755
   105   8 O        0.858    -0.443    22.569     6.369
   106   8 O        0.860    -0.457    22.852     6.409
   107   6 C        3.664     0.012    20.632     6.515
   108   1 H        0.930     0.073     2.053     2.241
   109   1 H        0.930     0.059     2.204     2.322
   110   1 H        0.930     0.057     2.229     2.335
   111   8 O        1.705    -0.282    18.674     5.835
   112   6 C        2.878     0.144    24.857     8.173
   113   6 C        2.936    -0.069    29.710     8.939
   114   1 H        0.930     0.076     2.024     2.225
   115   6 C        3.826    -0.107    22.517     6.752
   116   1 H        0.930     0.074     2.039     2.233
   117   1 H        0.930     0.077     2.014     2.219
   118   8 O        0.859    -0.467    23.071     6.440

 Mol. C6AA /au·bohr⁶  :     167525.163155
 Mol. C8AA /au·bohr⁸  :    4001133.401427
 Mol. α(0) /au        :        634.389808


Wiberg/Mayer (AO) data.
largest (>0.10) Wiberg bond orders for each atom

 ---------------------------------------------------------------------------
     #   Z sym  total        # sym  WBO       # sym  WBO       # sym  WBO
 ---------------------------------------------------------------------------
     1   1 H    0.994 --    54 C    0.972
     2   6 C    3.992 --    54 C    1.441     4 C    1.403     3 H    0.971
                            51 C    0.109
     3   1 H    0.995 --     2 C    0.971
     4   6 C    3.966 --     2 C    1.403    55 C    1.401    31 N    0.998
     5   6 C    3.968 --    10 C    0.998     6 H    0.975    57 H    0.974
                            31 N    0.961
     6   1 H    0.997 --     5 C    0.975
     7   6 C    3.957 --    35 O    1.659    31 N    1.197     8 C    1.011
     8   6 C    3.952 --     9 C    1.428    32 N    1.222     7 C    1.011
                            33 N    0.132
     9   6 C    3.980 --     8 C    1.428    13 C    1.324    10 C    1.012
    10   6 C    3.989 --     9 C    1.012     5 C    0.998    12 H    0.963
                            11 H    0.961
    11   1 H    0.994 --    10 C    0.961
    12   1 H    0.992 --    10 C    0.963
    13   6 C    3.968 --    33 N    1.423     9 C    1.324    14 C    1.001
    14   6 C    3.951 --    36 O    1.658    34 N    1.252    13 C    1.001
    15   6 C    3.953 --    16 C    1.399    23 C    1.371    32 N    1.003
    16   6 C    3.992 --    18 C    1.438    15 C    1.399    17 H    0.974
                            21 C    0.106
    17   1 H    0.995 --    16 C    0.974
    18   6 C    3.988 --    16 C    1.438    20 C    1.379    19 H    0.964
                            23 C    0.100
    19   1 H    0.991 --    18 C    0.964
    20   6 C    3.933 --    18 C    1.379    21 C    1.345    37 O    1.071
    21   6 C    3.991 --    23 C    1.475    20 C    1.345    22 H    0.973
                            16 C    0.106
    22   1 H    0.994 --    21 C    0.973
    23   6 C    3.990 --    21 C    1.475    15 C    1.371    24 H    0.973
                            18 C    0.100
    24   1 H    0.994 --    23 C    0.973
    25   6 C    3.935 --    26 H    0.980    27 H    0.980    28 H    0.980
                            37 O    0.966
    26   1 H    0.995 --    25 C    0.980
    27   1 H    0.996 --    25 C    0.980
    28   1 H    0.996 --    25 C    0.980
    29   1 H    0.958 --    34 N    0.942
    30   1 H    0.955 --    34 N    0.942
    31   7 N    3.467 --     7 C    1.197     4 C    0.998     5 C    0.961
                            35 O    0.187
    32   7 N    3.694 --    33 N    1.223     8 C    1.222    15 C    1.003
    33   7 N    2.966 --    13 C    1.423    32 N    1.223     8 C    0.132
    34   7 N    3.368 --    14 C    1.252    30 H    0.942    29 H    0.942
                            36 O    0.192
    35   8 O    2.004 --     7 C    1.659    31 N    0.187
    36   8 O    1.970 --    14 C    1.658    34 N    0.192
    37   8 O    2.205 --    20 C    1.071    25 C    0.966
    38   6 C    3.970 --    41 C    1.007    40 H    0.974    39 H    0.972
                            58 N    0.960
    39   1 H    0.997 --    38 C    0.972
    40   1 H    0.996 --    38 C    0.974
    41   6 C    3.992 --    38 C    1.007    44 C    1.006    42 H    0.978
                            43 H    0.971
    42   1 H    0.997 --    41 C    0.978
    43   1 H    0.996 --    41 C    0.971
    44   6 C    3.994 --    41 C    1.006    47 C    1.002    46 H    0.981
                            45 H    0.976
    45   1 H    0.997 --    44 C    0.976
    46   1 H    0.997 --    44 C    0.981
    47   6 C    3.990 --    44 C    1.002    50 C    0.977    49 H    0.964
                            48 H    0.953
    48   1 H    0.994 --    47 C    0.953
    49   1 H    0.994 --    47 C    0.964
    50   6 C    3.951 --    59 O    1.656    58 N    1.239    47 C    0.977
    51   6 C    3.994 --    55 C    1.442    53 C    1.405    52 H    0.974
                             2 C    0.109
    52   1 H    0.995 --    51 C    0.974
    53   6 C    3.968 --    51 C    1.405    54 C    1.405    58 N    0.991
    54   6 C    3.993 --     2 C    1.441    53 C    1.405     1 H    0.972
                            55 C    0.110
    55   6 C    3.993 --    51 C    1.442     4 C    1.401    56 H    0.974
                            54 C    0.110
    56   1 H    0.995 --    55 C    0.974
    57   1 H    0.995 --     5 C    0.974
    58   7 N    3.481 --    50 C    1.239    53 C    0.991    38 C    0.960
                            59 O    0.189
    59   8 O    1.966 --    50 C    1.656    58 N    0.189
    60   6 C    3.971 --    63 C    1.007    62 H    0.974    61 H    0.972
                            79 N    0.960
    61   1 H    0.997 --    60 C    0.972
    62   1 H    0.996 --    60 C    0.974
    63   6 C    3.992 --    60 C    1.007    66 C    1.006    64 H    0.979
                            65 H    0.971
    64   1 H    0.997 --    63 C    0.979
    65   1 H    0.996 --    63 C    0.971
    66   6 C    3.994 --    63 C    1.006   115 C    1.002    68 H    0.981
                            67 H    0.977
    67   1 H    0.997 --    66 C    0.977
    68   1 H    0.997 --    66 C    0.981
    69   6 C    3.951 --   118 O    1.658    79 N    1.237   115 C    0.976
    70   6 C    3.994 --    77 C    1.442    72 C    1.406    71 H    0.974
                            75 C    0.109
    71   1 H    0.995 --    70 C    0.974
    72   6 C    3.969 --    70 C    1.406    73 C    1.405    79 N    0.991
    73   6 C    3.993 --    75 C    1.441    72 C    1.405    74 H    0.973
                            77 C    0.110
    74   1 H    0.994 --    73 C    0.973
    75   6 C    3.992 --    73 C    1.441    80 C    1.404    76 H    0.973
                            70 C    0.109
    76   1 H    0.995 --    75 C    0.973
    77   6 C    3.993 --    70 C    1.442    80 C    1.402    81 H    0.974
                            73 C    0.110
    78   1 H    0.995 --    96 C    0.971
    79   7 N    3.480 --    69 C    1.237    72 C    0.991    60 C    0.960
                           118 O    0.189
    80   6 C    3.965 --    75 C    1.404    77 C    1.402   101 N    0.996
    81   1 H    0.995 --    77 C    0.974
    82   6 C    3.968 --    88 C    0.998    83 H    0.974    84 H    0.974
                           101 N    0.962
    83   1 H    0.996 --    82 C    0.974
    84   1 H    0.995 --    82 C    0.974
    85   6 C    3.957 --   105 O    1.655   101 N    1.202    86 C    1.011
    86   6 C    3.952 --    87 C    1.430   102 N    1.220    85 C    1.011
                           103 N    0.134
    87   6 C    3.980 --    86 C    1.430    91 C    1.322    88 C    1.012
    88   6 C    3.990 --    87 C    1.012    82 C    0.998    90 H    0.963
                            89 H    0.961
    89   1 H    0.994 --    88 C    0.961
    90   1 H    0.992 --    88 C    0.963
    91   6 C    3.968 --   103 N    1.426    87 C    1.322    92 C    1.001
    92   6 C    3.951 --   106 O    1.650   104 N    1.259    91 C    1.001
    93   6 C    3.956 --    94 C    1.402    97 C    1.372   102 N    1.005
    94   6 C    3.991 --    96 C    1.436    93 C    1.402    95 H    0.973
                           113 C    0.108
    95   1 H    0.995 --    94 C    0.973
    96   6 C    3.991 --    94 C    1.436   112 C    1.380    78 H    0.971
                            97 C    0.100
    97   6 C    3.990 --   113 C    1.476    93 C    1.372    98 H    0.972
                            96 C    0.100
    98   1 H    0.993 --    97 C    0.972
    99   1 H    0.957 --   104 N    0.940
   100   1 H    0.954 --   104 N    0.940
   101   7 N    3.472 --    85 C    1.202    80 C    0.996    82 C    0.962
                           105 O    0.189
   102   7 N    3.692 --   103 N    1.220    86 C    1.220    93 C    1.005
   103   7 N    2.967 --    91 C    1.426   102 N    1.220    86 C    0.134
   104   7 N    3.375 --    92 C    1.259    99 H    0.940   100 H    0.940
                           106 O    0.192
   105   8 O    2.001 --    85 C    1.655   101 N    0.189
   106   8 O    1.965 --    92 C    1.650   104 N    0.192
   107   6 C    3.936 --   109 H    0.981   110 H    0.981   108 H    0.979
                           111 O    0.967
   108   1 H    0.994 --   107 C    0.979
   109   1 H    0.996 --   107 C    0.981
   110   1 H    0.996 --   107 C    0.981
   111   8 O    2.206 --   112 C    1.070   107 C    0.967
   112   6 C    3.933 --    96 C    1.380   113 C    1.344   111 O    1.070
   113   6 C    3.991 --    97 C    1.476   112 C    1.344   114 H    0.971
                            94 C    0.108
   114   1 H    0.994 --   113 C    0.971
   115   6 C    3.990 --    66 C    1.002    69 C    0.976   117 H    0.964
                           116 H    0.954
   116   1 H    0.994 --   115 C    0.954
   117   1 H    0.994 --   115 C    0.964
   118   8 O    1.968 --    69 C    1.658    79 N    0.189
 ---------------------------------------------------------------------------

Topologies differ in total number of bonds
Writing topology from bond orders to xtbtopo.mol

molecular dipole:
                 x           y           z       tot (Debye)
 q only:        0.848      -0.103      -3.333
   full:        1.202      -0.098      -3.716       9.930
molecular quadrupole (traceless):
                xx          xy          yy          xz          yz          zz
 q only:      254.863      91.085     196.002    -124.395    -380.280    -450.865
  q+dip:      310.250     125.155     206.935    -115.982    -414.502    -517.185
   full:      313.305     125.153     203.019    -110.978    -414.499    -516.324


           -------------------------------------------------
          | TOTAL ENERGY             -193.671009889456 Eh   |
          | GRADIENT NORM               1.318777048756 Eh/α |
          | HOMO-LUMO GAP               2.642917743950 eV   |
           -------------------------------------------------

------------------------------------------------------------------------
 * finished run on 2026/10/03 at 18:56:04.615     
------------------------------------------------------------------------
 total:
 * wall-time:     0 d,  0 h,  0 min,  0.439 sec
 *  cpu-time:     0 d,  0 h,  0 min,  0.422 sec
 * ratio c/w:     0.961 speedup
 SCF:
 * wall-time:     0 d,  0 h,  0 min,  0.376 sec
 *  cpu-time:     0 d,  0 h,  0 min,  0.375 sec
 * ratio c/w:     0.997 speedup

normal termination of xtb
