24
Coordinates from ORCA-job 4Cluster_restart E -462.838266313224
  C          -1.07736450409782      1.72109663576002      1.34103999462886
  O          -0.27059014064596      1.50212777545949      0.17347880404420
  H          -0.48926697179329      1.41996658532912      2.21250669870224
  H          -1.33972021041836      2.78275379267872      1.44574443064127
  H          -1.99997326692480      1.12582898739790      1.31453007536713
  H          -0.84312009090684      1.67832798092762     -0.60614838133101
  H          -2.05563571288088     -1.11247169826920     -0.81866156202367
  C          -1.08278124593665     -1.43095467074578     -1.22028201596753
  O          -0.02944137630892     -1.25051422634428     -0.26838653680671
  H          -0.88569259954784     -0.88211326850545     -2.15292436001902
  H          -1.14054962592903     -2.49785561992151     -1.45775779098184
  H          -0.02205793602300     -0.29593672552357     -0.04134023845434
  H          -3.43093903979502      2.99312739978809     -0.69368914996828
  C          -2.80799782287855      3.16689595544466     -1.57966973885034
  O          -2.02846339642809      2.00241889983106     -1.91239384572516
  H          -2.10364116596748      3.97587067954896     -1.37026900709163
  H          -3.44891728464572      3.46033025374904     -2.42048588607805
  H          -2.63587389975013      1.25865726145638     -2.02194760112367
  H          -2.62792673698198     -3.10973722897381      3.00095623579400
  C          -2.26547476216405     -2.39679228975050      2.24746682294229
  O          -1.33045917823311     -1.46713223812697      2.81352486595795
  H          -3.11618285807817     -1.81713133478967      1.87860210758712
  H          -1.82618502131393     -2.95632879225795      1.41087901393699
  H          -0.55642515235017     -1.96907411416241      3.09838706481923
