24
Coordinates from ORCA-job 4Cluster E -462.837488428390
  C          -1.56832579763992      1.59544444185802      1.42817823655699
  O          -0.59816849420959      1.48498024250170      0.37536037730044
  H          -1.05819072204066      1.39637087366287      2.37403089674052
  H          -1.99270384239733      2.60744219960082      1.46623930013260
  H          -2.38716976820471      0.87264444512960      1.30679821601255
  H          -1.05424989050700      1.71259753202968     -0.46580321731455
  H          -2.32511055390134     -1.27458222675709     -0.61941573870794
  C          -1.39226987997469     -1.46806376605523     -1.16855564998528
  O          -0.23590384773698     -1.18846232739444     -0.37273195310758
  H          -1.40382477301756     -0.88177680926291     -2.09993608380607
  H          -1.36453267982364     -2.52889422246081     -1.43618988159249
  H          -0.30585949741789     -0.25295031517547     -0.08382790569953
  H          -3.17044720052897      3.54907243618960     -1.11660946628078
  C          -2.37835248687115      3.47093381525947     -1.87009492400335
  O          -1.88485931678905      2.12110813586753     -1.97227345003846
  H          -1.53439985795069      4.09657277969339     -1.57088055518117
  H          -2.75826641997629      3.82071775787758     -2.83686674989048
  H          -2.63925044456883      1.53525275148965     -2.11121744115123
  H          -1.98536859714642     -3.39622092656999      3.18963524254622
  C          -1.87610705148866     -2.61895739929723      2.42081650057745
  O          -1.01133384513327     -1.56378869562275      2.86331676753450
  H          -2.85748733574861     -2.17445362637267      2.23288412839096
  H          -1.51182824738436     -3.08344659188047      1.49532200338883
  H          -0.12066944954227     -1.93018050431089      2.94498134757789
