24
Coordinates from ORCA-job 4Cluster E -462.820036395495
  C      -2.178250      1.547620      1.495000
  O      -0.786100      1.599420      1.373180
  H      -2.440260      1.428030      2.566260
  H      -2.631200      2.492580      1.126380
  H      -2.584660      0.672390      0.943080
  H      -0.596410      1.613430      0.399650
  H      -2.209960     -1.565230     -0.369340
  C      -1.613540     -1.641360     -1.303550
  O      -0.250820     -1.731660     -1.004090
  H      -1.806330     -0.771690     -1.967820
  H      -1.925200     -2.561190     -1.839640
  H      -0.016300     -0.885580     -0.541920
  H      -3.030600      3.714650     -1.257920
  C      -2.091250      3.438520     -1.784270
  O      -2.066100      2.065160     -2.045040
  H      -1.237740      3.694360     -1.123390
  H      -1.983490      4.012350     -2.729880
  H      -2.855870      1.880860     -2.616700
  H      -1.434730     -2.694720      3.581000
  C      -1.514130     -2.317660      2.538610
  O      -0.571280     -1.309970      2.316020
  H      -2.530460     -1.896020      2.396470
  H      -1.377540     -3.143380      1.806810
  H       0.317540     -1.739550      2.414260
24
Coordinates from ORCA-job 4Cluster E -462.827405553044
  C      -2.178063      1.550583      1.485517
  O      -0.765562      1.605995      1.355578
  H      -2.433079      1.434079      2.545327
  H      -2.631766      2.485936      1.120084
  H      -2.582242      0.680897      0.942645
  H      -0.585864      1.614377      0.401930
  H      -2.210802     -1.555215     -0.367915
  C      -1.616511     -1.634837     -1.292857
  O      -0.230349     -1.724952     -0.990753
  H      -1.809636     -0.774383     -1.950992
  H      -1.922661     -2.545910     -1.820003
  H      -0.003540     -0.897482     -0.543571
  H      -3.030167      3.721418     -1.259694
  C      -2.099822      3.443247     -1.781489
  O      -2.074320      2.045843     -2.044621
  H      -1.248951      3.693896     -1.131793
  H      -1.998738      4.021983     -2.712653
  H      -2.845744      1.859029     -2.597545
  H      -1.465352     -2.720212      3.560197
  C      -1.520921     -2.328023      2.532673
  O      -0.553922     -1.308336      2.312460
  H      -2.517155     -1.893532      2.389908
  H      -1.403618     -3.151998      1.811054
  H       0.314106     -1.721043      2.409675
24
Coordinates from ORCA-job 4Cluster E -462.828418490315
  C      -2.180503      1.554876      1.479604
  O      -0.755280      1.613878      1.347231
  H      -2.428650      1.441553      2.538484
  H      -2.634133      2.486061      1.115996
  H      -2.585319      0.688221      0.941418
  H      -0.577703      1.618930      0.399734
  H      -2.213796     -1.546145     -0.367305
  C      -1.617833     -1.631220     -1.285852
  O      -0.219470     -1.723712     -0.980796
  H      -1.812854     -0.774211     -1.943103
  H      -1.917777     -2.543780     -1.807644
  H       0.008726     -0.897901     -0.538190
  H      -3.029302      3.730395     -1.261884
  C      -2.103942      3.447174     -1.780575
  O      -2.078378      2.036905     -2.043543
  H      -1.252505      3.692163     -1.138025
  H      -2.008825      4.028114     -2.707393
  H      -2.847901      1.844843     -2.591317
  H      -1.478183     -2.738483      3.549491
  C      -1.526481     -2.337864      2.528134
  O      -0.546789     -1.314584      2.313147
  H      -2.512754     -1.888320      2.385370
  H      -1.416071     -3.161569      1.810222
  H       0.321045     -1.723967      2.409956
24
Coordinates from ORCA-job 4Cluster E -462.828711413092
  C      -2.182281      1.558803      1.475378
  O      -0.750463      1.620538      1.342192
  H      -2.422547      1.448610      2.536422
  H      -2.636299      2.489185      1.113082
  H      -2.589531      0.693337      0.939556
  H      -0.571741      1.623686      0.394432
  H      -2.217114     -1.536883     -0.365919
  C      -1.617545     -1.627037     -1.280582
  O      -0.214117     -1.721921     -0.972861
  H      -1.814594     -0.771182     -1.938469
  H      -1.910666     -2.543624     -1.799055
  H       0.018397     -0.895014     -0.532424
  H      -3.030069      3.737709     -1.263411
  C      -2.106757      3.448892     -1.781093
  O      -2.080630      2.033115     -2.041905
  H      -1.252293      3.689003     -1.143069
  H      -2.016993      4.029340     -2.708630
  H      -2.851756      1.835991     -2.587275
  H      -1.482945     -2.753044      3.544171
  C      -1.530723     -2.346756      2.525111
  O      -0.544390     -1.323588      2.315556
  H      -2.511371     -1.884831      2.383562
  H      -1.422585     -3.170097      1.806820
  H       0.324332     -1.732874      2.411571
24
Coordinates from ORCA-job 4Cluster E -462.828906051955
  C      -2.183045      1.563286      1.469991
  O      -0.747832      1.627513      1.334983
  H      -2.412103      1.456663      2.534211
  H      -2.638035      2.494013      1.109731
  H      -2.594286      0.698537      0.936523
  H      -0.566657      1.629120      0.386542
  H      -2.220551     -1.524721     -0.363426
  C      -1.615929     -1.620239     -1.274223
  O      -0.211146     -1.716751     -0.963600
  H      -1.815262     -0.765378     -1.933206
  H      -1.900286     -2.541627     -1.789564
  H       0.027493     -0.889253     -0.525804
  H      -3.031638      3.743522     -1.264497
  C      -2.109941      3.448435     -1.782055
  O      -2.082498      2.030534     -2.038712
  H      -1.251204      3.683731     -1.148622
  H      -2.026193      4.026018     -2.712387
  H      -2.855340      1.827328     -2.580937
  H      -1.485684     -2.768768      3.539127
  C      -1.535507     -2.356599      2.522125
  O      -0.543988     -1.335816      2.318986
  H      -2.511466     -1.883459      2.383394
  H      -1.428456     -3.178126      1.801238
  H       0.324876     -1.746605      2.413343
24
Coordinates from ORCA-job 4Cluster E -462.829058178401
  C      -2.182248      1.568093      1.463254
  O      -0.747026      1.634477      1.324545
  H      -2.398002      1.464444      2.530799
  H      -2.638984      2.499603      1.106086
  H      -2.598606      0.703918      0.932533
  H      -0.562527      1.634903      0.376139
  H      -2.223584     -1.510441     -0.359691
  C      -1.613279     -1.610917     -1.266558
  O      -0.210304     -1.707307     -0.952939
  H      -1.814985     -0.757570     -1.927214
  H      -1.888718     -2.536750     -1.779163
  H       0.035806     -0.879840     -0.518430
  H      -3.033306      3.746471     -1.264742
  C      -2.113331      3.445677     -1.783173
  O      -2.084002      2.028246     -2.034134
  H      -1.250201      3.677500     -1.154522
  H      -2.035422      4.018655     -2.717345
  H      -2.858377      1.817834     -2.572287
  H      -1.488221     -2.785791      3.533767
  C      -1.540398     -2.366706      2.519319
  O      -0.544661     -1.349611      2.323311
  H      -2.513266     -1.885680      2.384814
  H      -1.434420     -3.184559      1.793704
  H       0.323380     -1.763290      2.415083
24
Coordinates from ORCA-job 4Cluster E -462.829180432769
  C      -2.179890      1.572633      1.455842
  O      -0.747424      1.640438      1.311421
  H      -2.383135      1.470058      2.526079
  H      -2.639271      2.504837      1.102726
  H      -2.601642      0.708953      0.928015
  H      -0.559260      1.640131      0.363780
  H      -2.225934     -1.495981     -0.354931
  C      -1.610308     -1.600136     -1.258207
  O      -0.211038     -1.694447     -0.941724
  H      -1.814170     -0.749055     -1.921263
  H      -1.879256     -2.529045     -1.768892
  H       0.042813     -0.867472     -0.510946
  H      -3.034519      3.745730     -1.263927
  C      -2.116375      3.441294     -1.784368
  O      -2.085034      2.025610     -2.029057
  H      -1.249765      3.672456     -1.160162
  H      -2.042960      4.009296     -2.722270
  H      -2.860572      1.807524     -2.562507
  H      -1.491444     -2.803002      3.528428
  C      -1.544351     -2.375947      2.517131
  O      -0.545558     -1.362375      2.328493
  H      -2.516305     -1.891759      2.387443
  H      -1.440172     -3.188500      1.785041
  H       0.320890     -1.779882      2.417015
24
Coordinates from ORCA-job 4Cluster E -462.829287241916
  C      -2.176385      1.576693      1.447954
  O      -0.747984      1.644980      1.295973
  H      -2.369653      1.472713      2.519949
  H      -2.639493      2.509225      1.099801
  H      -2.603380      0.713550      0.922954
  H      -0.556217      1.644367      0.349514
  H      -2.227894     -1.481965     -0.349217
  C      -1.607644     -1.588425     -1.249330
  O      -0.212396     -1.679288     -0.930139
  H      -1.813333     -0.740454     -1.915762
  H      -1.873624     -2.518943     -1.758693
  H       0.048752     -0.852896     -0.503459
  H      -3.035060      3.741730     -1.262219
  C      -2.118825      3.436192     -1.785683
  O      -2.085575      2.022017     -2.023980
  H      -1.249991      3.670041     -1.165396
  H      -2.048336      3.999824     -2.726539
  H      -2.861980      1.796099     -2.552300
  H      -1.495594     -2.820613      3.523088
  C      -1.546960     -2.384407      2.515605
  O      -0.546131     -1.373162      2.334951
  H      -2.519649     -1.900651      2.390808
  H      -1.445617     -3.190232      1.775588
  H       0.318289     -1.795034      2.419694
24
Coordinates from ORCA-job 4Cluster E -462.829384978476
  C      -2.172219      1.580116      1.439496
  O      -0.747716      1.647834      1.278578
  H      -2.358803      1.472322      2.512289
  H      -2.640261      2.512493      1.097181
  H      -2.604116      0.717726      0.917008
  H      -0.552870      1.647360      0.333300
  H      -2.229781     -1.468189     -0.342608
  C      -1.605694     -1.575942     -1.239996
  O      -0.213491     -1.663145     -0.918293
  H      -1.812850     -0.731943     -1.910917
  H      -1.872162     -2.507089     -1.747947
  H       0.053827     -0.836995     -0.495997
  H      -3.034965      3.735418     -1.259946
  C      -2.120613      3.431135     -1.787068
  O      -2.085538      2.017179     -2.018932
  H      -1.250832      3.670852     -1.170165
  H      -2.051925      3.991433     -2.729910
  H      -2.862688      1.783595     -2.541944
  H      -1.500310     -2.839114      3.517546
  C      -1.548393     -2.392546      2.514583
  O      -0.546255     -1.381925      2.343201
  H      -2.522451     -1.910571      2.394597
  H      -1.450671     -3.190359      1.765450
  H       0.316099     -1.808285      2.423654
24
Coordinates from ORCA-job 4Cluster E -462.829470027470
  C      -2.168105      1.582349      1.431040
  O      -0.746055      1.648484      1.261396
  H      -2.351673      1.469355      2.503785
  H      -2.641795      2.514127      1.094774
  H      -2.604096      0.721009      0.910190
  H      -0.549464      1.648685      0.316775
  H      -2.231494     -1.455307     -0.335874
  C      -1.604744     -1.563867     -1.231243
  O      -0.213730     -1.648788     -0.907592
  H      -1.812851     -0.724213     -1.907282
  H      -1.874104     -2.495423     -1.736971
  H       0.057404     -0.822120     -0.489389
  H      -3.034511      3.728475     -1.257643
  C      -2.121637      3.426989     -1.788150
  O      -2.084741      2.011713     -2.013966
  H      -1.252094      3.674438     -1.173839
  H      -2.054335      3.985106     -2.732109
  H      -2.862617      1.771765     -2.532324
  H      -1.504463     -2.857048      3.512081
  C      -1.549140     -2.399907      2.513921
  O      -0.546200     -1.388207      2.352789
  H      -2.524077     -1.918636      2.398447
  H      -1.454769     -3.189305      1.755581
  H       0.314611     -1.818315      2.428762
24
Coordinates from ORCA-job 4Cluster E -462.829552371001
  C      -2.163860      1.583293      1.421741
  O      -0.742907      1.647085      1.243944
  H      -2.346215      1.464664      2.494071
  H      -2.643915      2.514162      1.091835
  H      -2.603687      0.723554      0.901641
  H      -0.546174      1.648634      0.299323
  H      -2.233001     -1.441347     -0.328768
  C      -1.604502     -1.551197     -1.222663
  O      -0.213199     -1.635809     -0.897605
  H      -1.813120     -0.716405     -1.904485
  H      -1.877376     -2.483955     -1.724503
  H       0.059438     -0.807702     -0.483284
  H      -3.034126      3.721514     -1.255399
  C      -2.122236      3.423240     -1.788566
  O      -2.082964      2.005655     -2.007956
  H      -1.253639      3.679310     -1.176458
  H      -2.057119      3.979323     -2.733600
  H      -2.861677      1.760450     -2.522313
  H      -1.507761     -2.875630      3.505954
  C      -1.550246     -2.407017      2.513186
  O      -0.546529     -1.393199      2.364093
  H      -2.524922     -1.923863      2.402758
  H      -1.458315     -3.187215      1.745208
  H       0.313372     -1.826185      2.435006
24
Coordinates from ORCA-job 4Cluster E -462.829652486241
  C      -2.158651      1.582601      1.410176
  O      -0.738206      1.643394      1.224262
  H      -2.339784      1.458140      2.482079
  H      -2.646219      2.512305      1.087478
  H      -2.602819      0.725304      0.889832
  H      -0.543334      1.647340      0.278948
  H      -2.234074     -1.423570     -0.320486
  C      -1.604661     -1.536135     -1.213349
  O      -0.212257     -1.622164     -0.887326
  H      -1.813318     -0.707301     -1.902214
  H      -1.880691     -2.471643     -1.708736
  H       0.059527     -0.791545     -0.477046
  H      -3.034147      3.714046     -1.252861
  C      -2.122711      3.418782     -1.787819
  O      -2.079733      1.998482     -1.999250
  H      -1.255517      3.684442     -1.177944
  H      -2.061560      3.971759     -2.734734
  H      -2.859418      1.748587     -2.509969
  H      -1.510440     -2.896947      3.497955
  C      -1.552624     -2.414265      2.512039
  O      -0.547897     -1.397776      2.378260
  H      -2.525813     -1.926381      2.408470
  H      -1.461988     -3.183175      1.732760
  H       0.311657     -1.832920      2.442637
24
Coordinates from ORCA-job 4Cluster E -462.829846495566
  C      -2.141613      1.576061      1.374310
  O      -0.723169      1.627696      1.164384
  H      -2.314192      1.435995      2.446031
  H      -2.651086      2.501877      1.069528
  H      -2.599984      0.727651      0.850121
  H      -0.538339      1.640727      0.215100
  H      -2.235943     -1.360342     -0.293005
  C      -1.605490     -1.485368     -1.183899
  O      -0.210431     -1.576869     -0.856255
  H      -1.813021     -0.676375     -1.894998
  H      -1.886753     -2.432534     -1.655420
  H       0.054249     -0.737599     -0.457932
  H      -3.035077      3.691106     -1.246548
  C      -2.123954      3.401137     -1.783369
  O      -2.067140      1.975179     -1.967322
  H      -1.260781      3.693813     -1.180370
  H      -2.078283      3.940062     -2.739055
  H      -2.849352      1.712917     -2.468224
  H      -1.516009     -2.963638      3.467670
  C      -1.562957     -2.434138      2.506031
  O      -0.555141     -1.410765      2.422684
  H      -2.530188     -1.928923      2.428553
  H      -1.474298     -3.165308      1.691140
  H       0.304274     -1.851000      2.464004
24
Coordinates from ORCA-job 4Cluster E -462.829944757208
  C      -2.141839      1.574657      1.375599
  O      -0.723865      1.628424      1.168201
  H      -2.311299      1.438042      2.448008
  H      -2.648353      2.500820      1.069627
  H      -2.599366      0.726173      0.851945
  H      -0.540148      1.641650      0.219758
  H      -2.234117     -1.364038     -0.295299
  C      -1.604752     -1.490415     -1.186344
  O      -0.210648     -1.579256     -0.858829
  H      -1.812185     -0.679112     -1.895805
  H      -1.882989     -2.437778     -1.658864
  H       0.053459     -0.740233     -0.459415
  H      -3.036562      3.694423     -1.245871
  C      -2.124695      3.401938     -1.781653
  O      -2.067771      1.977357     -1.967666
  H      -1.260397      3.690249     -1.178879
  H      -2.079074      3.940442     -2.737729
  H      -2.849901      1.715968     -2.469834
  H      -1.516807     -2.957016      3.469345
  C      -1.564231     -2.430590      2.506276
  O      -0.556060     -1.409706      2.418297
  H      -2.532271     -1.927949      2.427363
  H      -1.474088     -3.164188      1.693842
  H       0.303282     -1.848504      2.461085
24
Coordinates from ORCA-job 4Cluster E -462.830145916684
  C      -2.133786      1.568215      1.364401
  O      -0.720841      1.625910      1.150434
  H      -2.286010      1.434515      2.439546
  H      -2.640974      2.493982      1.060897
  H      -2.596234      0.722744      0.841210
  H      -0.543892      1.643642      0.202336
  H      -2.229998     -1.343532     -0.287399
  C      -1.602159     -1.480638     -1.177565
  O      -0.211451     -1.558661     -0.848799
  H      -1.808896     -0.672828     -1.891777
  H      -1.872828     -2.432909     -1.643644
  H       0.050260     -0.717589     -0.452933
  H      -3.041055      3.692139     -1.241956
  C      -2.128373      3.393733     -1.775628
  O      -2.064894      1.972272     -1.954063
  H      -1.261315      3.681405     -1.177570
  H      -2.088506      3.923047     -2.737338
  H      -2.846996      1.705205     -2.453291
  H      -1.523856     -2.969635      3.457645
  C      -1.572404     -2.429734      2.502565
  O      -0.562426     -1.414306      2.423804
  H      -2.541943     -1.930035      2.432247
  H      -1.482251     -3.152291      1.680621
  H       0.296149     -1.853293      2.459418
24
Coordinates from ORCA-job 4Cluster E -462.830256227364
  C      -2.128532      1.560701      1.358908
  O      -0.716556      1.620746      1.140592
  H      -2.274793      1.427329      2.434868
  H      -2.636362      2.486666      1.056716
  H      -2.592452      0.716864      0.833643
  H      -0.547802      1.643096      0.190832
  H      -2.225806     -1.333653     -0.282816
  C      -1.601609     -1.477794     -1.174587
  O      -0.209985     -1.549148     -0.846053
  H      -1.806623     -0.672622     -1.892690
  H      -1.870468     -2.433284     -1.634778
  H       0.044790     -0.705298     -0.451542
  H      -3.043920      3.691066     -1.239711
  C      -2.129993      3.390899     -1.770784
  O      -2.061912      1.969139     -1.945411
  H      -1.262621      3.681113     -1.173875
  H      -2.092454      3.915705     -2.735185
  H      -2.843854      1.700717     -2.444345
  H      -1.527825     -2.974890      3.451224
  C      -1.577148     -2.426072      2.500960
  O      -0.566559     -1.411766      2.428982
  H      -2.547097     -1.926448      2.436421
  H      -1.487783     -3.141822      1.672455
  H       0.292685     -1.849886      2.459334
24
Coordinates from ORCA-job 4Cluster E -462.830417534206
  C      -2.118410      1.546169      1.353927
  O      -0.707509      1.610669      1.126121
  H      -2.258319      1.411445      2.430630
  H      -2.628503      2.471933      1.052948
  H      -2.583126      0.703868      0.823369
  H      -0.555663      1.642018      0.172202
  H      -2.216229     -1.321209     -0.276380
  C      -1.600283     -1.476682     -1.171935
  O      -0.204990     -1.536586     -0.844579
  H      -1.801961     -0.677005     -1.896271
  H      -1.868132     -2.437318     -1.621289
  H       0.034624     -0.687056     -0.451276
  H      -3.049773      3.688024     -1.236583
  C      -2.133034      3.387517     -1.762568
  O      -2.057023      1.964414     -1.931556
  H      -1.266151      3.685169     -1.166504
  H      -2.097441      3.905994     -2.730541
  H      -2.838482      1.694361     -2.430448
  H      -1.535503     -2.978991      3.439841
  C      -1.585724     -2.416164      2.497244
  O      -0.573950     -1.403067      2.436994
  H      -2.555315     -1.914158      2.442813
  H      -1.500211     -3.121530      1.658870
  H       0.286428     -1.840455      2.458129
24
Coordinates from ORCA-job 4Cluster E -462.830520978034
  C      -2.113672      1.540593      1.348450
  O      -0.702267      1.607598      1.109983
  H      -2.247787      1.402582      2.425406
  H      -2.625887      2.466603      1.050748
  H      -2.579604      0.700641      0.817408
  H      -0.559171      1.643954      0.154611
  H      -2.212914     -1.309134     -0.269255
  C      -1.598969     -1.471550     -1.165224
  O      -0.201634     -1.525028     -0.837804
  H      -1.799849     -0.677144     -1.895469
  H      -1.865662     -2.436223     -1.606364
  H       0.031514     -0.672397     -0.447917
  H      -3.051744      3.685809     -1.235638
  C      -2.134726      3.385638     -1.759853
  O      -2.054257      1.960601     -1.922655
  H      -1.268645      3.689729     -1.166260
  H      -2.100235      3.899782     -2.730186
  H      -2.835855      1.685525     -2.418962
  H      -1.539178     -2.991080      3.429703
  C      -1.590352     -2.416720      2.493960
  O      -0.577590     -1.402954      2.444775
  H      -2.558745     -1.910825      2.448154
  H      -1.509721     -3.112795      1.647421
  H       0.282270     -1.841843      2.458130
24
Coordinates from ORCA-job 4Cluster E -462.830661371386
  C      -2.105668      1.533875      1.342023
  O      -0.695033      1.605307      1.083482
  H      -2.229361      1.389508      2.419133
  H      -2.621009      2.459780      1.050069
  H      -2.573959      0.696309      0.810942
  H      -0.566063      1.650021      0.125676
  H      -2.207239     -1.293845     -0.259672
  C      -1.595205     -1.466061     -1.154610
  O      -0.195702     -1.508800     -0.826421
  H      -1.795681     -0.680486     -1.893926
  H      -1.859339     -2.436957     -1.583136
  H       0.028171     -0.650840     -0.442248
  H      -3.055837      3.682377     -1.234322
  C      -2.138044      3.384013     -1.756836
  O      -2.050623      1.957165     -1.909370
  H      -1.273334      3.699526     -1.167314
  H      -2.103946      3.891511     -2.730625
  H      -2.832135      1.671882     -2.400161
  H      -1.544946     -3.009257      3.413850
  C      -1.598370     -2.418061      2.488802
  O      -0.584576     -1.403705      2.455454
  H      -2.564818     -1.906660      2.456835
  H      -1.525795     -3.098915      1.629552
  H       0.273831     -1.846326      2.455983
24
Coordinates from ORCA-job 4Cluster E -462.830806959619
  C      -2.092943      1.523896      1.331868
  O      -0.685995      1.602334      1.042610
  H      -2.196839      1.371129      2.409513
  H      -2.611724      2.450679      1.049667
  H      -2.566135      0.689631      0.802140
  H      -0.578315      1.660000      0.082469
  H      -2.199229     -1.272807     -0.246035
  C      -1.587799     -1.459344     -1.138222
  O      -0.187380     -1.484765     -0.807854
  H      -1.788561     -0.686689     -1.891197
  H      -1.845755     -2.439537     -1.548545
  H       0.023630     -0.619705     -0.432770
  H      -3.062552      3.678661     -1.231667
  C      -2.143624      3.381857     -1.752232
  O      -2.045640      1.954006     -1.888771
  H      -1.280519      3.712751     -1.168978
  H      -2.110954      3.878552     -2.731661
  H      -2.826557      1.652069     -2.370446
  H      -1.554095     -3.035096      3.389065
  C      -1.611799     -2.418800      2.480953
  O      -0.595615     -1.405535      2.469950
  H      -2.576416     -1.902602      2.469939
  H      -1.549789     -3.075734      1.602693
  H       0.259925     -1.853590      2.450672
24
Coordinates from ORCA-job 4Cluster E -462.830915782798
  C      -2.074604      1.519356      1.327111
  O      -0.676946      1.603424      1.006526
  H      -2.157635      1.357540      2.405173
  H      -2.601563      2.443410      1.052249
  H      -2.555408      0.685389      0.798363
  H      -0.591409      1.673623      0.043118
  H      -2.189345     -1.256994     -0.236054
  C      -1.576755     -1.455835     -1.123550
  O      -0.177056     -1.465556     -0.789160
  H      -1.779483     -0.697155     -1.888313
  H      -1.827637     -2.444362     -1.517622
  H       0.022785     -0.593062     -0.422113
  H      -3.073926      3.673036     -1.231629
  C      -2.152103      3.379851     -1.750419
  O      -2.042544      1.954258     -1.869071
  H      -1.290384      3.728022     -1.172776
  H      -2.121610      3.865264     -2.735552
  H      -2.821734      1.633824     -2.340081
  H      -1.566429     -3.059749      3.363330
  C      -1.628446     -2.419506      2.472406
  O      -0.609170     -1.410024      2.481035
  H      -2.589890     -1.896830      2.482472
  H      -1.575780     -3.051778      1.576018
  H       0.242389     -1.864785      2.441700
24
Coordinates from ORCA-job 4Cluster E -462.831105536339
  C      -2.063659      1.506041      1.315296
  O      -0.669193      1.602952      0.949420
  H      -2.110558      1.336227      2.392977
  H      -2.583123      2.439625      1.065968
  H      -2.551038      0.676360      0.799023
  H      -0.615416      1.694127     -0.012469
  H      -2.181480     -1.257200     -0.227523
  C      -1.558811     -1.468913     -1.104795
  O      -0.160779     -1.454421     -0.762328
  H      -1.767361     -0.725437     -1.887398
  H      -1.793855     -2.469325     -1.477901
  H       0.022989     -0.575335     -0.409208
  H      -3.083072      3.686563     -1.227651
  C      -2.161895      3.395197     -1.746736
  O      -2.039785      1.966663     -1.846993
  H      -1.302429      3.757005     -1.177168
  H      -2.132937      3.870366     -2.736987
  H      -2.817032      1.618556     -2.303175
  H      -1.577881     -3.081194      3.337654
  C      -1.649866     -2.416544      2.466038
  O      -0.622639     -1.411504      2.490667
  H      -2.611566     -1.897413      2.500838
  H      -1.608037     -3.020646      1.549228
  H       0.224742     -1.870388      2.426383
24
Coordinates from ORCA-job 4Cluster E -462.831345229989
  C      -2.037924      1.520799      1.320552
  O      -0.660082      1.618750      0.935133
  H      -2.060386      1.351191      2.398970
  H      -2.569199      2.450265      1.096082
  H      -2.537937      0.685492      0.822331
  H      -0.624839      1.719227     -0.022487
  H      -2.170375     -1.293756     -0.242624
  C      -1.529270     -1.499428     -1.105370
  O      -0.137600     -1.482064     -0.748369
  H      -1.752942     -0.761492     -1.890638
  H      -1.749752     -2.503050     -1.479843
  H       0.048610     -0.601708     -0.399102
  H      -3.108595      3.700345     -1.229683
  C      -2.183197      3.418871     -1.755102
  O      -2.049811      1.992737     -1.846886
  H      -1.321921      3.787981     -1.189437
  H      -2.164001      3.892921     -2.746258
  H      -2.824060      1.623892     -2.289487
  H      -1.603367     -3.078400      3.340397
  C      -1.677832     -2.415976      2.467816
  O      -0.637665     -1.425636      2.476451
  H      -2.636226     -1.895404      2.504256
  H      -1.631657     -3.015965      1.548679
  H       0.205348     -1.888231      2.407781
24
Coordinates from ORCA-job 4Cluster E -462.830903359320
  C      -1.963174      1.496380      1.285000
  O      -0.640802      1.595387      0.829316
  H      -1.917490      1.302872      2.363968
  H      -2.539583      2.415356      1.109604
  H      -2.502789      0.669303      0.793580
  H      -0.677351      1.737364     -0.140331
  H      -2.146637     -1.238368     -0.212650
  C      -1.494823     -1.476203     -1.062413
  O      -0.118338     -1.409481     -0.685755
  H      -1.717645     -0.790055     -1.883178
  H      -1.695575     -2.499116     -1.392820
  H       0.031188     -0.508898     -0.357405
  H      -3.141590      3.679552     -1.225758
  C      -2.206503      3.402119     -1.739014
  O      -2.034271      1.989261     -1.783852
  H      -1.358957      3.816813     -1.187645
  H      -2.211329      3.830198     -2.750669
  H      -2.795764      1.582334     -2.203149
  H      -1.646867     -3.155660      3.241111
  C      -1.725574     -2.407217      2.439373
  O      -0.676733     -1.434728      2.527595
  H      -2.670582     -1.858456      2.551585
  H      -1.717409     -2.927215      1.469912
  H       0.153919     -1.910184      2.386754
24
Coordinates from ORCA-job 4Cluster E -462.832089021046
  C      -1.982250      1.482033      1.280211
  O      -0.637176      1.584970      0.796202
  H      -1.923519      1.285606      2.356806
  H      -2.535182      2.420247      1.129278
  H      -2.522623      0.657941      0.797076
  H      -0.685590      1.736681     -0.161585
  H      -2.157135     -1.258763     -0.217080
  C      -1.493918     -1.491089     -1.059738
  O      -0.113661     -1.415198     -0.677264
  H      -1.717550     -0.807074     -1.889868
  H      -1.686436     -2.517231     -1.385222
  H       0.028602     -0.513765     -0.354470
  H      -3.132921      3.703764     -1.225784
  C      -2.203737      3.424834     -1.740813
  O      -2.029978      2.002371     -1.781677
  H      -1.354887      3.838471     -1.188828
  H      -2.207410      3.855256     -2.751130
  H      -2.795206      1.589225     -2.199191
  H      -1.641230     -3.150930      3.244394
  C      -1.724277     -2.406074      2.444843
  O      -0.673049     -1.429096      2.533720
  H      -2.669870     -1.872816      2.555923
  H      -1.714102     -2.921673      1.478800
  H       0.158426     -1.896331      2.388555
24
Coordinates from ORCA-job 4Cluster E -462.832289161163
  C      -1.976818      1.478578      1.286445
  O      -0.632554      1.580747      0.791350
  H      -1.911276      1.281673      2.360309
  H      -2.528876      2.418360      1.144456
  H      -2.521065      0.655797      0.808107
  H      -0.692985      1.739238     -0.163361
  H      -2.155343     -1.277281     -0.226109
  C      -1.486303     -1.504395     -1.065102
  O      -0.106611     -1.422037     -0.676029
  H      -1.711303     -0.821729     -1.897213
  H      -1.673287     -2.530988     -1.392435
  H       0.031416     -0.520746     -0.352593
  H      -3.140741      3.711487     -1.232107
  C      -2.209554      3.436794     -1.745635
  O      -2.029069      2.014211     -1.782864
  H      -1.362269      3.853662     -1.192079
  H      -2.214481      3.867295     -2.755969
  H      -2.793724      1.599961     -2.200162
  H      -1.644344     -3.149831      3.252118
  C      -1.731092     -2.401974      2.451109
  O      -0.677641     -1.428786      2.531952
  H      -2.678663     -1.868739      2.566974
  H      -1.723869     -2.916341      1.480341
  H       0.155775     -1.893597      2.381656
24
Coordinates from ORCA-job 4Cluster E -462.832520737837
  C      -1.970253      1.472318      1.310834
  O      -0.627579      1.568986      0.802812
  H      -1.900911      1.275261      2.380380
  H      -2.518939      2.413218      1.174608
  H      -2.519776      0.652133      0.838346
  H      -0.706527      1.736627     -0.146431
  H      -2.155690     -1.319904     -0.249263
  C      -1.478026     -1.532177     -1.084805
  O      -0.099641     -1.440322     -0.684440
  H      -1.702104     -0.847449     -1.914260
  H      -1.655995     -2.556083     -1.422657
  H       0.032498     -0.541896     -0.354171
  H      -3.152699      3.724865     -1.250067
  C      -2.216978      3.458492     -1.758139
  O      -2.026916      2.037468     -1.794025
  H      -1.374895      3.877223     -1.198694
  H      -2.219725      3.892452     -2.766169
  H      -2.791200      1.631422     -2.217133
  H      -1.647800     -3.126540      3.272907
  C      -1.735085     -2.392665      2.463284
  O      -0.683826     -1.422587      2.522115
  H      -2.684483     -1.863142      2.576213
  H      -1.731404     -2.917714      1.501867
  H       0.153274     -1.878626      2.370048
24
Coordinates from ORCA-job 4Cluster E -462.832759633785
  C      -1.934439      1.459692      1.323277
  O      -0.606827      1.549462      0.759346
  H      -1.827776      1.251706      2.391844
  H      -2.492121      2.399518      1.209874
  H      -2.509692      0.649229      0.861673
  H      -0.731295      1.742100     -0.184145
  H      -2.152673     -1.329786     -0.261499
  C      -1.458208     -1.538606     -1.083984
  O      -0.086430     -1.419572     -0.661754
  H      -1.682979     -0.871148     -1.930587
  H      -1.615069     -2.572678     -1.413315
  H       0.032735     -0.517610     -0.334572
  H      -3.179568      3.731611     -1.272861
  C      -2.236588      3.476248     -1.773783
  O      -2.016201      2.057578     -1.778792
  H      -1.403814      3.919553     -1.217378
  H      -2.247821      3.895845     -2.790806
  H      -2.782116      1.638221     -2.196464
  H      -1.672427     -3.156899      3.266876
  C      -1.761363     -2.394881      2.469698
  O      -0.704915     -1.429492      2.540777
  H      -2.707404     -1.857803      2.604443
  H      -1.769681     -2.899821      1.485816
  H       0.131994     -1.881106      2.359477
24
Coordinates from ORCA-job 4Cluster E -462.833002684072
  C      -1.932477      1.457642      1.328963
  O      -0.609012      1.542512      0.760832
  H      -1.822040      1.249256      2.397109
  H      -2.489279      2.398255      1.213032
  H      -2.513184      0.650407      0.867334
  H      -0.735451      1.736013     -0.180694
  H      -2.159845     -1.327037     -0.265076
  C      -1.461214     -1.532720     -1.086584
  O      -0.093448     -1.412660     -0.661418
  H      -1.682809     -0.865491     -1.932858
  H      -1.613325     -2.565485     -1.417965
  H       0.027355     -0.511366     -0.331390
  H      -3.179135      3.731786     -1.280329
  C      -2.235363      3.476309     -1.778857
  O      -2.012667      2.057158     -1.781611
  H      -1.406768      3.922049     -1.222080
  H      -2.245135      3.892461     -2.796355
  H      -2.778096      1.640841     -2.201206
  H      -1.670547     -3.155977      3.268974
  C      -1.757198     -2.399909      2.470835
  O      -0.704945     -1.430211      2.543904
  H      -2.703040     -1.863127      2.603093
  H      -1.768422     -2.909840      1.494281
  H       0.131365     -1.879505      2.361226
24
Coordinates from ORCA-job 4Cluster E -462.833344500377
  C      -1.910771      1.444210      1.339243
  O      -0.607888      1.523090      0.731286
  H      -1.768975      1.229079      2.401980
  H      -2.463050      2.388947      1.233992
  H      -2.512007      0.647269      0.886573
  H      -0.764745      1.734520     -0.205967
  H      -2.167559     -1.325122     -0.274601
  C      -1.453706     -1.529346     -1.084053
  O      -0.098075     -1.389546     -0.644443
  H      -1.671705     -0.875003     -1.940055
  H      -1.584255     -2.566089     -1.406488
  H       0.012126     -0.485439     -0.314838
  H      -3.190361      3.737542     -1.298464
  C      -2.242585      3.485718     -1.789238
  O      -2.001991      2.068236     -1.773548
  H      -1.427318      3.951253     -1.235308
  H      -2.251081      3.883584     -2.811777
  H      -2.761324      1.640859     -2.187176
  H      -1.674571     -3.161163      3.258752
  C      -1.767862     -2.406863      2.471094
  O      -0.720837     -1.431858      2.554632
  H      -2.712296     -1.874754      2.611755
  H      -1.785101     -2.910193      1.499282
  H       0.111256     -1.877570      2.350531
24
Coordinates from ORCA-job 4Cluster E -462.833614610847
  C      -1.890459      1.431412      1.343283
  O      -0.606304      1.498481      0.700539
  H      -1.719140      1.211278      2.400144
  H      -2.437486      2.381561      1.253505
  H      -2.516474      0.646571      0.900747
  H      -0.786929      1.724816     -0.226667
  H      -2.182350     -1.315892     -0.285358
  C      -1.451005     -1.514935     -1.082520
  O      -0.107193     -1.356905     -0.626095
  H      -1.663651     -0.871294     -1.948047
  H      -1.561421     -2.555825     -1.399611
  H      -0.004337     -0.451583     -0.295386
  H      -3.199233      3.741350     -1.317966
  C      -2.247771      3.492400     -1.801992
  O      -1.989148      2.075827     -1.767310
  H      -1.443904      3.977369     -1.249560
  H      -2.258441      3.871439     -2.831559
  H      -2.746233      1.640025     -2.177548
  H      -1.679173     -3.181861      3.259113
  C      -1.774554     -2.419536      2.477442
  O      -0.732247     -1.438076      2.572385
  H      -2.719696     -1.892833      2.622769
  H      -1.794461     -2.916524      1.503328
  H       0.096930     -1.875908      2.349523
24
Coordinates from ORCA-job 4Cluster E -462.834041391431
  C      -1.857111      1.409322      1.346744
  O      -0.603633      1.464232      0.644905
  H      -1.639514      1.178422      2.391705
  H      -2.390613      2.368959      1.287320
  H      -2.517334      0.640866      0.925103
  H      -0.827236      1.718639     -0.267083
  H      -2.196211     -1.310930     -0.302562
  C      -1.440190     -1.504773     -1.077441
  O      -0.112005     -1.312212     -0.594875
  H      -1.647467     -0.881302     -1.959017
  H      -1.520390     -2.552815     -1.380284
  H      -0.031240     -0.402472     -0.266494
  H      -3.217736      3.748417     -1.345076
  C      -2.258939      3.506939     -1.817996
  O      -1.970989      2.096507     -1.753100
  H      -1.473407      4.024447     -1.268787
  H      -2.270307      3.857432     -2.857111
  H      -2.720557      1.638815     -2.153450
  H      -1.685909     -3.208490      3.254762
  C      -1.793320     -2.432644      2.486858
  O      -0.754881     -1.445933      2.593637
  H      -2.741339     -1.915320      2.645787
  H      -1.814416     -2.912315      1.503261
  H       0.070064     -1.872431      2.336352
24
Coordinates from ORCA-job 4Cluster E -462.834501430245
  C      -1.834157      1.396176      1.350366
  O      -0.608609      1.436764      0.606153
  H      -1.581629      1.159589      2.384425
  H      -2.344603      2.368903      1.320149
  H      -2.522643      0.638450      0.952485
  H      -0.861647      1.712313     -0.290450
  H      -2.210630     -1.313325     -0.323484
  C      -1.431867     -1.499071     -1.076924
  O      -0.115203     -1.279223     -0.569525
  H      -1.636643     -0.888045     -1.967728
  H      -1.487858     -2.552080     -1.371315
  H      -0.056767     -0.366342     -0.241747
  H      -3.233511      3.758576     -1.371986
  C      -2.267220      3.525665     -1.837075
  O      -1.959959      2.121069     -1.753102
  H      -1.492138      4.070253     -1.289150
  H      -2.276483      3.854236     -2.883479
  H      -2.701996      1.639327     -2.141628
  H      -1.687952     -3.234925      3.264863
  C      -1.805711     -2.450488      2.502140
  O      -0.770595     -1.459327      2.608397
  H      -2.760057     -1.943571      2.664019
  H      -1.820306     -2.919515      1.510583
  H       0.053503     -1.874047      2.327173
24
Coordinates from ORCA-job 4Cluster E -462.834851241037
  C      -1.810632      1.384019      1.355969
  O      -0.612400      1.411929      0.564490
  H      -1.525388      1.137077      2.380025
  H      -2.298708      2.367548      1.352520
  H      -2.523715      0.636024      0.983593
  H      -0.897815      1.711178     -0.319884
  H      -2.219504     -1.316432     -0.341668
  C      -1.421312     -1.497737     -1.073947
  O      -0.115645     -1.251503     -0.542996
  H      -1.623776     -0.901208     -1.975236
  H      -1.455535     -2.555384     -1.356440
  H      -0.083657     -0.333458     -0.218772
  H      -3.251859      3.766970     -1.401428
  C      -2.277394      3.546039     -1.856600
  O      -1.948899      2.150755     -1.750197
  H      -1.515999      4.114602     -1.313523
  H      -2.282425      3.857986     -2.908144
  H      -2.680065      1.644194     -2.126208
  H      -1.692316     -3.260044      3.268845
  C      -1.819011     -2.468528      2.514612
  O      -0.787200     -1.473978      2.622650
  H      -2.776380     -1.966915      2.683642
  H      -1.829808     -2.925178      1.515559
  H       0.034763     -1.876596      2.316301
24
Coordinates from ORCA-job 4Cluster E -462.835150185178
  C      -1.799452      1.381999      1.359618
  O      -0.623254      1.390038      0.536479
  H      -1.493817      1.129224      2.377432
  H      -2.261811      2.377433      1.375627
  H      -2.532484      0.641468      1.010910
  H      -0.926674      1.705203     -0.337156
  H      -2.231717     -1.309619     -0.354820
  C      -1.418550     -1.490032     -1.072098
  O      -0.121219     -1.229414     -0.520192
  H      -1.617288     -0.897907     -1.978974
  H      -1.440106     -2.550440     -1.348449
  H      -0.113456     -0.305437     -0.197646
  H      -3.264137      3.776328     -1.434006
  C      -2.282303      3.567285     -1.880751
  O      -1.941673      2.176967     -1.760359
  H      -1.525294      4.150178     -1.341734
  H      -2.281859      3.872159     -2.935147
  H      -2.663542      1.648596     -2.123469
  H      -1.692340     -3.291572      3.283244
  C      -1.818433     -2.498720      2.530292
  O      -0.793622     -1.499826      2.639800
  H      -2.780097     -2.000319      2.695885
  H      -1.821656     -2.951425      1.529311
  H       0.030105     -1.890806      2.319365
24
Coordinates from ORCA-job 4Cluster E -462.835351776485
  C      -1.788201      1.380840      1.365936
  O      -0.628050      1.374353      0.517281
  H      -1.467941      1.122770      2.379443
  H      -2.237875      2.381838      1.391276
  H      -2.534694      0.646428      1.033450
  H      -0.946760      1.701853     -0.350835
  H      -2.234541     -1.303178     -0.362217
  C      -1.414637     -1.485359     -1.070819
  O      -0.125553     -1.214163     -0.504652
  H      -1.609098     -0.897356     -1.980895
  H      -1.428067     -2.546256     -1.343652
  H      -0.134672     -0.287675     -0.184405
  H      -3.274849      3.782971     -1.460457
  C      -2.288477      3.581680     -1.898822
  O      -1.935934      2.196163     -1.765252
  H      -1.535317      4.170168     -1.364067
  H      -2.285858      3.883897     -2.954236
  H      -2.652145      1.655758     -2.121525
  H      -1.696713     -3.312654      3.289967
  C      -1.819508     -2.518959      2.538775
  O      -0.797703     -1.519046      2.653137
  H      -2.780608     -2.019978      2.704297
  H      -1.823458     -2.971091      1.537744
  H       0.025978     -1.901641      2.323688
24
Coordinates from ORCA-job 4Cluster E -462.835545109194
  C      -1.796132      1.398480      1.370233
  O      -0.636718      1.376248      0.521650
  H      -1.481737      1.144777      2.387784
  H      -2.241913      2.402009      1.388764
  H      -2.543472      0.663197      1.042925
  H      -0.951592      1.700674     -0.347623
  H      -2.229776     -1.289294     -0.355460
  C      -1.417829     -1.481445     -1.070114
  O      -0.129424     -1.219553     -0.500854
  H      -1.608605     -0.883195     -1.975468
  H      -1.442572     -2.538654     -1.349429
  H      -0.146554     -0.291829     -0.181415
  H      -3.274468      3.793485     -1.478456
  C      -2.288252      3.593107     -1.915057
  O      -1.938967      2.204004     -1.785697
  H      -1.522251      4.166170     -1.382522
  H      -2.286215      3.907922     -2.967161
  H      -2.655235      1.660777     -2.135339
  H      -1.694436     -3.333139      3.301398
  C      -1.806900     -2.545208      2.544257
  O      -0.786485     -1.547942      2.664922
  H      -2.766801     -2.040253      2.700374
  H      -1.810323     -3.008578      1.548718
  H       0.041976     -1.930400      2.346730
24
Coordinates from ORCA-job 4Cluster E -462.835634009628
  C      -1.789952      1.400187      1.371917
  O      -0.638374      1.370676      0.512733
  H      -1.468134      1.145629      2.385672
  H      -2.235192      2.404105      1.391402
  H      -2.545455      0.669180      1.051269
  H      -0.958710      1.698893     -0.354283
  H      -2.232126     -1.281230     -0.355658
  C      -1.417926     -1.474747     -1.068515
  O      -0.135538     -1.208318     -0.493371
  H      -1.602953     -0.877135     -1.974450
  H      -1.440799     -2.532295     -1.348198
  H      -0.158242     -0.281122     -0.175746
  H      -3.276383      3.796236     -1.488621
  C      -2.289600      3.595225     -1.922595
  O      -1.933777      2.208922     -1.786596
  H      -1.527911      4.169020     -1.391270
  H      -2.289714      3.905973     -2.975715
  H      -2.649654      1.663818     -2.135623
  H      -1.696184     -3.345383      3.302600
  C      -1.806871     -2.555908      2.546204
  O      -0.786288     -1.558445      2.674034
  H      -2.765703     -2.053716      2.702206
  H      -1.810336     -3.019586      1.551875
  H       0.041143     -1.938619      2.353887
24
Coordinates from ORCA-job 4Cluster E -462.835721476224
  C      -1.788402      1.410131      1.376765
  O      -0.640013      1.376538      0.515232
  H      -1.464003      1.159202      2.389617
  H      -2.236744      2.412895      1.392646
  H      -2.546687      0.678657      1.060835
  H      -0.960551      1.702590     -0.353217
  H      -2.231330     -1.284505     -0.356230
  C      -1.416835     -1.476046     -1.069448
  O      -0.136566     -1.211376     -0.492063
  H      -1.598516     -0.875314     -1.972819
  H      -1.442662     -2.532234     -1.354281
  H      -0.160117     -0.286459     -0.175708
  H      -3.275962      3.801449     -1.491943
  C      -2.290896      3.597936     -1.929074
  O      -1.933678      2.212376     -1.793852
  H      -1.528501      4.170063     -1.396355
  H      -2.295364      3.907544     -2.982278
  H      -2.651116      1.668057     -2.142137
  H      -1.698325     -3.352690      3.305469
  C      -1.806768     -2.564292      2.546860
  O      -0.783462     -1.568159      2.677805
  H      -2.765174     -2.062998      2.699863
  H      -1.807172     -3.030944      1.554027
  H       0.044164     -1.951061      2.363445
24
Coordinates from ORCA-job 4Cluster E -462.835832442947
  C      -1.785760      1.423813      1.381582
  O      -0.645396      1.384819      0.511037
  H      -1.451451      1.178143      2.391761
  H      -2.234667      2.425930      1.394893
  H      -2.549974      0.693673      1.076453
  H      -0.967766      1.708608     -0.356347
  H      -2.233832     -1.289011     -0.357400
  C      -1.416717     -1.477433     -1.068591
  O      -0.139147     -1.211494     -0.486049
  H      -1.590689     -0.872984     -1.970248
  H      -1.444968     -2.532762     -1.357541
  H      -0.169148     -0.286306     -0.172597
  H      -3.274651      3.807536     -1.496127
  C      -2.291671      3.601010     -1.938001
  O      -1.930130      2.217863     -1.801768
  H      -1.533142      4.176697     -1.403685
  H      -2.301458      3.904367     -2.992553
  H      -2.647438      1.672181     -2.148208
  H      -1.699685     -3.367582      3.306283
  C      -1.807031     -2.578664      2.547458
  O      -0.780987     -1.583384      2.685366
  H      -2.766897     -2.078512      2.697025
  H      -1.798836     -3.044489      1.554146
  H       0.046762     -1.970660      2.376272
24
Coordinates from ORCA-job 4Cluster E -462.835920007024
  C      -1.777709      1.439016      1.392366
  O      -0.651911      1.391797      0.504102
  H      -1.425335      1.198541      2.398396
  H      -2.223239      2.442672      1.407391
  H      -2.550860      0.710122      1.106431
  H      -0.981533      1.716748     -0.361760
  H      -2.238178     -1.303804     -0.366871
  C      -1.412176     -1.484768     -1.069649
  O      -0.139898     -1.214511     -0.475292
  H      -1.578753     -0.877986     -1.970884
  H      -1.435811     -2.539548     -1.362425
  H      -0.179588     -0.288459     -0.165244
  H      -3.279129      3.816330     -1.506975
  C      -2.297252      3.612285     -1.953432
  O      -1.927058      2.232234     -1.813068
  H      -1.543512      4.197030     -1.419229
  H      -2.312368      3.908970     -3.009636
  H      -2.642509      1.680790     -2.155119
  H      -1.706781     -3.385196      3.310756
  C      -1.810257     -2.596976      2.550898
  O      -0.782697     -1.602630      2.692469
  H      -2.770838     -2.096414      2.694618
  H      -1.792709     -3.062251      1.557105
  H       0.045422     -1.992632      2.388211
24
Coordinates from ORCA-job 4Cluster E -462.835984429857
  C      -1.770202      1.450239      1.401221
  O      -0.659114      1.395014      0.494257
  H      -1.399158      1.214412      2.402279
  H      -2.210383      2.456016      1.418655
  H      -2.551515      0.724212      1.133702
  H      -0.995931      1.721696     -0.368198
  H      -2.243850     -1.314603     -0.376146
  C      -1.409537     -1.490234     -1.070317
  O      -0.142969     -1.213625     -0.463371
  H      -1.567606     -0.881681     -1.972355
  H      -1.425724     -2.544917     -1.364095
  H      -0.193473     -0.285220     -0.156499
  H      -3.283683      3.821285     -1.517515
  C      -2.301994      3.622157     -1.966440
  O      -1.922626      2.244552     -1.821451
  H      -1.553641      4.216560     -1.434876
  H      -2.320255      3.913438     -3.023966
  H      -2.635535      1.687986     -2.159865
  H      -1.712826     -3.402064      3.314018
  C      -1.811792     -2.613738      2.554137
  O      -0.785460     -1.619527      2.699589
  H      -2.773770     -2.112245      2.692428
  H      -1.787552     -3.077507      1.559436
  H       0.043916     -2.010845      2.398531
24
Coordinates from ORCA-job 4Cluster E -462.836048741128
  C      -1.758782      1.468663      1.415258
  O      -0.669375      1.399816      0.483091
  H      -1.361380      1.240505      2.408705
  H      -2.192163      2.477530      1.435343
  H      -2.551230      0.746107      1.174683
  H      -1.015475      1.727923     -0.375284
  H      -2.252463     -1.329185     -0.391473
  C      -1.405893     -1.497452     -1.072432
  O      -0.149389     -1.213410     -0.445196
  H      -1.551998     -0.885462     -1.974820
  H      -1.408995     -2.551560     -1.368470
  H      -0.212964     -0.282795     -0.142890
  H      -3.291059      3.827019     -1.533391
  C      -2.309641      3.637380     -1.986188
  O      -1.917753      2.262090     -1.836368
  H      -1.565797      4.243351     -1.461145
  H      -2.333125      3.924207     -3.044841
  H      -2.628182      1.698844     -2.169100
  H      -1.723116     -3.427125      3.321082
  C      -1.812779     -2.640224      2.559149
  O      -0.789364     -1.645944      2.709122
  H      -2.775732     -2.135893      2.686519
  H      -1.780891     -3.104771      1.564857
  H       0.042865     -2.038255      2.416947
24
Coordinates from ORCA-job 4Cluster E -462.836089732721
  C      -1.752173      1.473337      1.421977
  O      -0.670481      1.401661      0.480444
  H      -1.345248      1.248789      2.412320
  H      -2.184878      2.482300      1.442247
  H      -2.547325      0.751568      1.189552
  H      -1.021190      1.729519     -0.376166
  H      -2.253936     -1.338294     -0.399714
  C      -1.403086     -1.503595     -1.075896
  O      -0.151390     -1.214774     -0.440501
  H      -1.545129     -0.891176     -1.978683
  H      -1.397642     -2.557421     -1.372011
  H      -0.217925     -0.284476     -0.139243
  H      -3.295368      3.825498     -1.534675
  C      -2.314064      3.641179     -1.989108
  O      -1.916941      2.266674     -1.839889
  H      -1.570429      4.251204     -1.468870
  H      -2.340410      3.927956     -3.047817
  H      -2.627414      1.703221     -2.172098
  H      -1.730051     -3.429366      3.322466
  C      -1.815413     -2.643421      2.559214
  O      -0.793054     -1.649122      2.709437
  H      -2.778658     -2.138785      2.681761
  H      -1.783562     -3.109287      1.565503
  H       0.041086     -2.041831      2.422910
24
Coordinates from ORCA-job 4Cluster E -462.836152738887
  C      -1.739335      1.478708      1.429603
  O      -0.668466      1.405101      0.476186
  H      -1.320934      1.258997      2.415208
  H      -2.174593      2.486635      1.450750
  H      -2.537272      0.757591      1.206017
  H      -1.026463      1.730779     -0.376716
  H      -2.254457     -1.351735     -0.412855
  C      -1.397918     -1.514066     -1.082407
  O      -0.154719     -1.217434     -0.434744
  H      -1.534618     -0.902312     -1.986739
  H      -1.377525     -2.567767     -1.376360
  H      -0.223539     -0.287653     -0.134739
  H      -3.301989      3.817120     -1.527648
  C      -2.321227      3.642037     -1.985738
  O      -1.916534      2.268668     -1.841142
  H      -1.576109      4.257040     -1.476438
  H      -2.354351      3.930197     -3.044205
  H      -2.627829      1.705956     -2.173436
  H      -1.740906     -3.425152      3.320312
  C      -1.822429     -2.640723      2.555248
  O      -0.801607     -1.645787      2.706777
  H      -2.786510     -2.136952      2.671131
  H      -1.791190     -3.108304      1.562586
  H       0.035840     -2.039583      2.432511
24
Coordinates from ORCA-job 4Cluster E -462.836186851975
  C      -1.727773      1.482337      1.435496
  O      -0.666521      1.406320      0.472166
  H      -1.301533      1.264596      2.417691
  H      -2.163982      2.489846      1.458758
  H      -2.527959      0.761290      1.219535
  H      -1.032006      1.731631     -0.378015
  H      -2.253965     -1.363380     -0.424443
  C      -1.392108     -1.522479     -1.087860
  O      -0.155947     -1.219605     -0.430316
  H      -1.525505     -0.912104     -1.993107
  H      -1.362141     -2.576040     -1.380734
  H      -0.228333     -0.290281     -0.131315
  H      -3.307819      3.812492     -1.522544
  C      -2.327590      3.643173     -1.983819
  O      -1.916448      2.271781     -1.842002
  H      -1.580959      4.262223     -1.481444
  H      -2.367455      3.931243     -3.042253
  H      -2.627328      1.707909     -2.173416
  H      -1.749089     -3.421360      3.318500
  C      -1.829856     -2.637886      2.552073
  O      -0.809780     -1.641896      2.705670
  H      -2.794484     -2.135552      2.664245
  H      -1.796019     -3.106436      1.560060
  H       0.029921     -2.036463      2.440232
24
Coordinates from ORCA-job 4Cluster E -462.836244582575
  C      -1.709650      1.490838      1.442484
  O      -0.662919      1.410863      0.465078
  H      -1.272563      1.276182      2.420248
  H      -2.147775      2.497708      1.469014
  H      -2.512691      0.769285      1.238165
  H      -1.039717      1.733220     -0.380270
  H      -2.253964     -1.381722     -0.442866
  C      -1.383292     -1.535562     -1.096402
  O      -0.158759     -1.223895     -0.422907
  H      -1.510579     -0.926374     -2.003249
  H      -1.340996     -2.588876     -1.388242
  H      -0.237028     -0.294724     -0.126030
  H      -3.314052      3.804843     -1.507695
  C      -2.336943      3.642028     -1.977844
  O      -1.916181      2.273387     -1.843743
  H      -1.586249      4.265269     -1.487323
  H      -2.391404      3.929991     -3.035874
  H      -2.626356      1.707124     -2.172907
  H      -1.761065     -3.414645      3.312630
  C      -1.841733     -2.632711      2.544238
  O      -0.823846     -1.633841      2.704959
  H      -2.808213     -2.133354      2.650217
  H      -1.798845     -3.102304      1.552984
  H       0.020139     -2.031371      2.458495
24
Coordinates from ORCA-job 4Cluster E -462.836313698419
  C      -1.688106      1.501431      1.451126
  O      -0.659646      1.414756      0.456108
  H      -1.237947      1.289621      2.423476
  H      -2.124708      2.509081      1.481940
  H      -2.494573      0.779222      1.262791
  H      -1.051194      1.734273     -0.384021
  H      -2.255963     -1.404931     -0.467650
  C      -1.372687     -1.550030     -1.106874
  O      -0.163101     -1.228156     -0.412995
  H      -1.492024     -0.941741     -2.015343
  H      -1.317581     -2.602854     -1.399074
  H      -0.250182     -0.298863     -0.118919
  H      -3.319602      3.798809     -1.489240
  C      -2.348056      3.641458     -1.972923
  O      -1.915508      2.276173     -1.848198
  H      -1.591927      4.268974     -1.495261
  H      -2.422290      3.928573     -3.030068
  H      -2.624096      1.705312     -2.173215
  H      -1.776119     -3.408629      3.306379
  C      -1.854777     -2.628527      2.535363
  O      -0.841631     -1.624565      2.706824
  H      -2.823970     -2.133583      2.632445
  H      -1.796627     -3.099424      1.545498
  H       0.007637     -2.025022      2.484992
24
Coordinates from ORCA-job 4Cluster E -462.836394830403
  C      -1.668491      1.510030      1.455706
  O      -0.651904      1.419718      0.449133
  H      -1.210993      1.300064      2.425552
  H      -2.103803      2.518269      1.489084
  H      -2.475887      0.786075      1.277418
  H      -1.057325      1.732633     -0.386131
  H      -2.258605     -1.427039     -0.492850
  C      -1.363675     -1.562428     -1.118590
  O      -0.168205     -1.232356     -0.406749
  H      -1.475743     -0.954647     -2.029082
  H      -1.299190     -2.614807     -1.411812
  H      -0.260962     -0.303079     -0.114236
  H      -3.318615      3.788910     -1.455015
  C      -2.357354      3.632549     -1.959531
  O      -1.915477      2.268968     -1.850828
  H      -1.591951      4.259449     -1.495875
  H      -2.457212      3.920920     -3.014220
  H      -2.623359      1.694818     -2.171753
  H      -1.791756     -3.394375      3.294298
  C      -1.866839     -2.615609      2.521423
  O      -0.861624     -1.604446      2.707973
  H      -2.840368     -2.126686      2.608224
  H      -1.789520     -3.087119      1.532811
  H      -0.005821     -2.008451      2.518213
24
Coordinates from ORCA-job 4Cluster E -462.836477154922
  C      -1.652937      1.519342      1.459351
  O      -0.647630      1.422223      0.441689
  H      -1.186381      1.311012      2.426000
  H      -2.083305      2.529762      1.494041
  H      -2.462638      0.795291      1.292731
  H      -1.065007      1.729580     -0.390269
  H      -2.265206     -1.439630     -0.515716
  C      -1.359172     -1.565970     -1.127256
  O      -0.176358     -1.231378     -0.398014
  H      -1.462539     -0.957915     -2.038886
  H      -1.287912     -2.617765     -1.422373
  H      -0.275992     -0.300818     -0.107587
  H      -3.313685      3.779394     -1.426186
  C      -2.363834      3.624341     -1.952693
  O      -1.913836      2.261840     -1.857171
  H      -1.590922      4.250796     -1.501215
  H      -2.487606      3.914010     -3.004285
  H      -2.620771      1.683122     -2.172266
  H      -1.806985     -3.390369      3.284935
  C      -1.872806     -2.611834      2.510989
  O      -0.877429     -1.594066      2.714367
  H      -2.850434     -2.127559      2.583922
  H      -1.775512     -3.082766      1.523756
  H      -0.015782     -1.999283      2.555296
24
Coordinates from ORCA-job 4Cluster E -462.836581891432
  C      -1.646552      1.526282      1.457458
  O      -0.641406      1.425072      0.438505
  H      -1.177856      1.318624      2.423931
  H      -2.072473      2.538404      1.489183
  H      -2.457624      0.802856      1.294130
  H      -1.065077      1.724150     -0.392974
  H      -2.274471     -1.437035     -0.530389
  C      -1.362120     -1.557986     -1.133140
  O      -0.185595     -1.226017     -0.393336
  H      -1.458292     -0.948800     -2.045025
  H      -1.290663     -2.609298     -1.430847
  H      -0.286741     -0.294455     -0.102888
  H      -3.299544      3.764419     -1.391935
  C      -2.364347      3.608504     -1.943957
  O      -1.911871      2.244796     -1.863777
  H      -1.582339      4.230202     -1.502437
  H      -2.511496      3.902769     -2.990864
  H      -2.619545      1.664149     -2.172995
  H      -1.817891     -3.388345      3.273370
  C      -1.871598     -2.608179      2.500741
  O      -0.887632     -1.584973      2.723373
  H      -2.853366     -2.127370      2.558254
  H      -1.756105     -3.076426      1.513791
  H      -0.020075     -1.989985      2.594985
24
Coordinates from ORCA-job 4Cluster E -462.836690330219
  C      -1.639454      1.532632      1.457047
  O      -0.634424      1.428145      0.435552
  H      -1.166719      1.325708      2.421980
  H      -2.061823      2.546003      1.484766
  H      -2.452064      0.810282      1.297343
  H      -1.065176      1.719460     -0.397236
  H      -2.283027     -1.430108     -0.544232
  C      -1.365509     -1.548354     -1.138617
  O      -0.194137     -1.219593     -0.388671
  H      -1.454567     -0.938742     -2.050958
  H      -1.292383     -2.599316     -1.437639
  H      -0.296459     -0.287266     -0.098432
  H      -3.285048      3.744111     -1.358246
  C      -2.365292      3.592053     -1.936764
  O      -1.910129      2.227863     -1.871399
  H      -1.574713      4.210590     -1.506415
  H      -2.536214      3.892826     -2.977789
  H      -2.619536      1.645889     -2.173779
  H      -1.831712     -3.387718      3.261546
  C      -1.870777     -2.605120      2.491152
  O      -0.897198     -1.578960      2.733170
  H      -2.855066     -2.127220      2.530123
  H      -1.738719     -3.069893      1.504623
  H      -0.024536     -1.981910      2.636033
24
Coordinates from ORCA-job 4Cluster E -462.836818440888
  C      -1.633058      1.543853      1.453869
  O      -0.623011      1.437328      0.435012
  H      -1.159286      1.340060      2.418709
  H      -2.056232      2.556857      1.473343
  H      -2.446529      0.822757      1.293799
  H      -1.059108      1.713828     -0.400608
  H      -2.294745     -1.412212     -0.556601
  C      -1.374133     -1.531933     -1.145185
  O      -0.206381     -1.211618     -0.385493
  H      -1.453643     -0.920862     -2.057452
  H      -1.301880     -2.582132     -1.446466
  H      -0.305807     -0.278972     -0.094695
  H      -3.260105      3.708889     -1.307128
  C      -2.363508      3.563618     -1.922706
  O      -1.908233      2.197501     -1.882688
  H      -1.558668      4.176151     -1.509959
  H      -2.568392      3.876235     -2.953764
  H      -2.623369      1.617866     -2.175915
  H      -1.848986     -3.386084      3.242703
  C      -1.867877     -2.600085      2.475545
  O      -0.906827     -1.571760      2.746527
  H      -2.855239     -2.126103      2.486314
  H      -1.711341     -3.059373      1.489705
  H      -0.028320     -1.972449      2.696296
24
Coordinates from ORCA-job 4Cluster E -462.836918337309
  C      -1.620396      1.557525      1.453614
  O      -0.614283      1.446894      0.430271
  H      -1.140670      1.357009      2.415577
  H      -2.045090      2.569987      1.467929
  H      -2.435648      0.837630      1.298762
  H      -1.058411      1.710029     -0.407411
  H      -2.307120     -1.395370     -0.572066
  C      -1.380504     -1.517993     -1.151140
  O      -0.220254     -1.202155     -0.378016
  H      -1.448578     -0.907260     -2.064195
  H      -1.304838     -2.567836     -1.452674
  H      -0.319966     -0.268773     -0.089834
  H      -3.238252      3.670741     -1.261024
  C      -2.363645      3.537071     -1.910173
  O      -1.905575      2.171756     -1.894521
  H      -1.546688      4.148148     -1.519444
  H      -2.603406      3.859422     -2.930486
  H      -2.626374      1.593117     -2.176624
  H      -1.868778     -3.386540      3.223447
  C      -1.868268     -2.598126      2.458727
  O      -0.919055     -1.567741      2.760073
  H      -2.857229     -2.128973      2.439644
  H      -1.683289     -3.051773      1.475514
  H      -0.038364     -1.965428      2.757208
24
Coordinates from ORCA-job 4Cluster E -462.836994478067
  C      -1.619230      1.566579      1.452559
  O      -0.612680      1.454957      0.431104
  H      -1.140229      1.368811      2.414208
  H      -2.047806      2.577512      1.464066
  H      -2.434929      0.846552      1.298071
  H      -1.054204      1.710669     -0.409207
  H      -2.314311     -1.378443     -0.571050
  C      -1.388462     -1.507732     -1.150343
  O      -0.226862     -1.196848     -0.375872
  H      -1.452421     -0.895837     -2.062444
  H      -1.314854     -2.557205     -1.452540
  H      -0.322195     -0.263510     -0.087703
  H      -3.227499      3.651395     -1.248192
  C      -2.359758      3.524668     -1.907430
  O      -1.904036      2.159115     -1.902746
  H      -1.536949      4.135456     -1.526620
  H      -2.611998      3.852412     -2.923150
  H      -2.630615      1.585229     -2.178667
  H      -1.874073     -3.392314      3.216492
  C      -1.865098     -2.603452      2.452164
  O      -0.919377     -1.573980      2.768436
  H      -2.852976     -2.135142      2.417805
  H      -1.664485     -3.055997      1.471733
  H      -0.039634     -1.971537      2.782485
24
Coordinates from ORCA-job 4Cluster E -462.837080829532
  C      -1.607563      1.584514      1.458111
  O      -0.611348      1.467929      0.429080
  H      -1.122707      1.392596      2.417963
  H      -2.039867      2.594238      1.470043
  H      -2.422627      0.862219      1.312900
  H      -1.056078      1.713204     -0.413349
  H      -2.323493     -1.370702     -0.582421
  C      -1.392877     -1.503259     -1.153423
  O      -0.238120     -1.193639     -0.369065
  H      -1.448369     -0.891029     -2.065520
  H      -1.317347     -2.552238     -1.457323
  H      -0.331517     -0.260835     -0.084151
  H      -3.217098      3.628730     -1.228252
  C      -2.360137      3.510913     -1.903220
  O      -1.901698      2.146475     -1.918309
  H      -1.528054      4.122734     -1.542023
  H      -2.637278      3.843647     -2.911146
  H      -2.636984      1.577050     -2.182813
  H      -1.891749     -3.396565      3.206257
  C      -1.866255     -2.610152      2.439250
  O      -0.927514     -1.578363      2.779673
  H      -2.853258     -2.144926      2.378923
  H      -1.633409     -3.064131      1.466470
  H      -0.049337     -1.977051      2.825506
24
Coordinates from ORCA-job 4Cluster E -462.837129831364
  C      -1.615005      1.590306      1.451147
  O      -0.615377      1.476591      0.428096
  H      -1.135180      1.396973      2.412602
  H      -2.048125      2.599817      1.466078
  H      -2.429661      0.866602      1.304596
  H      -1.049441      1.717461     -0.418102
  H      -2.332306     -1.346846     -0.569896
  C      -1.404770     -1.490389     -1.144641
  O      -0.242589     -1.184671     -0.368017
  H      -1.460563     -0.876725     -2.056352
  H      -1.336372     -2.540708     -1.445152
  H      -0.326546     -0.250721     -0.081730
  H      -3.208536      3.620115     -1.231443
  C      -2.350571      3.502471     -1.904159
  O      -1.898839      2.138097     -1.923120
  H      -1.518148      4.112718     -1.547831
  H      -2.629344      3.836988     -2.911159
  H      -2.640195      1.574727     -2.179911
  H      -1.888500     -3.408897      3.201548
  C      -1.858694     -2.621356      2.435943
  O      -0.923651     -1.589330      2.789508
  H      -2.844462     -2.156926      2.367399
  H      -1.609855     -3.074870      1.467254
  H      -0.047952     -1.990065      2.830505
24
Coordinates from ORCA-job 4Cluster E -462.837182150993
  C      -1.610056      1.599869      1.453680
  O      -0.613912      1.482301      0.427343
  H      -1.128559      1.408851      2.415434
  H      -2.040306      2.610399      1.469412
  H      -2.423494      0.874918      1.312382
  H      -1.050852      1.716348     -0.420786
  H      -2.339434     -1.343266     -0.580477
  C      -1.408041     -1.485048     -1.148206
  O      -0.250332     -1.181790     -0.365513
  H      -1.458675     -0.872428     -2.060399
  H      -1.341211     -2.535413     -1.449676
  H      -0.332756     -0.248245     -0.079811
  H      -3.197821      3.610653     -1.214728
  C      -2.350523      3.492668     -1.901097
  O      -1.896682      2.127313     -1.934553
  H      -1.511387      4.101410     -1.555443
  H      -2.646987      3.830398     -2.902014
  H      -2.643309      1.566325     -2.182473
  H      -1.900464     -3.411026      3.194618
  C      -1.856333     -2.624715      2.428410
  O      -0.930712     -1.588501      2.799324
  H      -2.843054     -2.162405      2.342391
  H      -1.585286     -3.078404      1.465074
  H      -0.054491     -1.988851      2.860269
24
Coordinates from ORCA-job 4Cluster E -462.837222481812
  C      -1.606820      1.602944      1.453495
  O      -0.614306      1.483768      0.422620
  H      -1.121243      1.410114      2.414140
  H      -2.031438      2.615600      1.472863
  H      -2.420049      0.877451      1.317205
  H      -1.054198      1.715479     -0.427312
  H      -2.344044     -1.336750     -0.587346
  C      -1.409678     -1.479809     -1.149187
  O      -0.254619     -1.176070     -0.363176
  H      -1.456681     -0.868992     -2.063355
  H      -1.343552     -2.531539     -1.446398
  H      -0.337386     -0.241089     -0.078288
  H      -3.190903      3.605412     -1.204849
  C      -2.350823      3.486545     -1.900313
  O      -1.893673      2.121851     -1.940299
  H      -1.510148      4.096095     -1.560846
  H      -2.657968      3.825295     -2.897620
  H      -2.642922      1.559822     -2.179132
  H      -1.909641     -3.414208      3.189462
  C      -1.854011     -2.627495      2.424851
  O      -0.938102     -1.588528      2.808493
  H      -2.840979     -2.167034      2.326419
  H      -1.570378     -3.080474      1.465626
  H      -0.061118     -1.987027      2.876105
24
Coordinates from ORCA-job 4Cluster E -462.837246007189
  C      -1.612378      1.603029      1.447226
  O      -0.612122      1.487017      0.422742
  H      -1.131851      1.408453      2.410500
  H      -2.035575      2.616088      1.467932
  H      -2.424570      0.876864      1.306664
  H      -1.047841      1.714876     -0.429966
  H      -2.346626     -1.322118     -0.582653
  C      -1.415755     -1.471171     -1.148444
  O      -0.255047     -1.172530     -0.368050
  H      -1.462829     -0.860999     -2.063268
  H      -1.357409     -2.524100     -1.442249
  H      -0.331062     -0.237715     -0.079754
  H      -3.180944      3.599624     -1.194527
  C      -2.346737      3.477809     -1.896314
  O      -1.892065      2.111319     -1.943178
  H      -1.503279      4.085120     -1.558749
  H      -2.659248      3.820172     -2.890681
  H      -2.645672      1.552267     -2.174549
  H      -1.912423     -3.415825      3.185039
  C      -1.848397     -2.627487      2.422856
  O      -0.939645     -1.587748      2.817174
  H      -2.835050     -2.167722      2.314526
  H      -1.557019     -3.079983      1.465512
  H      -0.061135     -1.983879      2.885370
24
Coordinates from ORCA-job 4Cluster E -462.837270838312
  C      -1.607649      1.605207      1.444550
  O      -0.612360      1.488599      0.415515
  H      -1.121916      1.409108      2.405237
  H      -2.029016      2.619059      1.470521
  H      -2.420311      0.879124      1.308456
  H      -1.050649      1.714813     -0.437829
  H      -2.348330     -1.311651     -0.586913
  C      -1.416272     -1.466631     -1.149566
  O      -0.257063     -1.167947     -0.366693
  H      -1.458772     -0.859264     -2.066529
  H      -1.359692     -2.520907     -1.437789
  H      -0.333837     -0.231856     -0.079887
  H      -3.176057      3.590111     -1.184227
  C      -2.347836      3.471778     -1.893732
  O      -1.888378      2.107297     -1.946341
  H      -1.504779      4.082619     -1.562610
  H      -2.670023      3.814686     -2.884766
  H      -2.644431      1.546509     -2.166675
  H      -1.922002     -3.418441      3.180753
  C      -1.848796     -2.629024      2.420476
  O      -0.947877     -1.588934      2.826899
  H      -2.834528     -2.171059      2.298293
  H      -1.545743     -3.080558      1.466600
  H      -0.068362     -1.981279      2.899416
24
Coordinates from ORCA-job 4Cluster E -462.837307067290
  C      -1.602039      1.607091      1.439243
  O      -0.609519      1.492936      0.408006
  H      -1.112813      1.410183      2.397836
  H      -2.025291      2.620300      1.471214
  H      -2.414333      0.879735      1.304716
  H      -1.050246      1.715969     -0.445623
  H      -2.346235     -1.300634     -0.590856
  C      -1.415047     -1.464543     -1.152904
  O      -0.255784     -1.168117     -0.369257
  H      -1.453091     -0.861352     -2.072704
  H      -1.363454     -2.520461     -1.435204
  H      -0.330648     -0.231953     -0.083094
  H      -3.170006      3.576612     -1.165365
  C      -2.350362      3.463734     -1.885376
  O      -1.885706      2.101260     -1.948608
  H      -1.506122      4.077914     -1.562265
  H      -2.685083      3.808630     -2.871507
  H      -2.644633      1.538368     -2.154028
  H      -1.934873     -3.415557      3.175495
  C      -1.851606     -2.625368      2.416815
  O      -0.959023     -1.585196      2.836683
  H      -2.835656     -2.169411      2.277057
  H      -1.535372     -3.077161      1.467483
  H      -0.077735     -1.971622      2.915402
24
Coordinates from ORCA-job 4Cluster E -462.837345665892
  C      -1.593251      1.607566      1.433330
  O      -0.605852      1.496576      0.398503
  H      -1.099242      1.409924      2.388778
  H      -2.020251      2.619355      1.472202
  H      -2.405316      0.878904      1.300657
  H      -1.050603      1.717397     -0.453651
  H      -2.340948     -1.292186     -0.597227
  C      -1.410648     -1.465631     -1.158034
  O      -0.252058     -1.171491     -0.372585
  H      -1.443188     -0.868218     -2.081384
  H      -1.365064     -2.523154     -1.434805
  H      -0.325807     -0.235570     -0.087746
  H      -3.166487      3.561858     -1.143885
  C      -2.355544      3.457436     -1.874581
  O      -1.883448      2.098201     -1.949628
  H      -1.510447      4.076048     -1.560117
  H      -2.703967      3.803331     -2.855596
  H      -2.643447      1.530762     -2.137273
  H      -1.950948     -3.408992      3.171630
  C      -1.857938     -2.618934      2.413524
  O      -0.973537     -1.577664      2.845833
  H      -2.840114     -2.165353      2.255669
  H      -1.526732     -3.071935      1.469779
  H      -0.089842     -1.956868      2.929766
24
Coordinates from ORCA-job 4Cluster E -462.837376251555
  C      -1.585751      1.605563      1.429014
  O      -0.602476      1.497870      0.391084
  H      -1.087784      1.406999      2.381807
  H      -2.015986      2.615987      1.472531
  H      -2.397786      0.876039      1.297364
  H      -1.050635      1.718499     -0.458873
  H      -2.335100     -1.288432     -0.603297
  C      -1.405307     -1.468602     -1.162660
  O      -0.246893     -1.176702     -0.375919
  H      -1.433657     -0.876178     -2.089152
  H      -1.365018     -2.527380     -1.435951
  H      -0.319266     -0.241150     -0.091649
  H      -3.166388      3.552391     -1.128439
  C      -2.361197      3.455853     -1.866311
  O      -1.882581      2.099345     -1.950068
  H      -1.515610      4.077512     -1.557486
  H      -2.719372      3.801996     -2.843689
  H      -2.641981      1.526718     -2.122860
  H      -1.964072     -3.401349      3.171247
  C      -1.864556     -2.612780      2.412334
  O      -0.986028     -1.569266      2.851555
  H      -2.845481     -2.160801      2.242568
  H      -1.521734     -3.067976      1.473797
  H      -0.100022     -1.942794      2.936210
24
Coordinates from ORCA-job 4Cluster E -462.837410575746
  C      -1.577173      1.601248      1.425013
  O      -0.598175      1.497159      0.382985
  H      -1.074487      1.401043      2.374851
  H      -2.009525      2.610600      1.471383
  H      -2.389546      0.871833      1.294352
  H      -1.050448      1.718340     -0.464036
  H      -2.329341     -1.283723     -0.611381
  C      -1.399372     -1.470731     -1.167803
  O      -0.241213     -1.182117     -0.379210
  H      -1.422244     -0.884035     -2.098023
  H      -1.365151     -2.530922     -1.437566
  H      -0.311431     -0.246779     -0.094909
  H      -3.166146      3.542317     -1.111467
  C      -2.368047      3.455176     -1.858025
  O      -1.882108      2.101666     -1.952080
  H      -1.521579      4.079007     -1.555668
  H      -2.738152      3.801788     -2.830705
  H      -2.640144      1.522545     -2.107317
  H      -1.979423     -3.392204      3.171859
  C      -1.871944     -2.606248      2.411325
  O      -1.000787     -1.558417      2.858140
  H      -2.851965     -2.156420      2.228995
  H      -1.514093     -3.063746      1.479353
  H      -0.112187     -1.926020      2.943092
24
Coordinates from ORCA-job 4Cluster E -462.837435862894
  C      -1.568693      1.591479      1.422865
  O      -0.592772      1.492096      0.376484
  H      -1.062289      1.388732      2.369730
  H      -2.001774      2.600296      1.469722
  H      -2.381641      0.862839      1.291682
  H      -1.049807      1.716500     -0.466892
  H      -2.322015     -1.283364     -0.620535
  C      -1.391180     -1.475059     -1.173254
  O      -0.233474     -1.189037     -0.383402
  H      -1.409466     -0.893689     -2.107430
  H      -1.361091     -2.536376     -1.439411
  H      -0.300970     -0.253801     -0.097519
  H      -3.169305      3.536560     -1.098140
  C      -2.376439      3.458639     -1.851138
  O      -1.883200      2.107930     -1.953200
  H      -1.529945      4.084140     -1.552692
  H      -2.755747      3.805800     -2.820017
  H      -2.638482      1.521718     -2.093359
  H      -1.991478     -3.378643      3.176413
  C      -1.880558     -2.596818      2.412313
  O      -1.015490     -1.543738      2.860561
  H      -2.860421     -2.149605      2.223034
  H      -1.514023     -3.058606      1.486254
  H      -0.124419     -1.906632      2.941092
24
Coordinates from ORCA-job 4Cluster E -462.837402550370
  C      -1.564757      1.604136      1.429116
  O      -0.598127      1.493949      0.372095
  H      -1.049001      1.404620      2.373587
  H      -1.990981      2.615819      1.475155
  H      -2.385213      0.878410      1.311632
  H      -1.057318      1.716153     -0.470321
  H      -2.334192     -1.283014     -0.625620
  C      -1.395925     -1.469962     -1.171046
  O      -0.244344     -1.179745     -0.369773
  H      -1.408696     -0.884037     -2.103517
  H      -1.357579     -2.530525     -1.438629
  H      -0.317919     -0.242697     -0.085789
  H      -3.167314      3.537289     -1.105386
  C      -2.375080      3.459252     -1.863051
  O      -1.880354      2.109466     -1.962994
  H      -1.528385      4.086671     -1.569494
  H      -2.759458      3.806206     -2.833178
  H      -2.636488      1.523868     -2.105671
  H      -1.989944     -3.396945      3.176074
  C      -1.876601     -2.614515      2.411698
  O      -1.012860     -1.561132      2.867254
  H      -2.859309     -2.169231      2.217758
  H      -1.504051     -3.074798      1.483414
  H      -0.120784     -1.927877      2.959848
24
Coordinates from ORCA-job 4Cluster E -462.837435092084
  C      -1.573690      1.601263      1.433693
  O      -0.602065      1.487497      0.379719
  H      -1.063352      1.403099      2.381615
  H      -1.996926      2.614069      1.474387
  H      -2.394347      0.877917      1.313327
  H      -1.057650      1.713843     -0.463120
  H      -2.332656     -1.279673     -0.617794
  C      -1.398716     -1.465166     -1.167680
  O      -0.243416     -1.181156     -0.371928
  H      -1.414344     -0.878248     -2.097486
  H      -1.366349     -2.525042     -1.440025
  H      -0.316539     -0.245963     -0.085316
  H      -3.167756      3.552593     -1.129612
  C      -2.372210      3.469483     -1.876271
  O      -1.881750      2.117692     -1.970763
  H      -1.528730      4.094244     -1.573849
  H      -2.744507      3.816140     -2.844987
  H      -2.638319      1.534033     -2.118202
  H      -1.980233     -3.404070      3.188018
  C      -1.869435     -2.624872      2.420828
  O      -1.000747     -1.572481      2.864893
  H      -2.851555     -2.178295      2.234763
  H      -1.505723     -3.087345      1.492755
  H      -0.113665     -1.938203      2.946195
24
Coordinates from ORCA-job 4Cluster E -462.837341906019
  C      -1.575009      1.589470      1.422325
  O      -0.597697      1.486619      0.385572
  H      -1.077081      1.387441      2.368310
  H      -1.999384      2.600159      1.457404
  H      -2.382456      0.864088      1.293172
  H      -1.047202      1.710566     -0.458637
  H      -2.319624     -1.277244     -0.620964
  C      -1.392917     -1.470271     -1.173074
  O      -0.233939     -1.195201     -0.384581
  H      -1.406722     -0.884128     -2.103018
  H      -1.371381     -2.531311     -1.439560
  H      -0.302772     -0.259408     -0.095692
  H      -3.165174      3.543800     -1.099752
  C      -2.375188      3.463486     -1.857355
  O      -1.886149      2.113819     -1.965559
  H      -1.529666      4.082498     -1.555274
  H      -2.754965      3.817013     -2.823192
  H      -2.639504      1.529064     -2.105746
  H      -1.985306     -3.378989      3.187272
  C      -1.874793     -2.603203      2.417624
  O      -1.012686     -1.547604      2.858186
  H      -2.854998     -2.157883      2.228407
  H      -1.509759     -3.068920      1.494339
  H      -0.120309     -1.912503      2.942952
24
Coordinates from ORCA-job 4Cluster E -462.837402130175
  C      -1.565981      1.589627      1.421136
  O      -0.588605      1.491288      0.374223
  H      -1.058874      1.388834      2.370155
  H      -2.006549      2.596876      1.460351
  H      -2.379935      0.864155      1.285997
  H      -1.046038      1.717848     -0.468231
  H      -2.315375     -1.271072     -0.613094
  C      -1.386469     -1.473385     -1.169390
  O      -0.225984     -1.194971     -0.381048
  H      -1.402715     -0.891013     -2.103728
  H      -1.362056     -2.537077     -1.435310
  H      -0.286728     -0.259487     -0.091635
  H      -3.172285      3.541479     -1.098602
  C      -2.380386      3.464934     -1.853884
  O      -1.887436      2.111516     -1.960730
  H      -1.530705      4.088028     -1.556446
  H      -2.767359      3.814453     -2.822712
  H      -2.645072      1.524846     -2.093843
  H      -1.991924     -3.378951      3.179632
  C      -1.884406     -2.601067      2.412542
  O      -1.017352     -1.548344      2.859549
  H      -2.861602     -2.154290      2.229791
  H      -1.522890     -3.064850      1.492328
  H      -0.127955     -1.918017      2.936110
24
Coordinates from ORCA-job 4Cluster E -462.837408783510
  C      -1.568655      1.602124      1.428583
  O      -0.596301      1.488363      0.374817
  H      -1.058666      1.402592      2.376344
  H      -1.990099      2.615499      1.470522
  H      -2.390771      0.878651      1.308196
  H      -1.052067      1.710674     -0.468366
  H      -2.336365     -1.263708     -0.621585
  C      -1.400633     -1.454990     -1.167746
  O      -0.244584     -1.178000     -0.370876
  H      -1.412623     -0.870635     -2.099638
  H      -1.374537     -2.514466     -1.437075
  H      -0.310957     -0.243655     -0.082545
  H      -3.158115      3.537458     -1.108935
  C      -2.373498      3.458929     -1.870995
  O      -1.881624      2.108558     -1.978179
  H      -1.525968      4.084793     -1.577995
  H      -2.761857      3.809964     -2.833574
  H      -2.641294      1.523546     -2.112140
  H      -1.992561     -3.404719      3.183049
  C      -1.870190     -2.624608      2.416624
  O      -1.010115     -1.568063      2.874520
  H      -2.852946     -2.181524      2.212776
  H      -1.487482     -3.085783      1.489911
  H      -0.122773     -1.929637      2.967467
24
Coordinates from ORCA-job 4Cluster E -462.837488428390
  C      -1.568326      1.595444      1.428178
  O      -0.598168      1.484980      0.375360
  H      -1.058191      1.396371      2.374031
  H      -1.992704      2.607442      1.466239
  H      -2.387170      0.872644      1.306798
  H      -1.054250      1.712598     -0.465803
  H      -2.325111     -1.274582     -0.619416
  C      -1.392270     -1.468064     -1.168556
  O      -0.235904     -1.188462     -0.372732
  H      -1.403825     -0.881777     -2.099936
  H      -1.364533     -2.528894     -1.436190
  H      -0.305859     -0.252950     -0.083828
  H      -3.170447      3.549072     -1.116609
  C      -2.378352      3.470934     -1.870095
  O      -1.884859      2.121108     -1.972273
  H      -1.534400      4.096573     -1.570881
  H      -2.758266      3.820718     -2.836867
  H      -2.639250      1.535253     -2.111217
  H      -1.985369     -3.396221      3.189635
  C      -1.876107     -2.618957      2.420817
  O      -1.011334     -1.563789      2.863317
  H      -2.857487     -2.174454      2.232884
  H      -1.511828     -3.083447      1.495322
  H      -0.120669     -1.930181      2.944981
