      -----------------------------------------------------------      
     |                   =====================                   |     
     |                           x T B                           |     
     |                   =====================                   |     
     |                         S. Grimme                         |     
     |          Mulliken Center for Theoretical Chemistry        |     
     |                    University of Bonn                     |     
      -----------------------------------------------------------      

   * xtb version 6.7.1pre (5071a88) compiled by 'Marcel@Raven' on 2024-07-23

   xtb is free software: you can redistribute it and/or modify it under
   the terms of the GNU Lesser General Public License as published by
   the Free Software Foundation, either version 3 of the License, or
   (at your option) any later version.
   
   xtb is distributed in the hope that it will be useful,
   but WITHOUT ANY WARRANTY; without even the implied warranty of
   MERCHANTABILITY or FITNESS FOR A PARTICULAR PURPOSE.  See the
   GNU Lesser General Public License for more details.
   
   Cite this work as:
   * C. Bannwarth, E. Caldeweyher, S. Ehlert, A. Hansen, P. Pracht,
     J. Seibert, S. Spicher, S. Grimme, WIREs Comput. Mol. Sci., 2020, 11,
     e01493. DOI: 10.1002/wcms.1493
   
   for GFN2-xTB:
   * C. Bannwarth, S. Ehlert and S. Grimme., J. Chem. Theory Comput., 2019,
     15, 1652-1671. DOI: 10.1021/acs.jctc.8b01176
   for GFN1-xTB:
   * S. Grimme, C. Bannwarth, P. Shushkov, J. Chem. Theory Comput., 2017,
     13, 1989-2009. DOI: 10.1021/acs.jctc.7b00118
   for GFN0-xTB:
   * P. Pracht, E. Caldeweyher, S. Ehlert, S. Grimme, ChemRxiv, 2019, preprint.
     DOI: 10.26434/chemrxiv.8326202.v1
   for GFN-FF:
   * S. Spicher and S. Grimme, Angew. Chem. Int. Ed., 2020, 59, 15665-15673.
     DOI: 10.1002/anie.202004239
   
   for ALPB and GBSA implicit solvation:
   * S. Ehlert, M. Stahn, S. Spicher, S. Grimme, J. Chem. Theory Comput.,
     2021, 17, 4250-4261. DOI: 10.1021/acs.jctc.1c00471
   
   for ddCOSMO and CPCM-X implicit solvation:
   * M. Stahn, S. Ehlert, S. Grimme, J. Phys. Chem. A,
     2023, XX, XXXX-XXXX. DOI: 10.1021/acs.jpca.3c04382
   
   for DFT-D4:
   * E. Caldeweyher, C. Bannwarth and S. Grimme, J. Chem. Phys., 2017,
     147, 034112. DOI: 10.1063/1.4993215
   * E. Caldeweyher, S. Ehlert, A. Hansen, H. Neugebauer, S. Spicher,
     C. Bannwarth and S. Grimme, J. Chem. Phys., 2019, 150, 154122.
     DOI: 10.1063/1.5090222
   * E. Caldeweyher, J.-M. Mewes, S. Ehlert and S. Grimme, Phys. Chem. Chem. Phys.
     2020, 22, 8499-8512. DOI: 10.1039/D0CP00502A
   
   for sTDA-xTB:
   * S. Grimme and C. Bannwarth, J. Chem. Phys., 2016, 145, 054103.
     DOI: 10.1063/1.4959605
   
   in the mass-spec context:
   * V. Asgeirsson, C. Bauer and S. Grimme, Chem. Sci., 2017, 8, 4879.
     DOI: 10.1039/c7sc00601b
   * J. Koopman and S. Grimme, ACS Omega 2019, 4, 12, 15120-15133.
     DOI: 10.1021/acsomega.9b02011
   
   for metadynamics refer to:
   * S. Grimme, J. Chem. Theory Comput., 2019, 155, 2847-2862
     DOI: 10.1021/acs.jctc.9b00143
   
   for SPH calculations refer to:
   * S. Spicher and S. Grimme, J. Chem. Theory Comput., 2021, 17, 1701-1714
     DOI: 10.1021/acs.jctc.0c01306
   
   for ONIOM refer to:
   * C. Plett, A. Katbashev, S. Ehlert, S. Grimme, M. Bursch,
     Phys. Chem. Chem. Phys., 2023, 25, 17860-17868. DOI: 10.1039/D3CP02178E
   
   for DIPRO refer to:
   * J. Kohn, N. Gildemeister, S. Grimme, D. Fazzi, A. Hansen,
     J. Chem. Phys., 2023, just accepted.
   
   for PTB refer to:
   * S. Grimme, M. Mueller, A. Hansen, J. Chem. Phys., 2023, 158, 124111.
     DOI: 10.1063/5.0137838
   
   with help from (in alphabetical order)
   P. Atkinson, C. Bannwarth, F. Bohle, G. Brandenburg, E. Caldeweyher
   M. Checinski, S. Dohm, S. Ehlert, S. Ehrlich, I. Gerasimov, C. Hölzer
   A. Katbashev, J. Kohn, J. Koopman, C. Lavigne, S. Lehtola, F. März, M. Müller,
   F. Musil, H. Neugebauer, J. Pisarek, C. Plett, P. Pracht, F. Pultar,
   J. Seibert, P. Shushkov, S. Spicher, M. Stahn, M. Steiner, T. Strunk,
   J. Stückrath, T. Rose, and J. Unsleber
   
 * started run on 2026/10/03 at 18:55:51.821     
   ID    Z sym.   atoms
    1    1 H      1, 3, 6, 11, 12, 17, 19, 22, 24, 26-30, 39, 40, 42, 43, 45,
                  46, 48, 49, 52, 56, 57, 61, 62, 64, 65, 67, 68, 70, 71, 74,
                  78, 79, 82, 84, 87, 92, 93, 98, 100, 103, 105, 107-111
    2    6 C      2, 4, 5, 7-10, 13-16, 18, 20, 21, 23, 25, 38, 41, 44, 47,
                  50, 51, 53-55, 60, 63, 66, 69, 72, 73, 75-77, 83, 85, 86,
                  88-91, 94-97, 99, 101, 102, 104, 106
    3    7 N      31-34, 58, 80, 112-115
    4    8 O      35-37, 59, 81, 116-118

           -------------------------------------------------
          |                Calculation Setup                |
           -------------------------------------------------

          program call               : C:\ORCA_6.1.1\xTB_bigstack\xtb.exe p_A_D9.xyz -c 0 -u 0 -P 1 --acc 1.0 --namespace p_A_D9
          calculation namespace      : p_A_D9
          coordinate file            : p_A_D9.xyz
          omp threads                :                     1


molecular fragmentation (1/2 indicates fragments):
111111111111111111111111111111111111111111111111111111111112222222222222
2222222222222222222222222222222222222222222222
# atoms in fragment 1/2:    59    59
 fragment masses (1/2) :      459.50      459.50
CMA distance (Bohr)    :  22.298
constraining FC (au)   :  0.0500

           -------------------------------------------------
          |                 G F N 2 - x T B                 |
           -------------------------------------------------

        Reference                      10.1021/acs.jctc.8b01176
      * Hamiltonian:
        H0-scaling (s, p, d)           1.850000    2.230000    2.230000
        zeta-weighting                 0.500000
      * Dispersion:
        s8                             2.700000
        a1                             0.520000
        a2                             5.000000
        s9                             5.000000
      * Repulsion:
        kExp                           1.500000    1.000000
        rExp                           1.000000
      * Coulomb:
        alpha                          2.000000
        third order                    shell-resolved
        anisotropic                    true
        a3                             3.000000
        a5                             4.000000
        cn-shift                       1.200000
        cn-exp                         4.000000
        max-rad                        5.000000


          ...................................................
          :                      SETUP                      :
          :.................................................:
          :  # basis functions                 322          :
          :  # atomic orbitals                 322          :
          :  # shells                          186          :
          :  # electrons                       348          :
          :  max. iterations                   250          :
          :  Hamiltonian                  GFN2-xTB          :
          :  restarted?                      false          :
          :  GBSA solvation                  false          :
          :  PC potential                    false          :
          :  electronic temp.          300.0000000     K    :
          :  accuracy                    1.0000000          :
          :  -> integral cutoff          0.2500000E+02      :
          :  -> integral neglect         0.1000000E-07      :
          :  -> SCF convergence          0.1000000E-05 Eh   :
          :  -> wf. convergence          0.1000000E-03 e    :
          :  Broyden damping             0.4000000          :
          :  net charge                          0          :
          :  unpaired electrons                  0          :
          ...................................................

 iter      E             dE          RMSdq      gap      omega  full diag
   1   -197.4411668 -0.197441E+03  0.413E+00    2.90       0.0  T
   2   -197.9705323 -0.529365E+00  0.242E+00    2.67       1.0  T
   3   -198.0213020 -0.507698E-01  0.129E+00    3.15       1.0  T
   4   -198.0280699 -0.676790E-02  0.434E-01    2.90       1.0  T
   5   -198.0430282 -0.149582E-01  0.923E-02    2.95       1.0  T
   6   -198.0432406 -0.212456E-03  0.532E-02    2.97       1.0  T
   7   -198.0434072 -0.166560E-03  0.221E-02    3.00       1.0  T
   8   -198.0434141 -0.688170E-05  0.811E-03    3.00       1.1  T
   9   -198.0434164 -0.237403E-05  0.359E-03    3.00       2.6  T
  10   -198.0434166 -0.169109E-06  0.140E-03    3.00       6.6  T
  11   -198.0434167 -0.107912E-06  0.554E-04    3.00      16.6  T
  12   -198.0434167 -0.118964E-07  0.256E-04    3.00      36.0  T

   *** convergence criteria satisfied after 12 iterations ***

         #    Occupation            Energy/Eh            Energy/eV
      -------------------------------------------------------------
         1        2.0000           -0.7250055             -19.7284
       ...           ...                  ...                  ...
       168        2.0000           -0.3894201             -10.5967
       169        2.0000           -0.3845196             -10.4633
       170        2.0000           -0.3844513             -10.4615
       171        2.0000           -0.3834302             -10.4337
       172        2.0000           -0.3834135             -10.4332
       173        2.0000           -0.3805326             -10.3548
       174        2.0000           -0.3805324             -10.3548 (HOMO)
       175                         -0.2704476              -7.3593 (LUMO)
       176                         -0.2704138              -7.3583
       177                         -0.2421282              -6.5886
       178                         -0.2421230              -6.5885
       179                         -0.2356937              -6.4136
       ...                                ...                  ...
       322                          0.8660870              23.5674
      -------------------------------------------------------------
                  HL-Gap            0.1100848 Eh            2.9956 eV
             Fermi-level           -0.3254900 Eh           -8.8570 eV

 SCC (total)                   0 d,  0 h,  0 min,  0.386 sec
 SCC setup                      ...        0 min,  0.002 sec (  0.518%)
 Dispersion                     ...        0 min,  0.003 sec (  0.777%)
 classical contributions        ...        0 min,  0.001 sec (  0.259%)
 integral evaluation            ...        0 min,  0.037 sec (  9.585%)
 iterations                     ...        0 min,  0.199 sec ( 51.554%)
 molecular gradient             ...        0 min,  0.142 sec ( 36.788%)
 printout                       ...        0 min,  0.002 sec (  0.518%)

         :::::::::::::::::::::::::::::::::::::::::::::::::::::
         ::                     SUMMARY                     ::
         :::::::::::::::::::::::::::::::::::::::::::::::::::::
         :: total energy            -193.661001951570 Eh    ::
         :: gradient norm              1.318577078051 Eh/a0 ::
         :: HOMO-LUMO gap              2.995558640134 eV    ::
         ::.................................................::
         :: SCC energy              -198.043800787602 Eh    ::
         :: -> isotropic ES            0.296504402586 Eh    ::
         :: -> anisotropic ES          0.005980880688 Eh    ::
         :: -> anisotropic XC          0.036983663967 Eh    ::
         :: -> dispersion             -0.141645527090 Eh    ::
         :: repulsion energy           4.382798836032 Eh    ::
         :: add. restraining           0.000000000000 Eh    ::
         :: total charge              -0.000000000000 e     ::
         :::::::::::::::::::::::::::::::::::::::::::::::::::::

           -------------------------------------------------
          |                Property Printout                |
           -------------------------------------------------

    * Orbital Energies and Occupations

         #    Occupation            Energy/Eh            Energy/eV
      -------------------------------------------------------------
         1        2.0000           -0.7250055             -19.7284
       ...           ...                  ...                  ...
       162        2.0000           -0.4101314             -11.1602
       163        2.0000           -0.3998784             -10.8812
       164        2.0000           -0.3998528             -10.8805
       165        2.0000           -0.3912780             -10.6472
       166        2.0000           -0.3912762             -10.6472
       167        2.0000           -0.3894208             -10.5967
       168        2.0000           -0.3894201             -10.5967
       169        2.0000           -0.3845196             -10.4633
       170        2.0000           -0.3844513             -10.4615
       171        2.0000           -0.3834302             -10.4337
       172        2.0000           -0.3834135             -10.4332
       173        2.0000           -0.3805326             -10.3548
       174        2.0000           -0.3805324             -10.3548 (HOMO)
       175                         -0.2704476              -7.3593 (LUMO)
       176                         -0.2704138              -7.3583
       177                         -0.2421282              -6.5886
       178                         -0.2421230              -6.5885
       179                         -0.2356937              -6.4136
       180                         -0.2356825              -6.4132
       181                         -0.2346453              -6.3850
       182                         -0.2346451              -6.3850
       183                         -0.2307196              -6.2782
       184                         -0.2307074              -6.2779
       185                         -0.2175673              -5.9203
       ...                                ...                  ...
       322                          0.8660870              23.5674
      -------------------------------------------------------------
                  HL-Gap            0.1100848 Eh            2.9956 eV
             Fermi-level           -0.3254900 Eh           -8.8570 eV

     #   Z          covCN         q      C6AA      α(0)
     1   1 H        0.930     0.075     2.026     2.226
     2   6 C        2.936    -0.044    29.086     8.845
     3   1 H        0.930     0.072     2.065     2.247
     4   6 C        2.928     0.070    26.441     8.433
     5   6 C        3.764    -0.013    20.843     6.507
     6   1 H        0.930     0.058     2.219     2.329
     7   6 C        2.767     0.268    22.470     7.763
     8   6 C        3.096    -0.009    28.123     8.691
     9   6 C        3.070    -0.015    28.321     8.726
    10   6 C        3.821    -0.083    22.062     6.684
    11   1 H        0.930     0.078     1.999     2.211
    12   1 H        0.930     0.084     1.933     2.174
    13   6 C        3.172     0.026    27.037     8.494
    14   6 C        2.748     0.278    22.301     7.733
    15   6 C        2.920     0.046    26.960     8.515
    16   6 C        2.934    -0.044    29.087     8.845
    17   1 H        0.930     0.069     2.098     2.265
    18   6 C        2.932    -0.081    30.015     8.985
    19   1 H        0.930     0.066     2.134     2.284
    20   6 C        2.878     0.145    24.852     8.172
    21   6 C        2.936    -0.066    29.645     8.930
    22   1 H        0.930     0.080     1.979     2.200
    23   6 C        2.932    -0.046    29.135     8.852
    24   1 H        0.930     0.081     1.971     2.195
    25   6 C        3.664     0.013    20.618     6.513
    26   1 H        0.930     0.073     2.051     2.239
    27   1 H        0.930     0.059     2.206     2.322
    28   1 H        0.930     0.056     2.248     2.345
    29   1 H        0.862     0.206     1.076     1.625
    30   1 H        0.863     0.211     1.049     1.604
    31   7 N        2.745    -0.119    23.597     7.215
    32   7 N        3.019     0.088    19.714     6.595
    33   7 N        1.991    -0.242    27.119     7.723
    34   7 N        2.645    -0.284    27.324     7.763
    35   8 O        0.858    -0.444    22.577     6.371
    36   8 O        0.860    -0.448    22.666     6.383
    37   8 O        1.705    -0.280    18.639     5.829
    38   6 C        3.762    -0.011    20.812     6.503
    39   1 H        0.930     0.057     2.231     2.336
    40   1 H        0.930     0.060     2.196     2.317
    41   6 C        3.827    -0.083    22.057     6.683
    42   1 H        0.930     0.055     2.255     2.348
    43   1 H        0.930     0.057     2.230     2.335
    44   6 C        3.825    -0.080    21.997     6.674
    45   1 H        0.930     0.053     2.286     2.364
    46   1 H        0.930     0.051     2.311     2.377
    47   6 C        3.826    -0.107    22.518     6.752
    48   1 H        0.930     0.074     2.039     2.233
    49   1 H        0.930     0.076     2.015     2.220
    50   6 C        2.766     0.268    22.474     7.764
    51   6 C        2.935    -0.056    29.380     8.890
    52   1 H        0.930     0.066     2.133     2.284
    53   6 C        2.930     0.070    26.440     8.433
    54   6 C        2.938    -0.042    29.044     8.839
    55   6 C        2.935    -0.056    29.403     8.893
    56   1 H        0.930     0.069     2.092     2.262
    57   1 H        0.930     0.070     2.080     2.255
    58   7 N        2.739    -0.113    23.465     7.194
    59   8 O        0.859    -0.467    23.065     6.439
    60   6 C        3.762    -0.011    20.812     6.503
    61   1 H        0.930     0.057     2.231     2.336
    62   1 H        0.930     0.060     2.196     2.317
    63   6 C        3.827    -0.083    22.057     6.683
    64   1 H        0.930     0.055     2.255     2.348
    65   1 H        0.930     0.057     2.230     2.335
    66   6 C        3.825    -0.080    21.997     6.674
    67   1 H        0.930     0.053     2.286     2.364
    68   1 H        0.930     0.051     2.311     2.377
    69   6 C        3.826    -0.107    22.518     6.752
    70   1 H        0.930     0.074     2.039     2.233
    71   1 H        0.930     0.076     2.015     2.220
    72   6 C        2.766     0.268    22.474     7.764
    73   6 C        2.935    -0.056    29.380     8.890
    74   1 H        0.930     0.066     2.133     2.284
    75   6 C        2.930     0.070    26.440     8.433
    76   6 C        2.938    -0.042    29.044     8.839
    77   6 C        2.935    -0.056    29.403     8.893
    78   1 H        0.930     0.069     2.092     2.262
    79   1 H        0.930     0.070     2.080     2.255
    80   7 N        2.739    -0.113    23.465     7.194
    81   8 O        0.859    -0.467    23.065     6.439
    82   1 H        0.930     0.075     2.026     2.226
    83   6 C        2.936    -0.044    29.086     8.845
    84   1 H        0.930     0.072     2.065     2.247
    85   6 C        2.928     0.070    26.441     8.433
    86   6 C        3.764    -0.013    20.843     6.507
    87   1 H        0.930     0.058     2.219     2.329
    88   6 C        2.767     0.268    22.470     7.763
    89   6 C        3.096    -0.009    28.123     8.691
    90   6 C        3.070    -0.015    28.321     8.726
    91   6 C        3.821    -0.083    22.062     6.684
    92   1 H        0.930     0.078     1.999     2.211
    93   1 H        0.930     0.084     1.933     2.174
    94   6 C        3.172     0.026    27.037     8.494
    95   6 C        2.748     0.278    22.301     7.733
    96   6 C        2.920     0.046    26.960     8.515
    97   6 C        2.934    -0.044    29.087     8.845
    98   1 H        0.930     0.069     2.098     2.265
    99   6 C        2.932    -0.081    30.015     8.985
   100   1 H        0.930     0.066     2.134     2.284
   101   6 C        2.878     0.145    24.852     8.172
   102   6 C        2.936    -0.066    29.645     8.930
   103   1 H        0.930     0.080     1.979     2.200
   104   6 C        2.932    -0.046    29.135     8.852
   105   1 H        0.930     0.081     1.971     2.195
   106   6 C        3.664     0.013    20.618     6.513
   107   1 H        0.930     0.073     2.051     2.239
   108   1 H        0.930     0.059     2.206     2.322
   109   1 H        0.930     0.056     2.248     2.345
   110   1 H        0.862     0.206     1.076     1.625
   111   1 H        0.863     0.211     1.049     1.604
   112   7 N        2.745    -0.119    23.597     7.215
   113   7 N        3.019     0.088    19.714     6.595
   114   7 N        1.991    -0.242    27.119     7.723
   115   7 N        2.645    -0.284    27.324     7.763
   116   8 O        0.858    -0.444    22.577     6.371
   117   8 O        0.860    -0.448    22.666     6.383
   118   8 O        1.705    -0.280    18.639     5.829

 Mol. C6AA /au·bohr⁶  :     167554.929914
 Mol. C8AA /au·bohr⁸  :    4001348.926970
 Mol. α(0) /au        :        634.453129


Wiberg/Mayer (AO) data.
largest (>0.10) Wiberg bond orders for each atom

 ---------------------------------------------------------------------------
     #   Z sym  total        # sym  WBO       # sym  WBO       # sym  WBO
 ---------------------------------------------------------------------------
     1   1 H    0.994 --    54 C    0.973
     2   6 C    3.992 --    54 C    1.441     4 C    1.404     3 H    0.973
                            51 C    0.109
     3   1 H    0.995 --     2 C    0.973
     4   6 C    3.965 --     2 C    1.404    55 C    1.402    31 N    0.996
     5   6 C    3.967 --    10 C    0.998     6 H    0.974    57 H    0.974
                            31 N    0.961
     6   1 H    0.997 --     5 C    0.974
     7   6 C    3.957 --    35 O    1.655    31 N    1.202     8 C    1.011
     8   6 C    3.952 --     9 C    1.431    32 N    1.219     7 C    1.011
                            33 N    0.135
     9   6 C    3.981 --     8 C    1.431    13 C    1.322    10 C    1.012
    10   6 C    3.989 --     9 C    1.012     5 C    0.998    12 H    0.962
                            11 H    0.960
    11   1 H    0.994 --    10 C    0.960
    12   1 H    0.992 --    10 C    0.962
    13   6 C    3.968 --    33 N    1.427     9 C    1.322    14 C    1.000
    14   6 C    3.952 --    36 O    1.660    34 N    1.252    13 C    1.000
    15   6 C    3.956 --    16 C    1.402    23 C    1.371    32 N    1.006
    16   6 C    3.992 --    18 C    1.434    15 C    1.402    17 H    0.974
                            21 C    0.108
    17   1 H    0.995 --    16 C    0.974
    18   6 C    3.990 --    16 C    1.434    20 C    1.379    19 H    0.971
    19   1 H    0.995 --    18 C    0.971
    20   6 C    3.933 --    18 C    1.379    21 C    1.344    37 O    1.071
    21   6 C    3.991 --    23 C    1.477    20 C    1.344    22 H    0.972
                            16 C    0.108
    22   1 H    0.993 --    21 C    0.972
    23   6 C    3.990 --    21 C    1.477    15 C    1.371    24 H    0.972
    24   1 H    0.993 --    23 C    0.972
    25   6 C    3.936 --    27 H    0.981    28 H    0.980    26 H    0.979
                            37 O    0.967
    26   1 H    0.994 --    25 C    0.979
    27   1 H    0.996 --    25 C    0.981
    28   1 H    0.997 --    25 C    0.980
    29   1 H    0.957 --    34 N    0.941
    30   1 H    0.955 --    34 N    0.942
    31   7 N    3.472 --     7 C    1.202     4 C    0.996     5 C    0.961
                            35 O    0.189
    32   7 N    3.690 --     8 C    1.219    33 N    1.219    15 C    1.006
    33   7 N    2.965 --    13 C    1.427    32 N    1.219     8 C    0.135
    34   7 N    3.370 --    14 C    1.252    30 H    0.942    29 H    0.941
                            36 O    0.193
    35   8 O    2.001 --     7 C    1.655    31 N    0.189
    36   8 O    1.973 --    14 C    1.660    34 N    0.193
    37   8 O    2.208 --    20 C    1.071    25 C    0.967
    38   6 C    3.971 --    41 C    1.007    40 H    0.974    39 H    0.972
                            58 N    0.960
    39   1 H    0.997 --    38 C    0.972
    40   1 H    0.996 --    38 C    0.974
    41   6 C    3.992 --    38 C    1.007    44 C    1.006    42 H    0.979
                            43 H    0.971
    42   1 H    0.997 --    41 C    0.979
    43   1 H    0.996 --    41 C    0.971
    44   6 C    3.994 --    41 C    1.006    47 C    1.002    46 H    0.981
                            45 H    0.977
    45   1 H    0.997 --    44 C    0.977
    46   1 H    0.997 --    44 C    0.981
    47   6 C    3.990 --    44 C    1.002    50 C    0.976    49 H    0.964
                            48 H    0.954
    48   1 H    0.994 --    47 C    0.954
    49   1 H    0.994 --    47 C    0.964
    50   6 C    3.951 --    59 O    1.658    58 N    1.237    47 C    0.976
    51   6 C    3.994 --    55 C    1.442    53 C    1.406    52 H    0.974
                             2 C    0.109
    52   1 H    0.995 --    51 C    0.974
    53   6 C    3.968 --    51 C    1.406    54 C    1.405    58 N    0.991
    54   6 C    3.993 --     2 C    1.441    53 C    1.405     1 H    0.973
                            55 C    0.110
    55   6 C    3.993 --    51 C    1.442     4 C    1.402    56 H    0.974
                            54 C    0.110
    56   1 H    0.995 --    55 C    0.974
    57   1 H    0.995 --     5 C    0.974
    58   7 N    3.480 --    50 C    1.237    53 C    0.991    38 C    0.960
                            59 O    0.189
    59   8 O    1.968 --    50 C    1.658    58 N    0.189
    60   6 C    3.971 --    63 C    1.007    62 H    0.974    61 H    0.972
                            80 N    0.960
    61   1 H    0.997 --    60 C    0.972
    62   1 H    0.996 --    60 C    0.974
    63   6 C    3.992 --    60 C    1.007    66 C    1.006    64 H    0.979
                            65 H    0.971
    64   1 H    0.997 --    63 C    0.979
    65   1 H    0.996 --    63 C    0.971
    66   6 C    3.994 --    63 C    1.006    69 C    1.002    68 H    0.981
                            67 H    0.977
    67   1 H    0.997 --    66 C    0.977
    68   1 H    0.997 --    66 C    0.981
    69   6 C    3.990 --    66 C    1.002    72 C    0.976    71 H    0.964
                            70 H    0.954
    70   1 H    0.994 --    69 C    0.954
    71   1 H    0.994 --    69 C    0.964
    72   6 C    3.951 --    81 O    1.658    80 N    1.237    69 C    0.976
    73   6 C    3.994 --    77 C    1.442    75 C    1.406    74 H    0.974
                            83 C    0.109
    74   1 H    0.995 --    73 C    0.974
    75   6 C    3.968 --    73 C    1.406    76 C    1.405    80 N    0.991
    76   6 C    3.993 --    83 C    1.441    75 C    1.405    82 H    0.973
                            77 C    0.110
    77   6 C    3.993 --    73 C    1.442    85 C    1.402    78 H    0.974
                            76 C    0.110
    78   1 H    0.995 --    77 C    0.974
    79   1 H    0.995 --    86 C    0.974
    80   7 N    3.480 --    72 C    1.237    75 C    0.991    60 C    0.960
                            81 O    0.189
    81   8 O    1.968 --    72 C    1.658    80 N    0.189
    82   1 H    0.994 --    76 C    0.973
    83   6 C    3.992 --    76 C    1.441    85 C    1.404    84 H    0.973
                            73 C    0.109
    84   1 H    0.995 --    83 C    0.973
    85   6 C    3.965 --    83 C    1.404    77 C    1.402   112 N    0.996
    86   6 C    3.967 --    91 C    0.998    87 H    0.974    79 H    0.974
                           112 N    0.961
    87   1 H    0.997 --    86 C    0.974
    88   6 C    3.957 --   116 O    1.655   112 N    1.202    89 C    1.011
    89   6 C    3.952 --    90 C    1.431   113 N    1.219    88 C    1.011
                           114 N    0.135
    90   6 C    3.981 --    89 C    1.431    94 C    1.322    91 C    1.012
    91   6 C    3.989 --    90 C    1.012    86 C    0.998    93 H    0.962
                            92 H    0.960
    92   1 H    0.994 --    91 C    0.960
    93   1 H    0.992 --    91 C    0.962
    94   6 C    3.968 --   114 N    1.427    90 C    1.322    95 C    1.000
    95   6 C    3.952 --   117 O    1.660   115 N    1.252    94 C    1.000
    96   6 C    3.956 --    97 C    1.402   104 C    1.371   113 N    1.006
    97   6 C    3.992 --    99 C    1.434    96 C    1.402    98 H    0.974
                           102 C    0.108
    98   1 H    0.995 --    97 C    0.974
    99   6 C    3.990 --    97 C    1.434   101 C    1.379   100 H    0.971
   100   1 H    0.995 --    99 C    0.971
   101   6 C    3.933 --    99 C    1.379   102 C    1.344   118 O    1.071
   102   6 C    3.991 --   104 C    1.477   101 C    1.344   103 H    0.972
                            97 C    0.108
   103   1 H    0.993 --   102 C    0.972
   104   6 C    3.990 --   102 C    1.477    96 C    1.371   105 H    0.972
   105   1 H    0.993 --   104 C    0.972
   106   6 C    3.936 --   108 H    0.981   109 H    0.980   107 H    0.979
                           118 O    0.967
   107   1 H    0.994 --   106 C    0.979
   108   1 H    0.996 --   106 C    0.981
   109   1 H    0.997 --   106 C    0.980
   110   1 H    0.957 --   115 N    0.941
   111   1 H    0.955 --   115 N    0.942
   112   7 N    3.472 --    88 C    1.202    85 C    0.996    86 C    0.961
                           116 O    0.189
   113   7 N    3.690 --    89 C    1.219   114 N    1.219    96 C    1.006
   114   7 N    2.965 --    94 C    1.427   113 N    1.219    89 C    0.135
   115   7 N    3.370 --    95 C    1.252   111 H    0.942   110 H    0.941
                           117 O    0.193
   116   8 O    2.001 --    88 C    1.655   112 N    0.189
   117   8 O    1.973 --    95 C    1.660   115 N    0.193
   118   8 O    2.208 --   101 C    1.071   106 C    0.967
 ---------------------------------------------------------------------------

Topologies differ in total number of bonds
Writing topology from bond orders to xtbtopo.mol

molecular dipole:
                 x           y           z       tot (Debye)
 q only:       -0.000      -0.000       0.000
   full:        0.000      -0.000       0.000       0.000
molecular quadrupole (traceless):
                xx          xy          yy          xz          yz          zz
 q only:      -53.144     -16.150      16.931      33.463    -104.349      36.213
  q+dip:      -62.039     -24.096      26.738      35.354    -115.141      35.301
   full:      -58.966     -23.739      22.801      40.353    -113.822      36.165


           -------------------------------------------------
          | TOTAL ENERGY             -193.661001951570 Eh   |
          | GRADIENT NORM               1.318577078051 Eh/α |
          | HOMO-LUMO GAP               2.995558640134 eV   |
           -------------------------------------------------

------------------------------------------------------------------------
 * finished run on 2026/10/03 at 18:55:52.295     
------------------------------------------------------------------------
 total:
 * wall-time:     0 d,  0 h,  0 min,  0.471 sec
 *  cpu-time:     0 d,  0 h,  0 min,  0.453 sec
 * ratio c/w:     0.962 speedup
 SCF:
 * wall-time:     0 d,  0 h,  0 min,  0.387 sec
 *  cpu-time:     0 d,  0 h,  0 min,  0.391 sec
 * ratio c/w:     1.009 speedup

normal termination of xtb
