100
Coordinates from ORCA-job 10DMSO_XTB E -146.359139921530
  C          27.82484917393194    -17.32483293965494     -0.20030005915116
  S          28.72793789799835    -18.76971692704887      0.46487718857708
  C          30.35286061740233    -18.23140831500931     -0.20964531782046
  O          28.38546865765842    -19.88369965685116     -0.48505450981461
  H          28.02688839060924    -17.21844015874847     -1.26004405812702
  H          26.77226314706364    -17.50021701806551     -0.02032863060414
  H          28.16245490846920    -16.46275875990738      0.35936172925796
  H          30.57548679850671    -17.24999553079727      0.18529893734118
  H          31.10235480052931    -18.94182322179775      0.11973196793939
  H          30.30214769432968    -18.22434911786897     -1.29321065350000
  C          29.17629947866866    -16.83627648927665      5.06690764065728
  S          28.29217070097436    -17.27472365582637      3.51426424162493
  C          28.32687585067223    -19.07734373159295      3.82834170644689
  O          29.27963764907387    -17.05039558935504      2.42491950788928
  H          28.48511635262268    -16.98963505875124      5.88849702019972
  H          30.04960769106069    -17.47017687509783      5.17333769120720
  H          29.47688265792196    -15.79119460181712      5.02493768052920
  H          27.80489161655792    -19.54866561372527      3.00422628481701
  H          29.36098241967624    -19.39810161436475      3.87734849480210
  H          27.81044961418860    -19.26407374802351      4.76336910358211
  C          37.05534943670348    -11.98281708570345      5.34278183980349
  S          35.30786933200184    -11.91582849291046      4.75863498162288
  C          35.68213215850034    -10.90315030244699      3.26090968799186
  O          34.61578245762149    -11.02003744362792      5.68927220854342
  H          37.64234564519633    -12.51987875914546      4.60872634955285
  H          37.42708492942307    -10.97453145272414      5.48660526493395
  H          37.06091066077397    -12.51100999640220      6.29053476907634
  H          36.31532948736760    -11.49217405949800      2.60865135097029
  H          34.73920986328701    -10.67900859630390      2.77341228048542
  H          36.16948965258869     -9.98144234882563      3.55556759831303
  C          38.28724637902655    -13.38863277554631      0.19230256317905
  S          38.69524767806337    -12.64960559584164      1.82790930722263
  C          40.51834010392604    -12.86248555988011      1.66774369522375
  O          38.27203633765834    -13.64822284068929      2.82421508448522
  H          37.20584926341104    -13.41992996090784      0.10476957907054
  H          38.70383259245602    -12.76106632695893     -0.58542508298161
  H          38.69168044299953    -14.39356925791945      0.13927223925844
  H          40.86389150106358    -12.29334448828396      0.81390951021432
  H          40.97341914810626    -12.48080226165612      2.57595193498429
  H          40.75065920952129    -13.91555066248277      1.55840828812526
  C          32.36464743813633    -17.47189465326015      2.62503686535599
  S          32.57705977851337    -18.25118676310019      4.25448079707780
  C          34.12575920592901    -19.16089984461185      3.83781785748698
  O          31.54933922189309    -19.31772448638513      4.34266615756778
  H          32.96411369575765    -16.56831252754534      2.59059087326112
  H          32.64418985025195    -18.17690655400533      1.84995070931526
  H          31.31091259961211    -17.22328235669119      2.52452067248486
  H          34.90313277713095    -18.44739584772908      3.59846856269434
  H          34.42334027629582    -19.75843467955323      4.69463124637451
  H          33.90546473217095    -19.79937572668127      2.98601197243057
  C          32.17171740603430    -12.44106488974691      3.58854901835871
  S          31.37937154001435    -14.08254141193541      3.85548565941238
  C          30.85170175794754    -14.28761227362943      2.10927330501476
  O          30.14578973987654    -13.81651891650460      4.61810221721486
  H          31.45313430275882    -11.75210152882773      3.16051683145978
  H          32.51941414702057    -12.06282187416271      4.54411025760534
  H          33.00644241247023    -12.61512317738255      2.92066267794810
  H          30.22473655637356    -15.17297975409241      2.05961966364548
  H          30.29184417479972    -13.41709305049793      1.78433727653138
  H          31.75324152281264    -14.42481334210217      1.52590267534529
  C          27.75868237337252    -22.33338915741715     -2.28316520341683
  S          26.08053574853311    -21.80437486949216     -2.81029045506319
  C          26.50496604235001    -20.02571707913152     -2.97487223742435
  O          25.22566342536249    -21.91771335363632     -1.61500699909331
  H          28.12396169460420    -21.64272043509279     -1.53050076766810
  H          27.68383886991766    -23.33689711055087     -1.88019571200029
  H          28.39778299991037    -22.33060836136166     -3.15806109859908
  H          27.05631355276092    -19.90908706997983     -3.90181728346910
  H          25.57870713271691    -19.46115357510183     -3.01590508709832
  H          27.10149415748003    -19.72291730145433     -2.11867894134396
  C          36.42225301819683    -15.97073768715796      2.00728116302150
  S          35.52648617819739    -14.55192783609852      2.77732747864003
  C          35.58701540227339    -15.22912560030379      4.48188248910566
  O          34.12820371867787    -14.69496568965948      2.33060953954295
  H          37.45388679040397    -15.90665807415287      2.32933364593711
  H          35.97770108587886    -16.91074035020727      2.30751947609902
  H          36.35143503410617    -15.86587613049861      0.93039663668641
  H          35.29017349479777    -16.27199076791124      4.49500702772697
  H          36.60710202940950    -15.10926074515720      4.82792392688803
  H          34.90763334267050    -14.65065489766529      5.09429055633007
  C          31.62329672981865    -22.12067847540182      3.43874114739445
  S          31.13332288315445    -20.80247222036993      2.24410319967404
  C          30.34935659010910    -21.98924656965758      1.06272321916219
  O          32.39568000919756    -20.43031758564918      1.56717176412114
  H          30.72896605395180    -22.62037275907911      3.79297948181255
  H          32.29408793398266    -22.81678283696923      2.94739473082165
  H          32.11955610932233    -21.63487226042603      4.26930540521826
  H          31.12582415499472    -22.53894067617060      0.54315386182852
  H          29.70154199067506    -22.66334483272285      1.60991968106058
  H          29.76472461435286    -21.40977458124745      0.35362786043813
  C          24.19031083120541    -20.52937619903077      0.78699730613995
  S          25.97938022828003    -20.35001395085639      0.38838477452502
  C          26.45092051605534    -21.97379815077058      1.09693620860992
  O          26.44045725864699    -19.37132538795163      1.41084250240661
  H          24.06810891200502    -20.68862489896832      1.85068029302132
  H          23.69438476611485    -19.60894061732337      0.49324518768050
  H          23.81196174979767    -21.35999031591666      0.20574412141992
  H          27.52407262757871    -22.06983610518656      0.98281323186799
  H          26.17923871179901    -21.99117784670634      2.14670631669510
  H          25.93509570392522    -22.74125708778540      0.53545683878627
