59
Coordinates from ORCA-job Apixaban_SMD_ethanol_Opt_Freq_KeepDens E -1542.156589356608
  C      23.821044    -17.585907     -0.047241
  C      24.218688    -18.528277      1.082817
  C      25.513274    -19.294877      0.889986
  N      26.422507    -18.805437     -0.017818
  C      26.104522    -17.739219     -0.997385
  C      25.042673    -16.789428     -0.478904
  C      27.679655    -19.458427     -0.178919
  C      28.509780    -19.678851      0.924598
  C      29.743965    -20.287393      0.763855
  C      30.181099    -20.672760     -0.507646
  C      29.360729    -20.441732     -1.611088
  C      28.114451    -19.844468     -1.445839
  N      31.437039    -21.322836     -0.665041
  C      31.528566    -22.416521     -1.664673
  C      32.524780    -23.493563     -1.248401
  C      33.796910    -22.827207     -0.859722
  C      33.782687    -21.534857     -0.366674
  C      32.576496    -20.718933     -0.165748
  O      25.743763    -20.294635      1.571727
  O      32.577766    -19.631975      0.408413
  C      35.153171    -23.192685     -0.863804
  N      35.920104    -22.184835     -0.407978
  N      35.082386    -21.189329     -0.100450
  C      35.620483    -19.971729      0.421051
  C      35.741642    -24.484194     -1.290846
  N      37.092035    -24.534501     -1.305913
  O      35.016908    -25.429961     -1.610269
  C      35.284538    -19.552001      1.706902
  C      35.845753    -18.394364      2.213057
  C      36.751992    -17.651809      1.441178
  C      37.094401    -18.084398      0.156017
  C      36.521760    -19.249536     -0.348011
  O      37.244089    -16.533984      2.029670
  C      38.188974    -15.751187      1.285994
  H      23.441072    -18.162321     -0.901466
  H      23.011694    -16.926204      0.285016
  H      24.358694    -17.956069      2.011659
  H      23.442881    -19.271541      1.291820
  H      27.037237    -17.205254     -1.208620
  H      25.759886    -18.194094     -1.937395
  H      25.436130    -16.212980      0.369257
  H      24.797894    -16.080343     -1.277791
  H      28.182315    -19.377150      1.913398
  H      30.374435    -20.466801      1.628125
  H      29.685504    -20.724758     -2.607642
  H      27.485013    -19.683164     -2.315557
  H      30.530407    -22.848238     -1.766587
  H      31.824246    -21.998497     -2.637770
  H      32.132517    -24.077881     -0.404450
  H      32.674082    -24.186525     -2.080044
  H      37.647574    -23.748140     -1.004438
  H      37.554019    -25.398084     -1.547962
  H      34.590460    -20.132589      2.305159
  H      35.599540    -18.052424      3.213952
  H      37.792926    -17.531065     -0.460577
  H      36.775681    -19.590662     -1.347599
  H      37.742389    -15.362351      0.362723
  H      38.459713    -14.917571      1.936245
  H      39.087056    -16.334485      1.048654
59
Coordinates from ORCA-job Apixaban_SMD_ethanol_Opt_Freq_KeepDens E -1542.156871195405
  C      23.837264    -17.563974     -0.049655
  C      24.216484    -18.533740      1.063039
  C      25.507043    -19.302195      0.865846
  N      26.428232    -18.804393     -0.019234
  C      26.129393    -17.714265     -0.978995
  C      25.069005    -16.767632     -0.452252
  C      27.683690    -19.463680     -0.179093
  C      28.508766    -19.693373      0.926192
  C      29.740707    -20.306430      0.766285
  C      30.180360    -20.685419     -0.506063
  C      29.364589    -20.445832     -1.611008
  C      28.121228    -19.843628     -1.446855
  N      31.436616    -21.336547     -0.663529
  C      31.527739    -22.433485     -1.659934
  C      32.526797    -23.507396     -1.243509
  C      33.798184    -22.837241     -0.857210
  C      33.781704    -21.544033     -0.366970
  C      32.574263    -20.731485     -0.169548
  O      25.721779    -20.323637      1.527787
  O      32.573414    -19.636623      0.395613
  C      35.155411    -23.198503     -0.859449
  N      35.920818    -22.187058     -0.408965
  N      35.081365    -21.194159     -0.102949
  C      35.616872    -19.974510      0.417753
  C      35.748270    -24.488951     -1.276589
  N      37.095006    -24.536905     -1.297134
  O      35.025114    -25.444353     -1.584824
  C      35.294401    -19.564370      1.710282
  C      35.851068    -18.403672      2.214204
  C      36.740432    -17.650259      1.434188
  C      37.071305    -18.073916      0.143468
  C      36.503148    -19.241682     -0.358734
  O      37.229465    -16.528075      2.022729
  C      38.156127    -15.727877      1.273667
  H      23.460715    -18.118759     -0.919487
  H      23.029981    -16.905866      0.290186
  H      24.351049    -17.984395      2.006670
  H      23.433969    -19.277232      1.247030
  H      27.068803    -17.183697     -1.167179
  H      25.792935    -18.146861     -1.931954
  H      25.457699    -16.211015      0.411201
  H      24.837720    -16.041223     -1.239491
  H      28.181786    -19.391709      1.915615
  H      30.366450    -20.494874      1.632504
  H      29.691708    -20.723736     -2.608213
  H      27.496057    -19.674152     -2.318039
  H      30.530228    -22.867406     -1.757538
  H      31.819827    -22.017363     -2.634622
  H      32.137224    -24.091842     -0.398194
  H      32.674193    -24.199566     -2.076508
  H      37.649957    -23.745497     -1.007406
  H      37.557502    -25.402417     -1.534359
  H      34.614817    -20.155189      2.315921
  H      35.614683    -18.068049      3.219802
  H      37.756908    -17.511494     -0.479317
  H      36.747629    -19.575629     -1.363068
  H      37.692805    -15.338989      0.358917
  H      38.423271    -14.895742      1.927382
  H      39.058030    -16.299000      1.022595
59
Coordinates from ORCA-job Apixaban_SMD_ethanol_Opt_Freq_KeepDens E -1542.156990434956
  C      23.855112    -17.547874     -0.042248
  C      24.221257    -18.550861      1.045342
  C      25.508760    -19.316138      0.833620
  N      26.437730    -18.802882     -0.025259
  C      26.155606    -17.682662     -0.956213
  C      25.093692    -16.746574     -0.413866
  C      27.694120    -19.462497     -0.186300
  C      28.514431    -19.699092      0.920123
  C      29.745101    -20.314929      0.760177
  C      30.186098    -20.686875     -0.513233
  C      29.374463    -20.440286     -1.619363
  C      28.132145    -19.836921     -1.455049
  N      31.441604    -21.341222     -0.671106
  C      31.528164    -22.445878     -1.659991
  C      32.527316    -23.518529     -1.239985
  C      33.799375    -22.847996     -0.855205
  C      33.783868    -21.551610     -0.373266
  C      32.579142    -20.736448     -0.186816
  O      25.719801    -20.353769      1.480092
  O      32.579176    -19.637736      0.377923
  C      35.156378    -23.209825     -0.850898
  N      35.921222    -22.198130     -0.399181
  N      35.082736    -21.202295     -0.105258
  C      35.614615    -19.980210      0.414714
  C      35.751777    -24.500822     -1.253596
  N      37.094670    -24.552861     -1.274791
  O      35.027146    -25.463503     -1.551910
  C      35.295649    -19.575725      1.709871
  C      35.844017    -18.410404      2.212350
  C      36.720289    -17.648399      1.427195
  C      37.048056    -18.065576      0.134389
  C      36.488381    -19.237720     -0.366609
  O      37.201434    -16.519453      2.014046
  C      38.109683    -15.705228      1.256709
  H      23.481369    -18.076306     -0.929425
  H      23.048966    -16.895759      0.311371
  H      24.352059    -18.030570      2.006030
  H      23.434734    -19.296448      1.201965
  H      27.100124    -17.152256     -1.116811
  H      25.829565    -18.087462     -1.924626
  H      25.477188    -16.213706      0.466637
  H      24.871927    -15.999596     -1.184373
  H      28.186285    -19.401043      1.910717
  H      30.366873    -20.511902      1.627677
  H      29.703165    -20.714717     -2.617090
  H      27.508603    -19.662402     -2.326488
  H      30.529748    -22.879192     -1.751104
  H      31.817469    -22.035623     -2.637792
  H      32.138109    -24.100630     -0.392957
  H      32.671364    -24.211236     -2.073313
  H      37.651770    -23.757938     -0.998297
  H      37.553990    -25.422031     -1.505284
  H      34.624711    -20.173965      2.318525
  H      35.610130    -18.077539      3.219492
  H      37.724220    -17.494722     -0.491290
  H      36.729483    -19.567039     -1.373314
  H      37.630607    -15.323754      0.347072
  H      38.369610    -14.870135      1.909488
  H      39.016917    -16.264098      0.997784
59
Coordinates from ORCA-job Apixaban_SMD_ethanol_Opt_Freq_KeepDens E -1542.157024220220
  C      23.862518    -17.539894     -0.055343
  C      24.208887    -18.566975      1.016635
  C      25.501179    -19.325929      0.812685
  N      26.441713    -18.800441     -0.023871
  C      26.177607    -17.658876     -0.934498
  C      25.108247    -16.733094     -0.389118
  C      27.697872    -19.461792     -0.182904
  C      28.511733    -19.706053      0.926084
  C      29.742408    -20.322926      0.768084
  C      30.187827    -20.687902     -0.505531
  C      29.382456    -20.433318     -1.614246
  C      28.140253    -19.828783     -1.451963
  N      31.442554    -21.344877     -0.661425
  C      31.527469    -22.450838     -1.649528
  C      32.527039    -23.523839     -1.230359
  C      33.799964    -22.853751     -0.848458
  C      33.785048    -21.557238     -0.366550
  C      32.580300    -20.743831     -0.174839
  O      25.696357    -20.382854      1.433899
  O      32.583703    -19.641630      0.383983
  C      35.156824    -23.216076     -0.845326
  N      35.922583    -22.202307     -0.399193
  N      35.084456    -21.206709     -0.103800
  C      35.615825    -19.983227      0.413866
  C      35.752500    -24.506706     -1.246876
  N      37.095146    -24.559255     -1.274188
  O      35.026555    -25.470538     -1.540424
  C      35.308698    -19.584855      1.713655
  C      35.855435    -18.417614      2.213723
  C      36.717124    -17.647725      1.420354
  C      37.032988    -18.058438      0.122659
  C      36.475391    -19.232963     -0.375458
  O      37.197773    -16.517231      2.004972
  C      38.088695    -15.693641      1.236890
  H      23.502946    -18.048701     -0.959686
  H      23.051523    -16.893965      0.298629
  H      24.321350    -18.068481      1.990961
  H      23.420140    -19.315942      1.142008
  H      27.125852    -17.127347     -1.066872
  H      25.868076    -18.042184     -1.917032
  H      25.478179    -16.220099      0.508790
  H      24.900186    -15.969215     -1.146763
  H      28.178781    -19.414356      1.916887
  H      30.360080    -20.526005      1.637021
  H      29.715605    -20.702771     -2.611886
  H      27.520445    -19.647590     -2.324780
  H      30.528646    -22.883563     -1.739025
  H      31.815663    -22.041104     -2.627872
  H      32.139554    -24.105595     -0.382432
  H      32.668458    -24.216444     -2.064185
  H      37.653925    -23.763098     -1.004668
  H      37.552742    -25.428654     -1.506436
  H      34.647725    -20.188805      2.327377
  H      35.630840    -18.089004      3.224290
  H      37.698338    -17.481214     -0.508662
  H      36.707167    -19.557991     -1.385759
  H      37.593665    -15.315027      0.334622
  H      38.349723    -14.857618      1.887996
  H      38.997263    -16.244103      0.964890
59
Coordinates from ORCA-job Apixaban_SMD_ethanol_Opt_Freq_KeepDens E -1542.157062804426
  C      23.873022    -17.526993     -0.063088
  C      24.198261    -18.582265      0.988432
  C      25.491070    -19.341192      0.785693
  N      26.444181    -18.801514     -0.026501
  C      26.200944    -17.634650     -0.910786
  C      25.127241    -16.718305     -0.358056
  C      27.700009    -19.464620     -0.183894
  C      28.508343    -19.715040      0.927314
  C      29.739234    -20.332577      0.771037
  C      30.188175    -20.692063     -0.502687
  C      29.387958    -20.431477     -1.613630
  C      28.145947    -19.825469     -1.453182
  N      31.443024    -21.349514     -0.656926
  C      31.527570    -22.457813     -1.642699
  C      32.527571    -23.529985     -1.221719
  C      33.800651    -22.859411     -0.841671
  C      33.785598    -21.562046     -0.361766
  C      32.580387    -20.749187     -0.169160
  O      25.674651    -20.411104      1.387886
  O      32.584003    -19.648214      0.391672
  C      35.157436    -23.221944     -0.838360
  N      35.923345    -22.206366     -0.395904
  N      35.084947    -21.211004     -0.100361
  C      35.615419    -19.985637      0.414207
  C      35.753548    -24.512497     -1.239284
  N      37.096743    -24.565771     -1.267421
  O      35.027040    -25.476349     -1.530054
  C      35.320233    -19.592192      1.718110
  C      35.865221    -18.422569      2.214782
  C      36.712603    -17.645332      1.413033
  C      37.016467    -18.051139      0.110824
  C      36.461013    -19.228600     -0.383316
  O      37.192552    -16.513211      1.994927
  C      38.065911    -15.679827      1.216902
  H      23.524933    -18.011667     -0.985030
  H      23.059825    -16.885734      0.294307
  H      24.296739    -18.108847      1.976631
  H      23.404683    -19.330552      1.082090
  H      27.153858    -17.104736     -1.013076
  H      25.906627    -17.990738     -1.908157
  H      25.486110    -16.230068      0.557979
  H      24.933839    -15.934378     -1.098943
  H      28.170838    -19.428611      1.918111
  H      30.354247    -20.539676      1.640874
  H      29.725257    -20.696728     -2.611000
  H      27.529030    -19.638644     -2.326889
  H      30.528641    -22.890535     -1.730925
  H      31.815551    -22.049959     -2.621904
  H      32.140690    -24.110511     -0.372725
  H      32.668358    -24.223883     -2.054562
  H      37.656487    -23.768913     -1.002199
  H      37.553381    -25.435383     -1.500521
  H      34.669185    -20.201298      2.337160
  H      35.649856    -18.097403      3.228408
  H      37.670852    -17.468409     -0.526622
  H      36.683531    -19.550519     -1.396698
  H      37.555808    -15.304739      0.321602
  H      38.326976    -14.842318      1.866094
  H      38.976380    -16.220875      0.932645
59
Coordinates from ORCA-job Apixaban_SMD_ethanol_Opt_Freq_KeepDens E -1542.157113635862
  C      23.910929    -17.488332     -0.091021
  C      24.162980    -18.639553      0.877923
  C      25.461997    -19.391909      0.684710
  N      26.455996    -18.800905     -0.034074
  C      26.284568    -17.547498     -0.810502
  C      25.187181    -16.673370     -0.236457
  C      27.711109    -19.469203     -0.187337
  C      28.501249    -19.739800      0.930554
  C      29.731562    -20.361865      0.779857
  C      30.191961    -20.702361     -0.494397
  C      29.407985    -20.422780     -1.612142
  C      28.166597    -19.812865     -1.457071
  N      31.446697    -21.362190     -0.644040
  C      31.528875    -22.478054     -1.622062
  C      32.527471    -23.549241     -1.193873
  C      33.801790    -22.878680     -0.818433
  C      33.787961    -21.578255     -0.346837
  C      32.582918    -20.764714     -0.152461
  O      25.609782    -20.506482      1.210804
  O      32.587421    -19.670594      0.420411
  C      35.158035    -23.243157     -0.812376
  N      35.924678    -22.225439     -0.373728
  N      35.086646    -21.227447     -0.086729
  C      35.613919    -19.994448      0.414430
  C      35.753475    -24.535389     -1.209014
  N      37.097983    -24.592304     -1.235360
  O      35.025015    -25.496637     -1.498573
  C      35.354138    -19.611311      1.728438
  C      35.891576    -18.432032      2.210885
  C      36.694859    -17.635127      1.382831
  C      36.962196    -18.030383      0.069134
  C      36.414627    -19.218417     -0.409609
  O      37.171099    -16.495755      1.952904
  C      37.987612    -15.633977      1.143811
  H      23.615036    -17.883135     -1.072219
  H      23.083631    -16.869942      0.274075
  H      24.201203    -18.260063      1.909660
  H      23.360092    -19.383035      0.851452
  H      27.247951    -17.026500     -0.797198
  H      26.054698    -17.798806     -1.855614
  H      25.496470    -16.279442      0.741114
  H      25.043929    -15.819817     -0.908686
  H      28.147863    -19.470680      1.921117
  H      30.337219    -20.584947      1.652326
  H      29.758159    -20.676075     -2.608217
  H      27.557313    -19.609102     -2.332577
  H      30.528780    -22.908712     -1.707081
  H      31.818119    -22.077403     -2.603860
  H      32.139956    -24.124603     -0.341684
  H      32.666406    -24.248217     -2.022834
  H      37.661022    -23.794252     -0.981575
  H      37.551256    -25.462200     -1.473703
  H      34.733695    -20.234499      2.364789
  H      35.703472    -18.113475      3.231928
  H      37.582088    -17.432535     -0.588108
  H      36.608912    -19.534148     -1.430751
  H      37.432150    -15.275642      0.268964
  H      38.245532    -14.788695      1.784156
  H      38.904159    -16.144602      0.824929
59
Coordinates from ORCA-job Apixaban_SMD_ethanol_Opt_Freq_KeepDens E -1542.157138558355
  C      23.900924    -17.504143     -0.092814
  C      24.164341    -18.641172      0.889215
  C      25.466157    -19.388767      0.698027
  N      26.453420    -18.799009     -0.031516
  C      26.273072    -17.553836     -0.818066
  C      25.170630    -16.681112     -0.251259
  C      27.709800    -19.464736     -0.186405
  C      28.505840    -19.726919      0.929430
  C      29.735682    -20.349214      0.777261
  C      30.191453    -20.696461     -0.496993
  C      29.401721    -20.424805     -1.612864
  C      28.159773    -19.817009     -1.455890
  N      31.446059    -21.356091     -0.648239
  C      31.527517    -22.471569     -1.626467
  C      32.525118    -23.543382     -1.198335
  C      33.799985    -22.873264     -0.823360
  C      33.787241    -21.572693     -0.352474
  C      32.582775    -20.758208     -0.157446
  O      25.625575    -20.494346      1.239037
  O      32.587768    -19.662939      0.412998
  C      35.155992    -23.238785     -0.816042
  N      35.923404    -22.221707     -0.377873
  N      35.085964    -21.223357     -0.090327
  C      35.614507    -19.991617      0.412585
  C      35.749631    -24.532862     -1.210795
  N      37.093927    -24.590759     -1.232587
  O      35.021262    -25.494205     -1.499693
  C      35.353453    -19.608935      1.726611
  C      35.893906    -18.432136      2.211354
  C      36.702465    -17.637297      1.386451
  C      36.970893    -18.032034      0.072874
  C      36.419709    -19.217055     -0.408712
  O      37.183532    -16.501646      1.959495
  C      38.010190    -15.645030      1.155724
  H      23.605602    -17.912966     -1.068398
  H      23.069781    -16.887846      0.267034
  H      24.204982    -18.248842      1.916050
  H      23.365750    -19.389946      0.875796
  H      27.233215    -17.026770     -0.810758
  H      26.043373    -17.815732     -1.860607
  H      25.479200    -16.273343      0.720858
  H      25.019100    -15.836572     -0.932932
  H      28.156159    -19.451932      1.919778
  H      30.344724    -20.567971      1.648492
  H      29.747610    -20.684187     -2.608884
  H      27.545602    -19.620244     -2.329669
  H      30.527109    -22.901513     -1.711522
  H      31.816985    -22.071365     -2.608378
  H      32.136972    -24.117737     -0.345707
  H      32.663924    -24.243267     -2.026544
  H      37.656726    -23.792891     -0.977617
  H      37.547561    -25.461198     -1.468418
  H      34.730605    -20.231296      2.361525
  H      35.705223    -18.114419      3.232613
  H      37.594882    -17.435854     -0.582255
  H      36.615260    -19.532168     -1.429804
  H      37.462112    -15.281197      0.278458
  H      38.271422    -14.802476      1.798305
  H      38.924433    -16.162165      0.840683
59
Coordinates from ORCA-job Apixaban_SMD_ethanol_Opt_Freq_KeepDens E -1542.157160155059
  C      23.890495    -17.526852     -0.099702
  C      24.164543    -18.646991      0.897760
  C      25.472890    -19.384165      0.715179
  N      26.452753    -18.793987     -0.023998
  C      26.265481    -17.554709     -0.816663
  C      25.150377    -16.689355     -0.262946
  C      27.710306    -19.457673     -0.182430
  C      28.517227    -19.705343      0.928974
  C      29.746280    -20.327821      0.773207
  C      30.191881    -20.688509     -0.501137
  C      29.391090    -20.431111     -1.612881
  C      28.149372    -19.824782     -1.451643
  N      31.446221    -21.347536     -0.656345
  C      31.526053    -22.462663     -1.634651
  C      32.521849    -23.535860     -1.206604
  C      33.797610    -22.867155     -0.831158
  C      33.786879    -21.566065     -0.362065
  C      32.584127    -20.748798     -0.168579
  O      25.643727    -20.483393      1.265926
  O      32.589794    -19.653231      0.401429
  C      35.152992    -23.235302     -0.819363
  N      35.921479    -22.220172     -0.379614
  N      35.085458    -21.219711     -0.095227
  C      35.615716    -19.989496      0.409633
  C      35.743679    -24.532666     -1.209297
  N      37.087365    -24.593061     -1.223154
  O      35.014974    -25.492812     -1.501821
  C      35.352617    -19.607265      1.723581
  C      35.896030    -18.433179      2.211066
  C      36.710404    -17.640449      1.389972
  C      36.980486    -18.034517      0.076655
  C      36.426160    -19.216438     -0.408229
  O      37.194860    -16.507745      1.965702
  C      38.032143    -15.656606      1.167864
  H      23.604781    -17.951776     -1.071248
  H      23.049793    -16.917095      0.248906
  H      24.199866    -18.241362      1.919565
  H      23.373770    -19.404569      0.893670
  H      27.220546    -17.018432     -0.805652
  H      26.045289    -17.823692     -1.859457
  H      25.449871    -16.267052      0.705782
  H      24.990758    -15.854180     -0.954131
  H      28.175360    -19.418815      1.918851
  H      30.362389    -20.538183      1.641538
  H      29.728523    -20.701499     -2.608859
  H      27.525991    -19.639588     -2.321521
  H      30.525056    -22.891239     -1.719602
  H      31.815844    -22.063199     -2.616768
  H      32.132261    -24.108904     -0.353712
  H      32.660472    -24.236725     -2.034003
  H      37.650067    -23.795793     -0.965949
  H      37.541199    -25.463962     -1.457157
  H      34.726662    -20.228621      2.356584
  H      35.705724    -18.116030      3.232278
  H      37.608523    -17.439658     -0.576063
  H      36.623206    -19.530525     -1.429361
  H      37.492233    -15.287145      0.287865
  H      38.296517    -14.816856      1.812818
  H      38.943980    -16.180685      0.857191
59
Coordinates from ORCA-job Apixaban_SMD_ethanol_Opt_Freq_KeepDens E -1542.157172289085
  C      23.895103    -17.529802     -0.111789
  C      24.157439    -18.661137      0.875719
  C      25.469689    -19.392151      0.699934
  N      26.455151    -18.790906     -0.021262
  C      26.282408    -17.534285     -0.788690
  C      25.153273    -16.683484     -0.240484
  C      27.713026    -19.455277     -0.180185
  C      28.521855    -19.699159      0.930346
  C      29.750502    -20.322337      0.774311
  C      30.193042    -20.687685     -0.499879
  C      29.389209    -20.435110     -1.610826
  C      28.148256    -19.827775     -1.448961
  N      31.446967    -21.347222     -0.655979
  C      31.526538    -22.461564     -1.635166
  C      32.520715    -23.536402     -1.207290
  C      33.797059    -22.869272     -0.830919
  C      33.787304    -21.568037     -0.362564
  C      32.585462    -20.750283     -0.167090
  O      25.638707    -20.497883      1.239200
  O      32.593163    -19.653169      0.400171
  C      35.152048    -23.239091     -0.815657
  N      35.920992    -22.224780     -0.375195
  N      35.085783    -21.222455     -0.094998
  C      35.616171    -19.991347      0.407796
  C      35.741444    -24.538013     -1.202673
  N      37.084715    -24.600992     -1.209669
  O      35.012314    -25.497269     -1.497880
  C      35.358856    -19.610968      1.723471
  C      35.901285    -18.435688      2.209036
  C      36.708752    -17.639751      1.384316
  C      36.972825    -18.031840      0.069251
  C      36.419704    -19.215016     -0.413732
  O      37.192095    -16.505455      1.957888
  C      38.022525    -15.651318      1.156371
  H      23.629467    -17.943329     -1.093933
  H      23.044844    -16.929213      0.229465
  H      24.175942    -18.269145      1.903226
  H      23.369286    -19.421148      0.849879
  H      27.235851    -16.996552     -0.744518
  H      26.086013    -17.779931     -1.841943
  H      25.433504    -16.275349      0.739981
  H      25.001359    -15.837958     -0.920657
  H      28.180993    -19.409010      1.919662
  H      30.367975    -20.531275      1.641937
  H      29.724352    -20.709840     -2.606351
  H      27.521539    -19.645894     -2.317219
  H      30.525187    -22.888974     -1.721379
  H      31.817496    -22.061684     -2.616759
  H      32.130010    -24.109157     -0.354700
  H      32.658895    -24.237240     -2.034785
  H      37.647604    -23.803944     -0.952158
  H      37.538364    -25.471967     -1.443836
  H      34.737682    -20.234581      2.359092
  H      35.715034    -18.119584      3.231347
  H      37.595223    -17.434218     -0.586388
  H      36.611908    -19.527411     -1.436323
  H      37.477010    -15.282649      0.279503
  H      38.287979    -14.811290      1.800521
  H      38.934104    -16.172738      0.840415
59
Coordinates from ORCA-job Apixaban_SMD_ethanol_Opt_Freq_KeepDens E -1542.157181180345
  C      23.900578    -17.528871     -0.122047
  C      24.148769    -18.675327      0.851615
  C      25.463945    -19.402134      0.681333
  N      26.456361    -18.790141     -0.019768
  C      26.299335    -17.515037     -0.759161
  C      25.158587    -16.677549     -0.214134
  C      27.714469    -19.454984     -0.179018
  C      28.524994    -19.695228      0.930732
  C      29.753762    -20.318188      0.774363
  C      30.193631    -20.687602     -0.499664
  C      29.387141    -20.439418     -1.609871
  C      28.146547    -19.831527     -1.447413
  N      31.447333    -21.346911     -0.656480
  C      31.526824    -22.462011     -1.634829
  C      32.519939    -23.537414     -1.205494
  C      33.796629    -22.871315     -0.828679
  C      33.787667    -21.569102     -0.363011
  C      32.586673    -20.750049     -0.168967
  O      25.627069    -20.517674      1.202709
  O      32.595494    -19.653061      0.398451
  C      35.151214    -23.242617     -0.810570
  N      35.920580    -22.228232     -0.371088
  N      35.085975    -21.224625     -0.093496
  C      35.616592    -19.992596      0.406947
  C      35.739897    -24.542586     -1.194958
  N      37.083079    -24.608088     -1.197176
  O      35.009970    -25.500622     -1.492349
  C      35.364524    -19.612934      1.723824
  C      35.905964    -18.436107      2.206825
  C      36.706905    -17.637824      1.378028
  C      36.965855    -18.029295      0.061736
  C      36.413809    -19.214120     -0.418531
  O      37.189643    -16.501966      1.949096
  C      38.014202    -15.645822      1.143624
  H      23.653577    -17.927100     -1.115362
  H      23.042746    -16.935935      0.213572
  H      24.151127    -18.300008      1.885409
  H      23.361985    -19.435572      0.801643
  H      27.251463    -16.978493     -0.681763
  H      26.125649    -17.735048     -1.822044
  H      25.420839    -16.287412      0.778542
  H      25.016210    -15.819539     -0.880559
  H      28.184840    -19.402724      1.919699
  H      30.372837    -20.524669      1.641368
  H      29.720291    -20.717541     -2.605090
  H      27.517141    -19.652411     -2.314359
  H      30.525354    -22.889012     -1.721479
  H      31.818677    -22.062903     -2.616466
  H      32.128322    -24.109305     -0.352737
  H      32.657922    -24.238904     -2.032464
  H      37.646404    -23.811209     -0.940093
  H      37.536258    -25.479176     -1.431764
  H      34.747629    -20.238021      2.362166
  H      35.723648    -18.120358      3.229946
  H      37.583410    -17.429971     -0.596860
  H      36.601942    -19.526109     -1.442013
  H      37.463513    -15.278255      0.269515
  H      38.280876    -14.805259      1.786574
  H      38.925384    -16.165093      0.823046
59
Coordinates from ORCA-job Apixaban_SMD_ethanol_Opt_Freq_KeepDens E -1542.157153732852
  C      23.932025    -17.511597     -0.172475
  C      24.106560    -18.739182      0.715366
  C      25.432434    -19.451554      0.571266
  N      26.461239    -18.788404     -0.015201
  C      26.377643    -17.431799     -0.604187
  C      25.185760    -16.654198     -0.078505
  C      27.720892    -19.454539     -0.173379
  C      28.530492    -19.690527      0.936368
  C      29.759839    -20.313480      0.780853
  C      30.195645    -20.689387     -0.492887
  C      29.386110    -20.448233     -1.603111
  C      28.146906    -19.837269     -1.440732
  N      31.448049    -21.349072     -0.650173
  C      31.527957    -22.466760     -1.625861
  C      32.516473    -23.544521     -1.190414
  C      33.794557    -22.882457     -0.812223
  C      33.788372    -21.576751     -0.356327
  C      32.590015    -20.754097     -0.165182
  O      25.566028    -20.611830      0.998178
  O      32.603239    -19.657771      0.403042
  C      35.147550    -23.259145     -0.783848
  N      35.918606    -22.243588     -0.349659
  N      35.086385    -21.234936     -0.083277
  C      35.617943    -19.997343      0.403187
  C      35.733802    -24.563070     -1.157168
  N      37.076619    -24.638344     -1.142206
  O      35.000640    -25.516326     -1.462172
  C      35.395917    -19.620470      1.726066
  C      35.933837    -18.435843      2.194223
  C      36.699829    -17.626839      1.343002
  C      36.928626    -18.015529      0.020216
  C      36.380695    -19.208754     -0.444302
  O      37.181541    -16.483456      1.900094
  C      37.973569    -15.617580      1.072258
  H      23.775043    -17.821581     -1.214566
  H      23.043349    -16.951044      0.137507
  H      24.029293    -18.456049      1.774971
  H      23.328009    -19.489159      0.539426
  H      27.316046    -16.917689     -0.366358
  H      26.315813    -17.521828     -1.698114
  H      25.359222    -16.362402      0.966108
  H      25.092105    -15.735109     -0.667528
  H      28.187072    -19.397392      1.924512
  H      30.380021    -20.517982      1.647365
  H      29.716869    -20.732485     -2.597299
  H      27.512164    -19.660133     -2.304505
  H      30.526065    -22.892061     -1.715284
  H      31.824366    -22.070215     -2.607119
  H      32.121170    -24.113172     -0.337196
  H      32.653294    -24.248331     -2.015622
  H      37.642098    -23.841664     -0.889323
  H      37.527516    -25.509848     -1.379278
  H      34.803340    -20.252925      2.380036
  H      35.774787    -18.121585      3.221621
  H      37.519478    -17.408067     -0.654985
  H      36.545367    -19.519397     -1.472259
  H      37.394857    -15.257762      0.213101
  H      38.246499    -14.773133      1.707450
  H      38.882361    -16.125338      0.727512
59
Coordinates from ORCA-job Apixaban_SMD_ethanol_Opt_Freq_KeepDens E -1542.157190280853
  C      23.910233    -17.520804     -0.137185
  C      24.133297    -18.695427      0.809081
  C      25.450548    -19.419928      0.644597
  N      26.456927    -18.791177     -0.019031
  C      26.325855    -17.487626     -0.711819
  C      25.170053    -16.668038     -0.170730
  C      27.714938    -19.457243     -0.177109
  C      28.525324    -19.695384      0.932798
  C      29.754340    -20.318324      0.777065
  C      30.193113    -20.690753     -0.496545
  C      29.385823    -20.445107     -1.606895
  C      28.145624    -19.836048     -1.444932
  N      31.446472    -21.349866     -0.652844
  C      31.527118    -22.465463     -1.630718
  C      32.519650    -23.540885     -1.199678
  C      33.796325    -22.875192     -0.822590
  C      33.787306    -21.572002     -0.359556
  C      32.586488    -20.752752     -0.166486
  O      25.601326    -20.551699      1.134489
  O      32.596098    -19.655533      0.400213
  C      35.150727    -23.247007     -0.802692
  N      35.919978    -22.231790     -0.364668
  N      35.085561    -21.227205     -0.090052
  C      35.616164    -19.993285      0.405873
  C      35.739761    -24.547323     -1.184667
  N      37.083025    -24.614902     -1.182666
  O      35.009240    -25.504137     -1.484479
  C      35.371908    -19.613291      1.724033
  C      35.912379    -18.433928      2.202175
  C      36.704078    -17.633401      1.366648
  C      36.955174    -18.025149      0.048852
  C      36.404318    -19.212739     -0.426188
  O      37.186125    -16.494821      1.933004
  C      38.003296    -15.637372      1.121157
  H      23.689331    -17.890005     -1.147795
  H      23.043801    -16.937160      0.192573
  H      24.113162    -18.349442      1.852777
  H      23.346397    -19.451849      0.719642
  H      27.275987    -16.957001     -0.583297
  H      26.186906    -17.666583     -1.787544
  H      25.405742    -16.309493      0.840357
  H      25.044946    -15.789266     -0.813121
  H      28.184684    -19.401996      1.921423
  H      30.373849    -20.522797      1.644204
  H      29.718175    -20.725185     -2.601808
  H      27.515392    -19.657312     -2.311391
  H      30.525952    -22.892917     -1.718526
  H      31.820197    -22.066542     -2.612044
  H      32.127474    -24.112378     -0.346922
  H      32.657624    -24.242675     -2.026410
  H      37.646465    -23.817867     -0.926327
  H      37.536038    -25.485755     -1.418284
  H      34.761579    -20.239886      2.367159
  H      35.736240    -18.117892      3.226257
  H      37.565581    -17.424114     -0.614733
  H      36.586410    -19.525220     -1.450609
  H      37.445748    -15.271919      0.250499
  H      38.272127    -14.795584      1.761606
  H      38.913597    -16.154566      0.794862
59
Coordinates from ORCA-job Apixaban_SMD_ethanol_Opt_Freq_KeepDens E -1542.157193130321
  C      23.912747    -17.517499     -0.140069
  C      24.129151    -18.700861      0.797050
  C      25.446703    -19.425067      0.633401
  N      26.457126    -18.791495     -0.018907
  C      26.332039    -17.481236     -0.699905
  C      25.173468    -16.665725     -0.158634
  C      27.714981    -19.457892     -0.176583
  C      28.523045    -19.699561      0.934126
  C      29.752146    -20.322541      0.778828
  C      30.192781    -20.692033     -0.494989
  C      29.387378    -20.443466     -1.606062
  C      28.147371    -19.833795     -1.444616
  N      31.446092    -21.351269     -0.650766
  C      31.527179    -22.466755     -1.628777
  C      32.519653    -23.542089     -1.197340
  C      33.796232    -22.876274     -0.820163
  C      33.786972    -21.573010     -0.357350
  C      32.586001    -20.754042     -0.164280
  O      25.594069    -20.561349      1.113953
  O      32.595411    -19.657012      0.402779
  C      35.150684    -23.247846     -0.800352
  N      35.919852    -22.232016     -0.363433
  N      35.085244    -21.227687     -0.088634
  C      35.615737    -19.993067      0.405677
  C      35.740050    -24.548101     -1.181837
  N      37.083342    -24.615467     -1.180221
  O      35.009588    -25.505339     -1.480458
  C      35.371800    -19.611322      1.723362
  C      35.912008    -18.431051      2.199629
  C      36.703085    -17.631434      1.362627
  C      36.953899    -18.024956      0.045306
  C      36.403284    -19.213428     -0.427809
  O      37.184833    -16.491795      1.927151
  C      38.001899    -15.635540      1.113866
  H      23.697273    -17.877486     -1.155180
  H      23.045001    -16.935890      0.189819
  H      24.103834    -18.363792      1.843550
  H      23.341979    -19.455600      0.696659
  H      27.281749    -16.952680     -0.559875
  H      26.200666    -17.649996     -1.778263
  H      25.403281    -16.316296      0.856999
  H      25.052894    -15.781236     -0.793989
  H      28.180722    -19.408979      1.923050
  H      30.370049    -20.529471      1.646539
  H      29.721080    -20.721312     -2.601157
  H      27.518711    -19.652125     -2.311629
  H      30.526102    -22.894351     -1.716985
  H      31.820640    -22.067687     -2.609924
  H      32.127334    -24.113590     -0.344665
  H      32.657747    -24.243856     -2.024078
  H      37.646706    -23.818095     -0.924769
  H      37.536409    -25.486418     -1.415348
  H      34.761871    -20.237175      2.367587
  H      35.736093    -18.113615      3.223311
  H      37.563794    -17.424630     -0.619382
  H      36.585085    -19.527291     -1.451860
  H      37.444155    -15.271363      0.242802
  H      38.270846    -14.792830      1.753053
  H      38.912131    -16.153219      0.788166
59
Coordinates from ORCA-job Apixaban_SMD_ethanol_Opt_Freq_KeepDens E -1542.157196282520
  C      23.913528    -17.515813     -0.143247
  C      24.124647    -18.706242      0.786378
  C      25.442635    -19.429932      0.623730
  N      26.456654    -18.791643     -0.018047
  C      26.335982    -17.476566     -0.690138
  C      25.174664    -16.664637     -0.149539
  C      27.714315    -19.458357     -0.175373
  C      28.520253    -19.703226      0.936059
  C      29.749205    -20.326714      0.781239
  C      30.191618    -20.693592     -0.492678
  C      29.388082    -20.442239     -1.604451
  C      28.148239    -19.832023     -1.443527
  N      31.444900    -21.353005     -0.647682
  C      31.526479    -22.468458     -1.625677
  C      32.519387    -23.543202     -1.193870
  C      33.795772    -22.876521     -0.817449
  C      33.785990    -21.573180     -0.354855
  C      32.584528    -20.754949     -0.161470
  O      25.587814    -20.569588      1.096913
  O      32.593216    -19.657699      0.405104
  C      35.150510    -23.247017     -0.799311
  N      35.919385    -22.230522     -0.363314
  N      35.084349    -21.226841     -0.087610
  C      35.614822    -19.991650      0.405183
  C      35.740466    -24.546943     -1.181022
  N      37.083836    -24.612928     -1.181728
  O      35.010440    -25.504857     -1.478430
  C      35.368462    -19.606382      1.721373
  C      35.909286    -18.425710      2.195980
  C      36.703390    -17.629196      1.358873
  C      36.956600    -18.026231      0.043066
  C      36.405413    -19.215073     -0.428371
  O      37.185369    -16.488829      1.921724
  C      38.006835    -15.636489      1.108740
  H      23.702522    -17.868250     -1.161955
  H      23.044594    -16.936061      0.186771
  H      24.095385    -18.376071      1.835003
  H      23.337398    -19.459669      0.677316
  H      27.284966    -16.949099     -0.540889
  H      26.211438    -17.637741     -1.770514
  H      25.399160    -16.322063      0.869625
  H      25.057530    -15.775918     -0.779583
  H      28.176584    -19.415055      1.925276
  H      30.365580    -20.535888      1.649540
  H      29.722888    -20.718281     -2.599701
  H      27.521087    -19.647670     -2.311103
  H      30.525570    -22.896486     -1.713913
  H      31.819937    -22.069393     -2.606821
  H      32.127394    -24.114518     -0.340933
  H      32.657671    -24.245235     -2.020364
  H      37.646773    -23.815068     -0.926871
  H      37.537359    -25.483687     -1.416692
  H      34.756497    -20.229901      2.365902
  H      35.731564    -18.105666      3.218539
  H      37.568725    -17.428338     -0.621766
  H      36.589073    -19.531594     -1.451267
  H      37.452362    -15.272695      0.235436
  H      38.276331    -14.793116      1.746823
  H      38.916545    -16.157282      0.786570
