
                                 *****************
                                 * O   R   C   A *
                                 *****************

                                            #,                                       
                                            ###                                      
                                            ####                                     
                                            #####                                    
                                            ######                                   
                                           ########,                                 
                                     ,,################,,,,,                         
                               ,,#################################,,                 
                          ,,##########################################,,             
                       ,#########################################, ''#####,          
                    ,#############################################,,   '####,        
                  ,##################################################,,,,####,       
                ,###########''''           ''''###############################       
              ,#####''   ,,,,##########,,,,          '''####'''          '####       
            ,##' ,,,,###########################,,,                        '##       
           ' ,,###''''                  '''############,,,                           
         ,,##''                                '''############,,,,        ,,,,,,###''
      ,#''                                            '''#######################'''  
     '                                                          ''''####''''         
             ,#######,   #######,   ,#######,      ##                                
            ,#'     '#,  ##    ##  ,#'     '#,    #''#        ,####,    ,#,          
            ##       ##  ##   ,#'  ##            #'  '#       #'       ,# #          
            ##       ##  #######   ##           ,######,      #####,      #          
            '#,     ,#'  ##    ##  '#,     ,#' ,#      #,     #,   #      #          
             '#######'   ##     ##  '#######'  #'      '#     '####' #    #          



                #########################################################
                #                        -***-                          #
                #          Department of theory and spectroscopy        #
                #                                                       #
                #                      Frank Neese                      #
                #                                                       #
                #     Directorship, Architecture, Infrastructure        #
                #                    SHARK, DRIVERS                     #
                #        Core code/Algorithms in most modules           #
                #                                                       #
                #        Max Planck Institute fuer Kohlenforschung      #
                #                Kaiser Wilhelm Platz 1                 #
                #                 D-45470 Muelheim/Ruhr                 #
                #                      Germany                          #
                #                                                       #
                #                  All rights reserved                  #
                #                        -***-                          #
                #########################################################


                         Program Version 6.1.1  -  RELEASE   -


 With contributions from (in alphabetic order):
[Max-Planck-Institut fuer Kohlenforschung]                               
  Daniel Aravena         : Magnetic Suceptibility                        
  Michael Atanasov       : Ab Initio Ligand Field Theory (pilot matlab implementation)
  Alexander A. Auer      : GIAO ZORA, VPT2 properties, NMR spectrum      
  Ute Becker             : All parallelization in ORCA, NUMFREQ, NUMCALC 
  Giovanni Bistoni       : ED, misc. LED, open-shell LED, HFLD           
  Dmytro Bykov           : pre 5.0 version of the SCF Hessian            
  Marcos Casanova-Pﾃ｡ez   : Triplet and SCS-CIS(D). UHF-(DLPNO)-IP/EA/STEOM-CCSD. UHF-CVS-IP/STEOM-CCSD   
  Vijay G. Chilkuri      : MRCI spin determinant printing, contributions to CSF-ICE 
  Pauline Colinet        : FMM embedding                                 
  Dipayan Datta          : RHF DLPNO-CCSD density                        
  Achintya Kumar Dutta   : EOM-CC, STEOM-CC                              
  Nicolas Foglia         : Exact transition moments, OPA infrastructure, MCD improvements    
  Dmitry Ganyushin       : Spin-Orbit,Spin-Spin,Magnetic field MRCI      
  Miquel Garcia-Rates    : C-PCM and meta-GGA Hessian, CCSD/C-PCM, Gaussian charge scheme 
  Tiago L. C. Gouveia    : GS-ROHF, GS-ROCIS                             
  Yang Guo               : DLPNO-NEVPT2, F12-NEVPT2, CIM, IAO-localization        
  Andreas Hansen         : Spin unrestricted coupled pair/coupled cluster methods 
  Ingolf Harden          : AUTO-CI MPn and infrastructure                
  Benjamin Helmich-Paris : MC-RPA, TRAH-(SCF,CASSCF), AVAS, COSX integrals, SCF dyn. polar., MC-PDFT, srDFT 
  Lee Huntington         : MR-EOM, pCC                                   
  Robert Izsak           : Overlap fitted RIJCOSX, COSX-SCS-MP3, EOM     
  Riya Kayal             : Wick's Theorem for AUTO-CI, AUTO-CI UHF-CCSDT 
  Emily Kempfer          : AUTO-CI RHF CISDT and CCSDT, approximate NEVPT4
  Christian Kollmar      : KDIIS, OOCD, Brueckner-CCSD(T), CCSD density, CASPT2, CASPT2-K, improved NEVPT2 
  Axel Koslowski         : Symmetry handling                             
  Simone Kossmann        : meta-GGA functionals, TD-DFT gradient, OOMP2, (MP2 Hessian; deprecated post 5.0) 
  Lucas Lang             : DCDCAS, Hyperfine gauge corrections, ICE-SOC+SSC
  Marvin Lechner         : AUTO-CI (C++ implementation), FIC-MRCC        
  Spencer Leger          : CASSCF response                               
  Dagmar Lenk            : GEPOL surface, SMD, ORCA-2-JSON               
  Dimitrios Liakos       : Extrapolation schemes; Compound Job, Property file
  Dimitrios Manganas     : Further ROCIS development; embedding schemes. LFT, Crystal Embedding 
  Dimitrios Pantazis     : SARC Basis sets                               
  Anastasios Papadopoulos: AUTO-CI, single reference methods and gradients 
  Taras Petrenko         : pre 6.0 DFT Hessian and TD-DFT gradient,  ECA, NRVS 
  Petra Pikulova         : Analytic Raman intensities                    
  Peter Pinski           : DLPNO-MP2, DLPNO-MP2 Gradient                 
  Shashank Vittal Rao    : ES-AILFT, MagRelax                            
  Christoph Reimann      : Effective Core Potentials                     
  Marius Retegan         : Local ZFS, SOC                                
  Christoph Riplinger    : Optimizer, TS searches, QM/MM, DLPNO-CCSD(T), (RO)-DLPNO pert. Triples 
  Michael Roemelt        : Original ROCIS implementation, recursive CI coupling coefficients
  Masaaki Saitow         : Open-shell DLPNO-CCSD energy and density      
  Barbara Sandhoefer     : DKH picture change effects                    
  Yorick L. A. Schmerwitz: GMF and freeze-and-release deltaSCF, NEB S-IDPP initial path                    
  Kantharuban Sivalingam : CASSCF convergence/infrastructure, NEVPT2, NEVPT3, NEVPT4(SD), FIC-MRCI and CEPA variants
  Bernardo de Souza      : ESD, SOC TD-DFT                               
  Georgi L. Stoychev     : AutoAux, RI-MP2 NMR, DLPNO-MP2 response, X2C  
  Van Anh Tran           : RI-MP2 g-tensors                              
  Willem Van den Heuvel  : Paramagnetic NMR                              
  Zikuan Wang            : NOTCH, Electric field optimization            
  Frank Wennmohs         : Technical directorship and infrastructure     
  Hang Xu                : AUTO-CI-Response properties                   
                                                                         
[FACCTs GmbH]                                                            
  Markus Bursch, Nicolas Foglia, Miquel Garcia-Rates, Ingolf Harden, Hagen Neugebauer, Anastasios Papadopoulos, 
  Christoph Riplinger, Bernardo de Souza, Georgi L. Stoychev                                                    
                                                                 
  APM, various basis sets, CI-OPT, improved COSX, DLPNO-Multilevel,           
  DOCKER, DRACO, updates on ESD, Fragmentator, GOAT, IRC, LR-CPCM, L-BFGS, MBIS, meta-GGA TD-DFT gradient, ML-optimized integration grids, 
  MM, NACMEs, nearIR, NEB, NEB-TS, NL-DFT gradient (VV10), 2- and 3-layer-ONIOM, interface openCOSMO-RS, QMMM,   
  Crystal-QMMM, RESP, rigid body optimization, SF, symmetry and pop. for TD-DFT, various functionals, SOLVATOR                                   
                                                                         
[Other institutions]                                                     
  V. Asgeirsson          : NEB                                           
  Christoph Bannwarth    : sTDA-DFT, sTD-DFT, PBEh-3c, B97-3c, D3        
  Giovanni Bistoni       : ETS/NOCV, ADLD/ADEX, COVALED                  
  Martin Brehm           : Molecular dynamics                            
  Ronald Cardenas        : ETS/NOCV                                      
  Martina Colucci        : COVALED                                       
  Sebastian Ehlert       : rSCAN, r2SCAN, r2SCAN-3c, D4, dhf basis sets  
  Marvin Friede          : D4 for Fr, Ra, Ac-Lr                          
  Lars Goerigk           : TD-DFT with DH, B97 family of functionals     
  Stefan Grimme          : VdW corrections, initial TS optimization, DFT functionals, gCP, sTDA/sTD-DF 
  Waldemar Hujo          : DFT-NL                                        
  H. Jonsson             : NEB                                           
  Holger Kruse           : gCP                                           
  Marcel Mueller         : wB97X-3c, vDZP basis set                      
  Hagen Neugebauer       : wr2SCAN, Native XTB                           
  Gianluca Regni         : ADLD/ADEX                                     
  Tobias Risthaus        : pre 6.0 range-separated hybrid DFT and stability analysis
  Lukas Wittmann         : regularized MP2, r2SCAN double-hybrids, wr2SCAN        
                                                                         
We gratefully acknowledge several colleagues who have allowed us to      
interface, adapt or use parts of their codes:                            
  Ed Valeev, F. Pavosevic, A. Kumar             : LibInt (2-el integral package), F12 methods 
  Garnet Chan, S. Sharma, J. Yang, R. Olivares  : DMRG                   
  Ulf Ekstrom                                   : XCFun DFT Library      
  Mihaly Kallay                                 : mrcc  (arbitrary order and MRCC methods)
  Frank Weinhold                                : gennbo (NPA and NBO analysis)           
  Simon Mueller                                 : openCOSMO-RS                            
  Christopher J. Cramer and Donald G. Truhlar   : smd solvation model                     
  S Lehtola, MJT Oliveira, MAL Marques          : LibXC Library                           
  Liviu Ungur et al                             : ANISO software                          


 Your calculation uses the libint2 library for the computation of 2-el integrals
 For citations please refer to: http://libint.valeyev.net

 Your ORCA version has been built with support for libXC version: 7.0.0
 For citations please refer to: https://libxc.gitlab.io

 This ORCA versions uses:
   CBLAS   interface :  Fast vector & matrix operations
   LAPACKE interface :  Fast linear algebra routines
   Shared memory     :  Shared parallel matrices


  ***********************************
  * Starting time: Sat Oct  3 08:18:57 2026
  * Host name:     DESKTOP-2KDTO5M
  * Process ID:    4820
  * Working dir.:  C:\Users\naoki\Downloads\デスクトップ\data\Molecules\Calculations\Apixaban\CrystalFragment
  ***********************************

NOTE: MaxCore=2000 MB was set to SCF,MP2,MDCI,CIPSI,MRCI,RASCI and CIS
      => If you want to overwrite this, your respective input block should be placed after the MaxCore statement
Your calculation utilizes the semiempirical GFN2-xTB method
Please cite in your paper:
Bannwarth, C.; Ehlert S.; Grimme, S. J. Chem. Theory Comput. 2019, 15, 1652.
   

================================================================================

================================================================================
                                        WARNINGS
                       Please study these warnings very carefully!
================================================================================


WARNING: Found dipole moment calculation with XTB calculation
  ===> : Switching off dipole moment calculation

Environment variable XTBEXE for xtb has been set!

================================================================================
                                       INPUT FILE
================================================================================
NAME = D5\D5_pull_+0.5A_XTB2_SP.inp
|  1> # D5 pull-apart: molecule B displaced +0.5 A along centroid vector (rigid), XTB2 single point
|  2> 
|  3> ! XTB2
|  4> 
|  5> %pal
|  6>   nprocs 4
|  7> end
|  8> 
|  9> %maxcore 2000
| 10> 
| 11> * xyz 0 1
| 12> H     22.83953108    41.40894130    37.29825264
| 13> C     21.66192281    40.99367530    38.86881303
| 14> H     22.07616212    40.19221192    39.09488688
| 15> C     20.59018700    41.44174731    39.60209780
| 16> C     20.37888339    41.35108090    42.07160460
| 17> H     21.27577734    41.14178684    42.37508161
| 18> C     19.91667659    39.37261526    40.64877097
| 19> C     19.70491047    38.72673821    41.95392663
| 20> C     19.37498228    39.39670069    43.09735375
| 21> C     19.37987740    40.88529087    43.11355807
| 22> H     18.49518556    41.22484004    42.90526177
| 23> H     19.63551561    41.20961362    43.99079384
| 24> C     19.09233738    38.39757069    44.02965274
| 25> C     18.62131839    38.57115188    45.42180829
| 26> C     19.92150901    36.27320826    41.38583152
| 27> C     21.02045476    36.32096385    40.55815264
| 28> H     21.57482386    37.06802738    40.56428826
| 29> C     21.29965591    35.26203555    39.72119169
| 30> H     22.04007708    35.29484156    39.16096274
| 31> C     20.48327140    34.15728956    39.71615733
| 32> C     19.40393116    34.09804495    40.58017793
| 33> H     18.86965258    33.33755448    40.59889943
| 34> C     19.11657892    35.15088268    41.40864342
| 35> H     18.38500348    35.11074030    41.98177289
| 36> C     21.65484253    33.18902767    37.89985766
| 37> H     21.63735684    32.40735864    37.34230322
| 38> H     21.49730824    33.96875880    37.36275527
| 39> H     22.51426932    33.26003816    38.32242855
| 40> H     18.39538066    37.52066732    47.01612452
| 41> H     19.03443510    36.81056246    45.91171363
| 42> N     20.15043870    40.71641603    40.76047065
| 43> N     19.61541343    37.39055064    42.22106192
| 44> N     19.25444159    37.17793445    43.50387764
| 45> N     18.66135535    37.48509287    46.18797368
| 46> O     19.80354548    38.80217820    39.58306166
| 47> O     18.19832953    39.65471929    45.78664146
| 48> O     20.64750653    33.08576486    38.89083831
| 49> C     21.16875807    43.95659821    35.25288997
| 50> H     20.47458764    44.57326822    35.53622957
| 51> H     20.73787682    43.12398988    35.00447618
| 52> C     21.83638855    44.51236254    34.06934536
| 53> H     22.27585503    43.79118392    33.59013802
| 54> H     21.16639655    44.89163882    33.48001158
| 55> C     22.83291639    45.54914332    34.38918402
| 56> H     23.29048235    45.81491356    33.57597890
| 57> H     22.37932284    46.32984340    34.74489242
| 58> C     23.83563842    45.06632738    35.38346846
| 59> H     24.48924629    44.52205208    34.91794826
| 60> H     24.30290205    45.83567686    35.74389657
| 61> C     23.28615136    44.26860140    36.52721022
| 62> C     20.44944804    43.36719733    38.19279400
| 63> H     20.03755147    44.17046020    37.96687747
| 64> C     21.53658130    42.92535431    37.47020721
| 65> C     22.12431926    41.72606610    37.80121583
| 66> C     19.97011296    42.62082591    39.24985051
| 67> H     19.22705322    42.91497266    39.72575407
| 68> H     20.31296812    42.31422118    41.97547995
| 69> N     22.06622540    43.70370122    36.38672035
| 70> O     23.94091717    44.12713411    37.55626316
| 71> C     15.38931814    31.99161789    43.49983069
| 72> H     14.69514771    31.37494788    43.78317029
| 73> H     14.95843688    32.82422622    43.25141690
| 74> C     16.05694862    31.43585356    42.31628609
| 75> H     16.49641510    32.15703218    41.83707874
| 76> H     15.38695662    31.05657728    41.72695230
| 77> C     17.05347646    30.39907278    42.63612474
| 78> H     17.51104242    30.13330254    41.82291963
| 79> H     16.59988291    29.61837270    42.99183315
| 80> C     17.50671142    31.67961470    44.77415095
| 81> C     14.67000810    32.58101876    46.43973472
| 82> H     14.25811153    31.77775590    46.21381819
| 83> C     15.75714136    33.02286179    45.71714794
| 84> C     16.34487933    34.22215000    46.04815656
| 85> H     17.06009114    34.53927480    45.54519336
| 86> C     15.88248287    34.95454080    47.11575375
| 87> H     16.29672218    35.75600418    47.34182760
| 88> C     14.19067302    33.32739019    47.49679124
| 89> H     16.26063714    40.65337454    47.40790347
| 90> N     16.28678546    32.24451488    44.63366107
| 91> C     14.81074707    34.50646878    47.84903853
| 92> H     13.44761329    33.03324344    47.97269479
| 93> C     14.59944345    34.59713519    50.31854533
| 94> H     15.49633741    34.80642926    50.62202234
| 95> H     14.53352819    33.63399492    50.22242068
| 96> C     14.13723665    36.57560084    48.89571170
| 97> C     13.92547054    37.22147789    50.20086736
| 98> C     13.59554235    36.55151541    51.34429447
| 99> C     13.60043746    35.06292522    51.36049879
|100> H     12.71574563    34.72337606    51.15220249
|101> H     13.85607568    34.73860248    52.23773456
|102> C     13.31289745    37.55064541    52.27659346
|103> C     12.84187846    37.37706422    53.66874901
|104> C     14.14206907    39.67500784    49.63277224
|105> C     15.24101483    39.62725225    48.80509337
|106> H     15.79538393    38.88018872    48.81122898
|107> C     15.52021597    40.68618055    47.96813241
|108> C     13.33713898    40.79733342    49.65558415
|109> H     12.60556355    40.83747580    50.22871361
|110> H     12.61594073    38.42754878    55.26306524
|111> H     13.25499516    39.13765364    54.15865436
|112> N     14.37099876    35.23180006    49.00741137
|113> N     13.83597350    38.55766546    50.46800264
|114> N     13.47500166    38.77028165    51.75081837
|115> N     12.88191541    38.46312323    54.43491440
|116> O     14.02410554    37.14603790    47.83000239
|117> O     12.41888959    36.29349680    54.03358218
|118> C     15.87540259    42.75918842    46.14679838
|119> H     15.85791690    43.54085746    45.58924394
|120> H     15.71786831    41.97945730    45.60969599
|121> H     16.73482939    42.68817794    46.56936927
|122> O     14.86806660    42.86245124    47.13777904
|123> C     14.70383146    41.79092653    47.96309806
|124> C     13.62449123    41.85017115    48.82711866
|125> H     13.09021265    42.61066162    48.84584015
|126> C     18.05619849    30.88188871    43.63040919
|127> H     18.70980636    31.42616402    43.16488898
|128> H     18.52346211    30.11253924    43.99083730
|129> O     18.16147723    31.82108198    45.80320388
|130> *
|131> 
|132>                          ****END OF INPUT****
================================================================================

                       ****************************
                       * Single Point Calculation *
                       ****************************

      -----------------------------------------------------------      
     |                   =====================                   |     
     |                           x T B                           |     
     |                   =====================                   |     
     |                         S. Grimme                         |     
     |          Mulliken Center for Theoretical Chemistry        |     
     |                    University of Bonn                     |     
      -----------------------------------------------------------      

   * xtb version 6.7.1pre (5071a88) compiled by 'Marcel@Raven' on 2024-07-23

   xtb is free software: you can redistribute it and/or modify it under
   the terms of the GNU Lesser General Public License as published by
   the Free Software Foundation, either version 3 of the License, or
   (at your option) any later version.
   
   xtb is distributed in the hope that it will be useful,
   but WITHOUT ANY WARRANTY; without even the implied warranty of
   MERCHANTABILITY or FITNESS FOR A PARTICULAR PURPOSE.  See the
   GNU Lesser General Public License for more details.
   
   Cite this work as:
   * C. Bannwarth, E. Caldeweyher, S. Ehlert, A. Hansen, P. Pracht,
     J. Seibert, S. Spicher, S. Grimme, WIREs Comput. Mol. Sci., 2020, 11,
     e01493. DOI: 10.1002/wcms.1493
   
   for GFN2-xTB:
   * C. Bannwarth, S. Ehlert and S. Grimme., J. Chem. Theory Comput., 2019,
     15, 1652-1671. DOI: 10.1021/acs.jctc.8b01176
   for GFN1-xTB:
   * S. Grimme, C. Bannwarth, P. Shushkov, J. Chem. Theory Comput., 2017,
     13, 1989-2009. DOI: 10.1021/acs.jctc.7b00118
   for GFN0-xTB:
   * P. Pracht, E. Caldeweyher, S. Ehlert, S. Grimme, ChemRxiv, 2019, preprint.
     DOI: 10.26434/chemrxiv.8326202.v1
   for GFN-FF:
   * S. Spicher and S. Grimme, Angew. Chem. Int. Ed., 2020, 59, 15665-15673.
     DOI: 10.1002/anie.202004239
   
   for ALPB and GBSA implicit solvation:
   * S. Ehlert, M. Stahn, S. Spicher, S. Grimme, J. Chem. Theory Comput.,
     2021, 17, 4250-4261. DOI: 10.1021/acs.jctc.1c00471
   
   for ddCOSMO and CPCM-X implicit solvation:
   * M. Stahn, S. Ehlert, S. Grimme, J. Phys. Chem. A,
     2023, XX, XXXX-XXXX. DOI: 10.1021/acs.jpca.3c04382
   
   for DFT-D4:
   * E. Caldeweyher, C. Bannwarth and S. Grimme, J. Chem. Phys., 2017,
     147, 034112. DOI: 10.1063/1.4993215
   * E. Caldeweyher, S. Ehlert, A. Hansen, H. Neugebauer, S. Spicher,
     C. Bannwarth and S. Grimme, J. Chem. Phys., 2019, 150, 154122.
     DOI: 10.1063/1.5090222
   * E. Caldeweyher, J.-M. Mewes, S. Ehlert and S. Grimme, Phys. Chem. Chem. Phys.
     2020, 22, 8499-8512. DOI: 10.1039/D0CP00502A
   
   for sTDA-xTB:
   * S. Grimme and C. Bannwarth, J. Chem. Phys., 2016, 145, 054103.
     DOI: 10.1063/1.4959605
   
   in the mass-spec context:
   * V. Asgeirsson, C. Bauer and S. Grimme, Chem. Sci., 2017, 8, 4879.
     DOI: 10.1039/c7sc00601b
   * J. Koopman and S. Grimme, ACS Omega 2019, 4, 12, 15120-15133.
     DOI: 10.1021/acsomega.9b02011
   
   for metadynamics refer to:
   * S. Grimme, J. Chem. Theory Comput., 2019, 155, 2847-2862
     DOI: 10.1021/acs.jctc.9b00143
   
   for SPH calculations refer to:
   * S. Spicher and S. Grimme, J. Chem. Theory Comput., 2021, 17, 1701-1714
     DOI: 10.1021/acs.jctc.0c01306
   
   for ONIOM refer to:
   * C. Plett, A. Katbashev, S. Ehlert, S. Grimme, M. Bursch,
     Phys. Chem. Chem. Phys., 2023, 25, 17860-17868. DOI: 10.1039/D3CP02178E
   
   for DIPRO refer to:
   * J. Kohn, N. Gildemeister, S. Grimme, D. Fazzi, A. Hansen,
     J. Chem. Phys., 2023, just accepted.
   
   for PTB refer to:
   * S. Grimme, M. Mueller, A. Hansen, J. Chem. Phys., 2023, 158, 124111.
     DOI: 10.1063/5.0137838
   
   with help from (in alphabetical order)
   P. Atkinson, C. Bannwarth, F. Bohle, G. Brandenburg, E. Caldeweyher
   M. Checinski, S. Dohm, S. Ehlert, S. Ehrlich, I. Gerasimov, C. Hﾃｶlzer
   A. Katbashev, J. Kohn, J. Koopman, C. Lavigne, S. Lehtola, F. Mﾃ､rz, M. Mﾃｼller,
   F. Musil, H. Neugebauer, J. Pisarek, C. Plett, P. Pracht, F. Pultar,
   J. Seibert, P. Shushkov, S. Spicher, M. Stahn, M. Steiner, T. Strunk,
   J. Stﾃｼckrath, T. Rose, and J. Unsleber
   
 * started run on 2026/10/03 at 08:18:58.354     
   ID    Z sym.   atoms
    1    1 H      1, 3, 6, 11, 12, 17, 19, 22, 24, 26-30, 39, 40, 42, 43, 45,
                  46, 48, 49, 52, 56, 57, 61, 62, 64, 65, 67, 68, 71, 74, 76,
                  78, 81, 83, 84, 89, 90, 95, 98-100, 108-110, 114, 116, 117
    2    6 C      2, 4, 5, 7-10, 13-16, 18, 20, 21, 23, 25, 38, 41, 44, 47,
                  50, 51, 53-55, 60, 63, 66, 69, 70, 72, 73, 75, 77, 80, 82,
                  85-88, 91-94, 96, 97, 107, 112, 113, 115
    3    7 N      31-34, 58, 79, 101-104
    4    8 O      35-37, 59, 105, 106, 111, 118

           -------------------------------------------------
          |                Calculation Setup                |
           -------------------------------------------------

          program call               : C:\ORCA_6.1.1\xtb-6.7.1pre\xtb.exe  D5\D5_pull_+0.5A_XTB2_SP_XTB.xyz --grad -c 0 -u 0 -P 4 --namespace D5\D5_pull_+0.5A_XTB2_SP --input D5\D5_pull_+0.5A_XTB2_SP_XTB.input.tmp --acc 1.000000      
          calculation namespace      : D5\D5_pull_+0.5A_XTB2_SP
          coordinate file            : D5\D5_pull_+0.5A_XTB2_SP_XTB.xyz
          omp threads                :                     4


molecular fragmentation (1/2 indicates fragments):
111111111111111111111111111111111111111111111111111111111112222222222222
2222222222222222222222222222222222222222222222
# atoms in fragment 1/2:    59    59
 fragment masses (1/2) :      459.50      459.50
CMA distance (Bohr)    :  20.113
constraining FC (au)   :  0.0500

           -------------------------------------------------
          |                 G F N 2 - x T B                 |
           -------------------------------------------------

        Reference                      10.1021/acs.jctc.8b01176
      * Hamiltonian:
        H0-scaling (s, p, d)           1.850000    2.230000    2.230000
        zeta-weighting                 0.500000
      * Dispersion:
        s8                             2.700000
        a1                             0.520000
        a2                             5.000000
        s9                             5.000000
      * Repulsion:
        kExp                           1.500000    1.000000
        rExp                           1.000000
      * Coulomb:
        alpha                          2.000000
        third order                    shell-resolved
        anisotropic                    true
        a3                             3.000000
        a5                             4.000000
        cn-shift                       1.200000
        cn-exp                         4.000000
        max-rad                        5.000000


          ...................................................
          :                      SETUP                      :
          :.................................................:
          :  # basis functions                 322          :
          :  # atomic orbitals                 322          :
          :  # shells                          186          :
          :  # electrons                       348          :
          :  max. iterations                   250          :
          :  Hamiltonian                  GFN2-xTB          :
          :  restarted?                      false          :
          :  GBSA solvation                  false          :
          :  PC potential                    false          :
          :  electronic temp.          300.0000000     K    :
          :  accuracy                    1.0000000          :
          :  -> integral cutoff          0.2500000E+02      :
          :  -> integral neglect         0.1000000E-07      :
          :  -> SCF convergence          0.1000000E-05 Eh   :
          :  -> wf. convergence          0.1000000E-03 e    :
          :  Broyden damping             0.4000000          :
          :  net charge                          0          :
          :  unpaired electrons                  0          :
          ...................................................

 iter      E             dE          RMSdq      gap      omega  full diag
   1   -197.4549801 -0.197455E+03  0.413E+00    2.88       0.0  T
   2   -197.9793517 -0.524372E+00  0.242E+00    2.63       1.0  T
   3   -198.0287443 -0.493927E-01  0.129E+00    2.86       1.0  T
   4   -198.0355253 -0.678101E-02  0.436E-01    2.66       1.0  T
   5   -198.0511055 -0.155802E-01  0.928E-02    2.68       1.0  T
   6   -198.0513269 -0.221440E-03  0.532E-02    2.68       1.0  T
   7   -198.0514907 -0.163809E-03  0.220E-02    2.69       1.0  T
   8   -198.0514977 -0.693242E-05  0.829E-03    2.69       1.1  T
   9   -198.0515005 -0.285635E-05  0.364E-03    2.69       2.5  T
  10   -198.0515007 -0.201533E-06  0.144E-03    2.69       6.4  T
  11   -198.0515008 -0.117292E-06  0.532E-04    2.69      17.3  T
  12   -198.0515009 -0.888906E-08  0.254E-04    2.69      36.3  T

   *** convergence criteria satisfied after 12 iterations ***

         #    Occupation            Energy/Eh            Energy/eV
      -------------------------------------------------------------
         1        2.0000           -0.7261087             -19.7584
       ...           ...                  ...                  ...
       168        2.0000           -0.3857907             -10.4979
       169        2.0000           -0.3849870             -10.4760
       170        2.0000           -0.3838756             -10.4458
       171        2.0000           -0.3821913             -10.4000
       172        2.0000           -0.3811844             -10.3726
       173        2.0000           -0.3787396             -10.3060
       174        2.0000           -0.3707650             -10.0890 (HOMO)
       175                         -0.2718598              -7.3977 (LUMO)
       176                         -0.2623421              -7.1387
       177                         -0.2442943              -6.6476
       178                         -0.2369752              -6.4484
       179                         -0.2364907              -6.4352
       ...                                ...                  ...
       322                          0.8817541              23.9938
      -------------------------------------------------------------
                  HL-Gap            0.0989051 Eh            2.6913 eV
             Fermi-level           -0.3213124 Eh           -8.7434 eV

 SCC (total)                   0 d,  0 h,  0 min,  0.361 sec
 SCC setup                      ...        0 min,  0.001 sec (  0.277%)
 Dispersion                     ...        0 min,  0.003 sec (  0.831%)
 classical contributions        ...        0 min,  0.001 sec (  0.277%)
 integral evaluation            ...        0 min,  0.023 sec (  6.371%)
 iterations                     ...        0 min,  0.239 sec ( 66.205%)
 molecular gradient             ...        0 min,  0.092 sec ( 25.485%)
 printout                       ...        0 min,  0.002 sec (  0.554%)

         :::::::::::::::::::::::::::::::::::::::::::::::::::::
         ::                     SUMMARY                     ::
         :::::::::::::::::::::::::::::::::::::::::::::::::::::
         :: total energy            -193.669079718261 Eh    ::
         :: gradient norm              1.318836823480 Eh/a0 ::
         :: HOMO-LUMO gap              2.691345099330 eV    ::
         ::.................................................::
         :: SCC energy              -198.051879793448 Eh    ::
         :: -> isotropic ES            0.296134614015 Eh    ::
         :: -> anisotropic ES          0.004285597515 Eh    ::
         :: -> anisotropic XC          0.036967711080 Eh    ::
         :: -> dispersion             -0.145506522691 Eh    ::
         :: repulsion energy           4.382800075187 Eh    ::
         :: add. restraining           0.000000000000 Eh    ::
         :: total charge               0.000000000000 e     ::
         :::::::::::::::::::::::::::::::::::::::::::::::::::::


Property printout bound to 'properties.out'
#
# Number of atoms
#
       118
#
# The current total energy in Eh
#
   -193.669079718261
#
# The current gradient in Eh/bohr
#
      -0.125136157416
       0.054270064284
       0.085527577377
       0.062424862563
      -0.119546614077
       0.033318480762
      -0.071952340897
       0.138807796761
      -0.038112511721
       0.007199132401
       0.004389470133
      -0.015673872556
       0.081739798586
       0.075805536704
       0.030992778135
      -0.108423979516
       0.030415882237
      -0.034874292758
      -0.000554006569
      -0.003185025340
      -0.003240448432
      -0.004554826724
       0.017181962764
       0.015231917002
       0.003050520951
      -0.006246274772
      -0.004736628379
      -0.056586255584
       0.073178321767
       0.061312992106
       0.105001267248
      -0.036422593704
       0.026316087290
      -0.032444494960
      -0.037012106367
      -0.102362230310
       0.002154310840
       0.013977344100
      -0.014452693890
       0.004152413129
      -0.027667985094
       0.018224035487
       0.004639330136
      -0.019225708288
      -0.008573213381
       0.086020431702
       0.113146679388
      -0.001407436070
      -0.095906872554
      -0.127796345675
       0.000459762312
       0.111975006560
       0.002548503713
      -0.085754152710
      -0.129497217240
      -0.009936659509
       0.096097349552
       0.003276776417
       0.013374645461
       0.008101553877
      -0.081043637612
      -0.114787381674
       0.000848992623
       0.092350936067
       0.132229874706
      -0.001088974371
      -0.113503252833
      -0.010687480946
       0.084261246730
       0.125857479738
       0.006269717850
      -0.099036439819
       0.073136696315
       0.003692427318
      -0.076860822093
       0.010080727346
       0.107633609015
       0.068587320790
       0.023950197902
      -0.107387361577
       0.074414189365
      -0.118105485572
      -0.007978501837
      -0.059220496378
       0.062878978058
      -0.014434205798
      -0.185496139116
      -0.148881860005
       0.273779399990
       0.117222517187
      -0.002597537721
       0.000774984432
       0.004995562256
       0.000646099913
       0.014699254528
      -0.009736338324
      -0.004897340220
      -0.015877074751
       0.022161027108
       0.083071678848
      -0.235690276450
       0.056431215895
      -0.001145904195
       0.001907813263
       0.005266465159
       0.001125993191
      -0.002702811244
      -0.005110608945
       0.009829925259
       0.004577429137
      -0.007519824082
      -0.096055156198
      -0.014191127752
      -0.030375510091
       0.081139553690
      -0.076432229645
      -0.039400925604
       0.047871678097
       0.103599813446
       0.025981583396
      -0.026491322391
      -0.016427280886
      -0.068933408979
      -0.055315312991
       0.086715439321
       0.055934863419
       0.082562760668
      -0.045435259853
       0.068544015300
      -0.000033855928
       0.072279633874
      -0.044706828143
      -0.055868105899
      -0.029907012711
       0.096061277313
       0.055282296281
      -0.092577098803
      -0.045317754016
       0.099364375079
       0.025042252913
      -0.013505996578
      -0.076669406126
       0.070800116807
       0.051580079550
      -0.054804588865
      -0.089090116768
      -0.048373190735
      -0.004598936127
       0.006924368399
      -0.023939084821
      -0.062686659592
       0.122834736499
      -0.032656874748
       0.071855087472
      -0.138458489509
       0.037459400479
      -0.004079644304
      -0.007901988383
       0.010509412585
       0.107677209418
      -0.049101749993
      -0.072631841486
      -0.113893897332
       0.045032876123
       0.072491528607
       0.128247620335
      -0.052188787799
      -0.082407345926
       0.011955568577
      -0.111826639113
       0.016733656696
       0.001090772609
       0.004004214480
      -0.001372151453
       0.006404924183
       0.000214870898
       0.010174328590
      -0.096135498342
       0.014092767550
      -0.030294788514
       0.081148728902
       0.076399587687
      -0.039404968118
       0.047847094231
      -0.103579474603
       0.025965155658
      -0.026665656204
       0.016305463838
      -0.068886385247
      -0.055208792657
      -0.086713297183
       0.055920528481
       0.082532860114
       0.045401389034
       0.068552457363
      -0.000085200881
      -0.072355416170
      -0.044644301142
      -0.055915865434
       0.029876317943
       0.096073035576
       0.055299619244
       0.092609033188
      -0.045291397126
      -0.004021278599
      -0.007011434673
      -0.023256467646
      -0.062758122268
      -0.122800313345
      -0.032655553453
       0.071879580382
       0.138455512485
       0.037452197965
      -0.003992196898
       0.007689264642
       0.010426328290
       0.107191864534
       0.048918561316
      -0.072514882597
      -0.125073457572
      -0.054383679384
       0.085945312274
       0.062085773578
       0.119608059449
       0.033313761922
      -0.071363326375
      -0.138830048308
      -0.037987086360
      -0.113938454315
      -0.044931476842
       0.072568523856
      -0.130246912515
       0.010557465743
       0.096989559455
       0.000618213120
      -0.003923674874
      -0.001340963605
       0.007455363702
      -0.004769017847
      -0.016186717779
       0.128204757801
       0.052127302861
      -0.082414415248
       0.081865025516
      -0.075690286564
       0.030999442195
      -0.108463322770
      -0.030480283931
      -0.034948211748
       0.012017456846
       0.111883437696
       0.016685747762
       0.000020962569
       0.001055241228
      -0.002863665841
      -0.004579027033
      -0.017571292590
       0.015438407061
       0.003154724832
       0.006408429356
      -0.005268859428
      -0.056740859360
      -0.073187333361
       0.061413907271
       0.104911884594
       0.036414263731
       0.026158393146
      -0.032249704884
       0.037035044565
      -0.102388342787
       0.002078855932
      -0.013313737420
      -0.014471418586
       0.004409635835
       0.031001734384
       0.019121739235
       0.004667091266
       0.018747620596
      -0.008233640714
       0.085850534722
      -0.113711862152
      -0.000957727749
      -0.095921252339
       0.127530059279
       0.000647246218
       0.110889195902
      -0.002109158657
      -0.085566703832
      -0.113588582971
       0.010989249918
       0.084239362808
       0.125972388144
      -0.006398993650
      -0.098828192632
       0.063016833179
       0.014621168487
      -0.185645029811
      -0.148853353417
      -0.273430986689
       0.117502177090
      -0.003130531211
       0.000471612340
       0.005384668840
       0.000807185673
      -0.014514918690
      -0.010068405177
      -0.005494439535
       0.015652048261
       0.022774845314
       0.082566299431
       0.233658721466
       0.055290184582
      -0.001332576727
      -0.000802612527
       0.004737887394
      -0.000016266297
       0.000518098894
      -0.004377096078
       0.072528898253
      -0.003477157996
      -0.076353132272
       0.010248724990
      -0.107868357461
       0.068582132602
       0.022860175068
       0.107644814257
       0.073742976727
      -0.117863266383
       0.009101153278
      -0.058659847293
       0.010571573751
      -0.004275284774
      -0.008457817338
       0.003133231113
      -0.013534357862
       0.008574781184
      -0.080905993332
       0.114590777805
       0.001063033273
       0.092657909724
      -0.132187474136
      -0.001422148994
       0.099294630782
      -0.025249324089
      -0.013472761829
      -0.076753975791
      -0.070895041152
       0.051603189254
      -0.054792066651
       0.089087606831
      -0.048343177202
       0.006016552824
      -0.000442363177
       0.009673942321
#
# The atomic numbers and current coordinates in Bohr
#
   1    43.1604586   78.2515582   70.4834824
   6    40.9351014   77.4668192   73.4514114
   1    41.7179003   75.9522729   73.8786291
   6    38.9098143   78.3135525   74.8371188
   6    38.5105083   78.1422179   79.5038103
   1    40.2053923   77.7467094   80.0772988
   6    37.6370641   74.4034597   76.8150444
   6    37.2368841   73.1829289   79.2814312
   6    36.6134102   74.4489745   81.4421953
   6    36.6226606   77.2620023   81.4728170
   1    34.9508353   77.9036572   81.0791941
   1    37.1057468   77.8748834   83.1305524
   6    36.0792887   72.5608925   83.2039850
   6    35.1891918   72.8889134   85.8347778
   6    37.6461960   68.5464293   78.2078870
   6    39.7229025   68.6366743   76.6438006
   1    40.7705083   70.0484197   76.6553953
   6    40.2505162   66.6355898   75.0621736
   1    41.6497094   66.6975842   74.0034944
   6    38.7077731   64.5479224   75.0526601
   6    36.6681156   64.4359663   76.6854224
   1    35.6584754   62.9988476   76.7208009
   6    36.1250986   66.4255413   78.2509953
   1    34.7426214   66.3496832   79.3340530
   6    40.9217217   62.7181726   71.6203511
   1    40.8886785   61.2410323   70.5667259
   1    40.6240250   64.1916509   70.6053747
   1    42.5458029   62.8523630   72.4188944
   1    34.7622314   70.9037852   88.8475988
   1    35.9698693   69.5618815   86.7605647
   7    38.0788104   76.9428751   77.0261262
   7    37.0677592   70.6579004   79.7862437
   7    36.3856213   70.2561140   82.2104141
   7    35.2648507   70.8365593   87.2826205
   8    37.4232773   73.3254898   74.8011457
   8    34.3898587   74.9365590   86.5242125
   8    39.0181325   62.5230342   73.4930332
   6    40.0031552   83.0659320   66.6183071
   1    38.6913632   84.2312694   67.1537414
   1    39.1889076   81.4925303   66.1488731
   6    41.2647939   84.1161744   64.3817320
   1    42.0952652   82.7533443   63.4761613
   1    39.9986925   84.8329027   63.2680525
   6    43.1479586   86.0754061   64.9861394
   1    44.0126330   86.5776391   63.4494045
   1    42.2907910   87.5507154   65.6583309
   6    45.0428286   85.1630162   66.8650647
   1    46.2779685   84.1344849   65.9853590
   1    45.9258289   86.6168760   67.5461751
   6    44.0044486   83.6555326   69.0264234
   6    38.6438562   81.9521257   72.1739206
   1    37.8654845   83.4700726   71.7470002
   6    40.6982403   81.1171634   70.8084295
   6    41.8089041   78.8508372   71.4339451
   6    37.7380442   80.5416882   74.1714679
   1    36.3338648   81.0975450   75.0707953
   1    38.3859465   79.9622892   79.3221611
   7    41.6991226   82.5880259   68.7609360
   8    45.2417766   83.3881981   70.9710516
   6    29.0815965   60.4553961   82.2027665
   1    27.7698045   59.2900587   82.7382007
   1    28.2673490   62.0287978   81.7333324
   6    30.3432353   59.4051537   79.9661913
   1    31.1737066   60.7679838   79.0606207
   1    29.0771339   58.6884254   78.8525119
   6    32.2264000   57.4459220   80.5705988
   1    33.0910743   56.9436890   79.0338638
   1    31.3692324   55.9706127   81.2427902
   6    33.0828899   59.8657955   84.6108828
   6    27.7222976   61.5692023   87.7583799
   1    26.9439258   60.0512555   87.3314596
   6    29.7766817   62.4041646   86.3928888
   6    30.8873455   64.6704909   87.0184044
   1    32.2388999   65.2697699   86.0679417
   6    30.0135428   66.0545089   89.0358707
   1    30.7963416   67.5690552   89.4630884
   6    26.8164855   62.9796399   89.7559272
   1    30.7281508   76.8237439   89.5879537
   7    30.7775640   60.9333021   84.3453954
   6    27.9882557   65.2077755   90.4215781
   1    25.4123061   62.4237831   90.6552546
   6    27.5889497   65.3791102   95.0882697
   1    29.2838336   65.7746187   95.6617581
   1    27.4643879   63.5590389   94.9066204
   6    26.7155054   69.1178684   92.3995038
   6    26.3153255   70.3383992   94.8658905
   6    25.6918516   69.0723536   97.0266546
   6    25.7011020   66.2593258   97.0572763
   1    24.0292767   65.6176709   96.6636534
   1    26.1841882   65.6464446   98.7150117
   6    25.1577301   70.9604356   98.7884444
   6    24.2676332   70.6324147  101.4192371
   6    26.7246374   74.9748988   93.7923463
   6    28.8013439   74.8846538   92.2282600
   1    29.8489497   73.4729084   92.2398546
   6    29.3289576   76.8857383   90.6466330
   6    25.2035400   77.0957868   93.8354546
   1    23.8210628   77.1716449   94.9185123
   1    23.8406728   72.6175428  104.4320581
   1    25.0483106   73.9594465  102.3450240
   7    27.1572518   66.5784530   92.6105856
   7    26.1462006   72.8634277   95.3707030
   7    25.4640627   73.2652141   97.7948734
   7    24.3432921   72.6847688  102.8670798
   8    26.5017186   70.1958382   90.3856051
   8    23.4683001   68.5847691  102.1086719
   6    30.0001630   80.8031554   87.2048105
   1    29.9671198   82.2802958   86.1511853
   1    29.7024664   79.3296772   86.1898340
   1    31.6242443   80.6689651   88.0033537
   8    28.0965739   80.9982939   89.0774925
   6    27.7862144   78.9734056   90.6371194
   6    25.7465570   79.0853617   92.2698817
   1    24.7369168   80.5224805   92.3052602
   6    34.1212700   58.3583119   82.4495241
   1    35.3564099   59.3868431   81.5698184
   1    35.0042703   56.9044521   83.1306345
   8    34.3202180   60.1331299   86.5555110

           -------------------------------------------------
          | TOTAL ENERGY             -193.669079718261 Eh   |
          | GRADIENT NORM               1.318836823480 Eh/ﾎｱ |
          | HOMO-LUMO GAP               2.691345099330 eV   |
           -------------------------------------------------

------------------------------------------------------------------------
 * finished run on 2026/10/03 at 08:18:58.806     
------------------------------------------------------------------------
 total:
 * wall-time:     0 d,  0 h,  0 min,  0.449 sec
 *  cpu-time:     0 d,  0 h,  0 min,  1.766 sec
 * ratio c/w:     3.932 speedup
 SCF:
 * wall-time:     0 d,  0 h,  0 min,  0.363 sec
 *  cpu-time:     0 d,  0 h,  0 min,  1.500 sec
 * ratio c/w:     4.132 speedup


-------------------------   --------------------
FINAL SINGLE POINT ENERGY      -193.669079718260
-------------------------   --------------------


-------------
DIPOLE MOMENT
-------------
                                X             Y             Z
Total Dipole Moment    :      1.16200       0.09400      -3.68400
                        -----------------------------------------
Magnitude (a.u.)       :      3.86406
Magnitude (Debye)      :      9.82165


--------------------------------
SUGGESTED CITATIONS FOR THIS RUN
--------------------------------

Below you find a list of papers that are relevant to this ORCA run
We neither can nor want to force you to cite these papers, but we appreciate if you do
You receive ORCA, which is the product of decades of hard work by many enthusiastic individuals, for free
The only thing we kindly ask in return is that you cite our papers,
We deeply appreciate it, if you show your appreciation for ORCA by not just citing the generic ORCA reference.

Please note that relegating all ORCA citations to the supporting information does *not* help us.
SI sections are not indexed - citations you put there will not count into any citation statistics
But we need these citations in order to attract the funding resources that allow us to do what we are doing

Therefore, if you are a happy ORCA user, please consider citing a few of the papers listed below in the main body of your paper

In addition to the list printed below, the program has created the file D5\D5_pull_+0.5A_XTB2_SP.bibtex that contains the list in bibtex format
You can import this file easily into all common literature databanks and citation aid programs

It goes without saying that in many instances, there are alternative algorithms to achieve similar
results as the ones you have gotten from ORCA. It is, of course, also the case that in some instances
ORCA just re-implements algorithms worked out by others. We are fully aware of that and we are also
fully appreciative of our colleagues work. Hence this citation list should not be read as indicating
that the listed papers, which are focused on our own work, are the only ones worth citing. It simply
meant to make it easier for users to cite ORCA specific papers. It is not a substitute for doing your
own literature research and citing the relevant literature in a scientifically appropriate manner.

List of essential papers. We consider these as the minimum necessary citations

  1. Bannwarth, C.; Ehlert, S.; Grimme, S.
     GFN2-xTB窶尿n Accurate and Broadly Parametrized Self-Consistent Tight-Binding Quantum Chemical Method with Multipole Electrostatics and Density-Dependent Dispersion Contributions
     J. Chem. Theory Comput. 2019 15(3), 1652-1671
     doi.org/10.1021/acs.jctc.8b01176
  2. Neese, F.
     Software update: the ORCA program system, version 6.0
     WIRES Comput. Molec. Sci. 2025 15(1), e70019
     doi.org/10.1002/wcms.70019

List of papers to cite with high priority. The work reported in these papers was absolutely
necessary for this run to complete.
Our perspective: the developers of density functionals and basis sets usually get cited in chemistry papers
Good! But without the algorithms to do something with them, the functionals or basis sets would not do anything.
Hence, in our opinion, the algorithm design and method developments papers are equally worthy of getting cited

  1. Bannwarth, C.; Caldeweyher, E.; Ehlert, S.; Hansen, A.; Pracht, P.; Seibert, J.; Spicher, S.; Grimme, S.
     Extended tight-binding quantum chemistry methods
     WIRES Comput. Molec. Sci. 2020 11(2), e1493
     doi.org/10.1002/wcms.1493

List of suggested additional citations. These are papers that are important in the 'surrounding' of 
of this run, or papers that preceded the highly important papers. If you like your results we are grateful for a citation.

  1. Neese, F.
     The ORCA program system
     WIRES Comput. Molec. Sci. 2012 2(1), 73-78
     doi.org/10.1002/wcms.81
  2. Neese, F.
     Software update: the ORCA program system, version 4.0
     WIRES Comput. Molec. Sci. 2018 8(1), 1-6
     doi.org/10.1002/wcms.1327
  3. Neese, F.; Wennmohs, F.; Becker, U.; Riplinger, C.
     The ORCA quantum chemistry program package
     J. Chem. Phys. 2020 152(22), 224108
     doi.org/10.1063/5.0004608
  4. Neese, F.
     Software update: The ORCA program system窶之ersion 5.0
     WIRES Comput. Molec. Sci. 2022 12(1), e1606
     doi.org/10.1002/wcms.1606

List of optional additional citations

  1. Neese, F.
     Approximate second-order SCF convergence for spin unrestricted wavefunctions
     Chem. Phys. Lett. 2000 325(1-3), 93-98
     doi.org/10.1016/s0009-2614(00)00662-x

Timings for individual modules:

Sum of individual times          ...        0.521 sec (=   0.009 min)
XTB module                       ...        0.521 sec (=   0.009 min) 100.0 %
                             ****ORCA TERMINATED NORMALLY****
TOTAL RUN TIME: 0 days 0 hours 0 minutes 0 seconds 971 msec
