
                                 *****************
                                 * O   R   C   A *
                                 *****************

                                            #,                                       
                                            ###                                      
                                            ####                                     
                                            #####                                    
                                            ######                                   
                                           ########,                                 
                                     ,,################,,,,,                         
                               ,,#################################,,                 
                          ,,##########################################,,             
                       ,#########################################, ''#####,          
                    ,#############################################,,   '####,        
                  ,##################################################,,,,####,       
                ,###########''''           ''''###############################       
              ,#####''   ,,,,##########,,,,          '''####'''          '####       
            ,##' ,,,,###########################,,,                        '##       
           ' ,,###''''                  '''############,,,                           
         ,,##''                                '''############,,,,        ,,,,,,###''
      ,#''                                            '''#######################'''  
     '                                                          ''''####''''         
             ,#######,   #######,   ,#######,      ##                                
            ,#'     '#,  ##    ##  ,#'     '#,    #''#        ,####,    ,#,          
            ##       ##  ##   ,#'  ##            #'  '#       #'       ,# #          
            ##       ##  #######   ##           ,######,      #####,      #          
            '#,     ,#'  ##    ##  '#,     ,#' ,#      #,     #,   #      #          
             '#######'   ##     ##  '#######'  #'      '#     '####' #    #          



                #########################################################
                #                        -***-                          #
                #          Department of theory and spectroscopy        #
                #                                                       #
                #                      Frank Neese                      #
                #                                                       #
                #     Directorship, Architecture, Infrastructure        #
                #                    SHARK, DRIVERS                     #
                #        Core code/Algorithms in most modules           #
                #                                                       #
                #        Max Planck Institute fuer Kohlenforschung      #
                #                Kaiser Wilhelm Platz 1                 #
                #                 D-45470 Muelheim/Ruhr                 #
                #                      Germany                          #
                #                                                       #
                #                  All rights reserved                  #
                #                        -***-                          #
                #########################################################


                         Program Version 6.1.1  -  RELEASE   -


 With contributions from (in alphabetic order):
[Max-Planck-Institut fuer Kohlenforschung]                               
  Daniel Aravena         : Magnetic Suceptibility                        
  Michael Atanasov       : Ab Initio Ligand Field Theory (pilot matlab implementation)
  Alexander A. Auer      : GIAO ZORA, VPT2 properties, NMR spectrum      
  Ute Becker             : All parallelization in ORCA, NUMFREQ, NUMCALC 
  Giovanni Bistoni       : ED, misc. LED, open-shell LED, HFLD           
  Dmytro Bykov           : pre 5.0 version of the SCF Hessian            
  Marcos Casanova-Pﾃ｡ez   : Triplet and SCS-CIS(D). UHF-(DLPNO)-IP/EA/STEOM-CCSD. UHF-CVS-IP/STEOM-CCSD   
  Vijay G. Chilkuri      : MRCI spin determinant printing, contributions to CSF-ICE 
  Pauline Colinet        : FMM embedding                                 
  Dipayan Datta          : RHF DLPNO-CCSD density                        
  Achintya Kumar Dutta   : EOM-CC, STEOM-CC                              
  Nicolas Foglia         : Exact transition moments, OPA infrastructure, MCD improvements    
  Dmitry Ganyushin       : Spin-Orbit,Spin-Spin,Magnetic field MRCI      
  Miquel Garcia-Rates    : C-PCM and meta-GGA Hessian, CCSD/C-PCM, Gaussian charge scheme 
  Tiago L. C. Gouveia    : GS-ROHF, GS-ROCIS                             
  Yang Guo               : DLPNO-NEVPT2, F12-NEVPT2, CIM, IAO-localization        
  Andreas Hansen         : Spin unrestricted coupled pair/coupled cluster methods 
  Ingolf Harden          : AUTO-CI MPn and infrastructure                
  Benjamin Helmich-Paris : MC-RPA, TRAH-(SCF,CASSCF), AVAS, COSX integrals, SCF dyn. polar., MC-PDFT, srDFT 
  Lee Huntington         : MR-EOM, pCC                                   
  Robert Izsak           : Overlap fitted RIJCOSX, COSX-SCS-MP3, EOM     
  Riya Kayal             : Wick's Theorem for AUTO-CI, AUTO-CI UHF-CCSDT 
  Emily Kempfer          : AUTO-CI RHF CISDT and CCSDT, approximate NEVPT4
  Christian Kollmar      : KDIIS, OOCD, Brueckner-CCSD(T), CCSD density, CASPT2, CASPT2-K, improved NEVPT2 
  Axel Koslowski         : Symmetry handling                             
  Simone Kossmann        : meta-GGA functionals, TD-DFT gradient, OOMP2, (MP2 Hessian; deprecated post 5.0) 
  Lucas Lang             : DCDCAS, Hyperfine gauge corrections, ICE-SOC+SSC
  Marvin Lechner         : AUTO-CI (C++ implementation), FIC-MRCC        
  Spencer Leger          : CASSCF response                               
  Dagmar Lenk            : GEPOL surface, SMD, ORCA-2-JSON               
  Dimitrios Liakos       : Extrapolation schemes; Compound Job, Property file
  Dimitrios Manganas     : Further ROCIS development; embedding schemes. LFT, Crystal Embedding 
  Dimitrios Pantazis     : SARC Basis sets                               
  Anastasios Papadopoulos: AUTO-CI, single reference methods and gradients 
  Taras Petrenko         : pre 6.0 DFT Hessian and TD-DFT gradient,  ECA, NRVS 
  Petra Pikulova         : Analytic Raman intensities                    
  Peter Pinski           : DLPNO-MP2, DLPNO-MP2 Gradient                 
  Shashank Vittal Rao    : ES-AILFT, MagRelax                            
  Christoph Reimann      : Effective Core Potentials                     
  Marius Retegan         : Local ZFS, SOC                                
  Christoph Riplinger    : Optimizer, TS searches, QM/MM, DLPNO-CCSD(T), (RO)-DLPNO pert. Triples 
  Michael Roemelt        : Original ROCIS implementation, recursive CI coupling coefficients
  Masaaki Saitow         : Open-shell DLPNO-CCSD energy and density      
  Barbara Sandhoefer     : DKH picture change effects                    
  Yorick L. A. Schmerwitz: GMF and freeze-and-release deltaSCF, NEB S-IDPP initial path                    
  Kantharuban Sivalingam : CASSCF convergence/infrastructure, NEVPT2, NEVPT3, NEVPT4(SD), FIC-MRCI and CEPA variants
  Bernardo de Souza      : ESD, SOC TD-DFT                               
  Georgi L. Stoychev     : AutoAux, RI-MP2 NMR, DLPNO-MP2 response, X2C  
  Van Anh Tran           : RI-MP2 g-tensors                              
  Willem Van den Heuvel  : Paramagnetic NMR                              
  Zikuan Wang            : NOTCH, Electric field optimization            
  Frank Wennmohs         : Technical directorship and infrastructure     
  Hang Xu                : AUTO-CI-Response properties                   
                                                                         
[FACCTs GmbH]                                                            
  Markus Bursch, Nicolas Foglia, Miquel Garcia-Rates, Ingolf Harden, Hagen Neugebauer, Anastasios Papadopoulos, 
  Christoph Riplinger, Bernardo de Souza, Georgi L. Stoychev                                                    
                                                                 
  APM, various basis sets, CI-OPT, improved COSX, DLPNO-Multilevel,           
  DOCKER, DRACO, updates on ESD, Fragmentator, GOAT, IRC, LR-CPCM, L-BFGS, MBIS, meta-GGA TD-DFT gradient, ML-optimized integration grids, 
  MM, NACMEs, nearIR, NEB, NEB-TS, NL-DFT gradient (VV10), 2- and 3-layer-ONIOM, interface openCOSMO-RS, QMMM,   
  Crystal-QMMM, RESP, rigid body optimization, SF, symmetry and pop. for TD-DFT, various functionals, SOLVATOR                                   
                                                                         
[Other institutions]                                                     
  V. Asgeirsson          : NEB                                           
  Christoph Bannwarth    : sTDA-DFT, sTD-DFT, PBEh-3c, B97-3c, D3        
  Giovanni Bistoni       : ETS/NOCV, ADLD/ADEX, COVALED                  
  Martin Brehm           : Molecular dynamics                            
  Ronald Cardenas        : ETS/NOCV                                      
  Martina Colucci        : COVALED                                       
  Sebastian Ehlert       : rSCAN, r2SCAN, r2SCAN-3c, D4, dhf basis sets  
  Marvin Friede          : D4 for Fr, Ra, Ac-Lr                          
  Lars Goerigk           : TD-DFT with DH, B97 family of functionals     
  Stefan Grimme          : VdW corrections, initial TS optimization, DFT functionals, gCP, sTDA/sTD-DF 
  Waldemar Hujo          : DFT-NL                                        
  H. Jonsson             : NEB                                           
  Holger Kruse           : gCP                                           
  Marcel Mueller         : wB97X-3c, vDZP basis set                      
  Hagen Neugebauer       : wr2SCAN, Native XTB                           
  Gianluca Regni         : ADLD/ADEX                                     
  Tobias Risthaus        : pre 6.0 range-separated hybrid DFT and stability analysis
  Lukas Wittmann         : regularized MP2, r2SCAN double-hybrids, wr2SCAN        
                                                                         
We gratefully acknowledge several colleagues who have allowed us to      
interface, adapt or use parts of their codes:                            
  Ed Valeev, F. Pavosevic, A. Kumar             : LibInt (2-el integral package), F12 methods 
  Garnet Chan, S. Sharma, J. Yang, R. Olivares  : DMRG                   
  Ulf Ekstrom                                   : XCFun DFT Library      
  Mihaly Kallay                                 : mrcc  (arbitrary order and MRCC methods)
  Frank Weinhold                                : gennbo (NPA and NBO analysis)           
  Simon Mueller                                 : openCOSMO-RS                            
  Christopher J. Cramer and Donald G. Truhlar   : smd solvation model                     
  S Lehtola, MJT Oliveira, MAL Marques          : LibXC Library                           
  Liviu Ungur et al                             : ANISO software                          


 Your calculation uses the libint2 library for the computation of 2-el integrals
 For citations please refer to: http://libint.valeyev.net

 Your ORCA version has been built with support for libXC version: 7.0.0
 For citations please refer to: https://libxc.gitlab.io

 This ORCA versions uses:
   CBLAS   interface :  Fast vector & matrix operations
   LAPACKE interface :  Fast linear algebra routines
   Shared memory     :  Shared parallel matrices


  ***********************************
  * Starting time: Sat Oct  3 09:28:24 2026
  * Host name:     DESKTOP-2KDTO5M
  * Process ID:    6428
  * Working dir.:  C:\Users\naoki\Downloads\デスクトップ\data\Molecules\Calculations\Apixaban\CrystalFragment
  ***********************************

NOTE: MaxCore=2000 MB was set to SCF,MP2,MDCI,CIPSI,MRCI,RASCI and CIS
      => If you want to overwrite this, your respective input block should be placed after the MaxCore statement
Your calculation utilizes the semiempirical GFN2-xTB method
Please cite in your paper:
Bannwarth, C.; Ehlert S.; Grimme, S. J. Chem. Theory Comput. 2019, 15, 1652.
   

================================================================================

================================================================================
                                        WARNINGS
                       Please study these warnings very carefully!
================================================================================


WARNING: Found dipole moment calculation with XTB calculation
  ===> : Switching off dipole moment calculation

Environment variable XTBEXE for xtb has been set!

================================================================================
                                       INPUT FILE
================================================================================
NAME = D5\D5_pull_+10.0A_XTB2_SP.inp
|  1> # D5 pull-apart: molecule B displaced +10.0 A along centroid vector (rigid), XTB2 single point
|  2> 
|  3> ! XTB2
|  4> 
|  5> %pal
|  6>   nprocs 4
|  7> end
|  8> 
|  9> %maxcore 2000
| 10> 
| 11> * xyz 0 1
| 12> H     22.83953108    41.40894130    37.29825264
| 13> C     21.66192281    40.99367530    38.86881303
| 14> H     22.07616212    40.19221192    39.09488688
| 15> C     20.59018700    41.44174731    39.60209780
| 16> C     20.37888339    41.35108090    42.07160460
| 17> H     21.27577734    41.14178684    42.37508161
| 18> C     19.91667659    39.37261526    40.64877097
| 19> C     19.70491047    38.72673821    41.95392663
| 20> C     19.37498228    39.39670069    43.09735375
| 21> C     19.37987740    40.88529087    43.11355807
| 22> H     18.49518556    41.22484004    42.90526177
| 23> H     19.63551561    41.20961362    43.99079384
| 24> C     19.09233738    38.39757069    44.02965274
| 25> C     18.62131839    38.57115188    45.42180829
| 26> C     19.92150901    36.27320826    41.38583152
| 27> C     21.02045476    36.32096385    40.55815264
| 28> H     21.57482386    37.06802738    40.56428826
| 29> C     21.29965591    35.26203555    39.72119169
| 30> H     22.04007708    35.29484156    39.16096274
| 31> C     20.48327140    34.15728956    39.71615733
| 32> C     19.40393116    34.09804495    40.58017793
| 33> H     18.86965258    33.33755448    40.59889943
| 34> C     19.11657892    35.15088268    41.40864342
| 35> H     18.38500348    35.11074030    41.98177289
| 36> C     21.65484253    33.18902767    37.89985766
| 37> H     21.63735684    32.40735864    37.34230322
| 38> H     21.49730824    33.96875880    37.36275527
| 39> H     22.51426932    33.26003816    38.32242855
| 40> H     18.39538066    37.52066732    47.01612452
| 41> H     19.03443510    36.81056246    45.91171363
| 42> N     20.15043870    40.71641603    40.76047065
| 43> N     19.61541343    37.39055064    42.22106192
| 44> N     19.25444159    37.17793445    43.50387764
| 45> N     18.66135535    37.48509287    46.18797368
| 46> O     19.80354548    38.80217820    39.58306166
| 47> O     18.19832953    39.65471929    45.78664146
| 48> O     20.64750653    33.08576486    38.89083831
| 49> C     21.16875807    43.95659821    35.25288997
| 50> H     20.47458764    44.57326822    35.53622957
| 51> H     20.73787682    43.12398988    35.00447618
| 52> C     21.83638855    44.51236254    34.06934536
| 53> H     22.27585503    43.79118392    33.59013802
| 54> H     21.16639655    44.89163882    33.48001158
| 55> C     22.83291639    45.54914332    34.38918402
| 56> H     23.29048235    45.81491356    33.57597890
| 57> H     22.37932284    46.32984340    34.74489242
| 58> C     23.83563842    45.06632738    35.38346846
| 59> H     24.48924629    44.52205208    34.91794826
| 60> H     24.30290205    45.83567686    35.74389657
| 61> C     23.28615136    44.26860140    36.52721022
| 62> C     20.44944804    43.36719733    38.19279400
| 63> H     20.03755147    44.17046020    37.96687747
| 64> C     21.53658130    42.92535431    37.47020721
| 65> C     22.12431926    41.72606610    37.80121583
| 66> C     19.97011296    42.62082591    39.24985051
| 67> H     19.22705322    42.91497266    39.72575407
| 68> H     20.31296812    42.31422118    41.97547995
| 69> N     22.06622540    43.70370122    36.38672035
| 70> O     23.94091717    44.12713411    37.55626316
| 71> C     10.31935283    28.49782377    50.73439041
| 72> H      9.62518240    27.88115376    51.01773001
| 73> H      9.88847158    29.33043210    50.48597662
| 74> C     10.98698331    27.94205944    49.55084581
| 75> H     11.42644980    28.66323806    49.07163846
| 76> H     10.31699131    27.56278316    48.96151202
| 77> C     11.98351115    26.90527866    49.87068446
| 78> H     12.44107711    26.63950842    49.05747935
| 79> H     11.52991761    26.12457858    50.22639287
| 80> C     12.43674612    28.18582058    52.00871067
| 81> C      9.60004280    29.08722465    53.67429444
| 82> H      9.18814623    28.28396178    53.44837791
| 83> C     10.68717606    29.52906767    52.95170766
| 84> C     11.27491402    30.72835588    53.28271628
| 85> H     11.99012584    31.04548068    52.77975309
| 86> C     10.81251757    31.46074668    54.35031347
| 87> H     11.22675688    32.26221006    54.57638732
| 88> C      9.12070772    29.83359607    54.73135096
| 89> H     11.19067184    37.15958042    54.64246319
| 90> N     11.21682016    28.75072076    51.86822079
| 91> C      9.74078176    31.01267467    55.08359825
| 92> H      8.37764798    29.53944932    55.20725451
| 93> C      9.52947815    31.10334108    57.55310505
| 94> H     10.42637210    31.31263514    57.85658206
| 95> H      9.46356288    30.14020080    57.45698040
| 96> C      9.06727135    33.08180672    56.13027142
| 97> C      8.85550523    33.72768377    57.43542708
| 98> C      8.52557704    33.05772129    58.57885419
| 99> C      8.53047216    31.56913111    58.59505851
|100> H      7.64578032    31.22958194    58.38676221
|101> H      8.78611037    31.24480836    59.47229428
|102> C      8.24293215    34.05685129    59.51115319
|103> C      7.77191315    33.88327010    60.90330873
|104> C      9.07210377    36.18121372    56.86733196
|105> C     10.17104952    36.13345813    56.03965309
|106> H     10.72541862    35.38639460    56.04578871
|107> C     10.45025067    37.19238643    55.20269213
|108> C      8.26717368    37.30353930    56.89014387
|109> H      7.53559824    37.34368168    57.46327334
|110> H      7.54597542    34.93375466    62.49762497
|111> H      8.18502986    35.64385952    61.39321408
|112> N      9.30103346    31.73800595    56.24197110
|113> N      8.76600819    35.06387134    57.70256236
|114> N      8.40503635    35.27648753    58.98537809
|115> N      7.81195011    34.96932911    61.66947412
|116> O      8.95414024    33.65224378    55.06456211
|117> O      7.34892429    32.79970269    61.26814190
|118> C     10.80543729    39.26539431    53.38135810
|119> H     10.78795160    40.04706334    52.82380366
|120> H     10.64790300    38.48566318    52.84425572
|121> H     11.66486408    39.19438382    53.80392899
|122> O      9.79810130    39.36865712    54.37233876
|123> C      9.63386616    38.29713242    55.19765778
|124> C      8.55452592    38.35637703    56.06167838
|125> H      8.02024734    39.11686750    56.08039987
|126> C     12.98623318    27.38809460    50.86496891
|127> H     13.63984105    27.93236990    50.39944871
|128> H     13.45349681    26.61874512    51.22539702
|129> O     13.09151193    28.32728787    53.03776361
|130> *
|131> 
|132>                          ****END OF INPUT****
================================================================================

                       ****************************
                       * Single Point Calculation *
                       ****************************

      -----------------------------------------------------------      
     |                   =====================                   |     
     |                           x T B                           |     
     |                   =====================                   |     
     |                         S. Grimme                         |     
     |          Mulliken Center for Theoretical Chemistry        |     
     |                    University of Bonn                     |     
      -----------------------------------------------------------      

   * xtb version 6.7.1pre (5071a88) compiled by 'Marcel@Raven' on 2024-07-23

   xtb is free software: you can redistribute it and/or modify it under
   the terms of the GNU Lesser General Public License as published by
   the Free Software Foundation, either version 3 of the License, or
   (at your option) any later version.
   
   xtb is distributed in the hope that it will be useful,
   but WITHOUT ANY WARRANTY; without even the implied warranty of
   MERCHANTABILITY or FITNESS FOR A PARTICULAR PURPOSE.  See the
   GNU Lesser General Public License for more details.
   
   Cite this work as:
   * C. Bannwarth, E. Caldeweyher, S. Ehlert, A. Hansen, P. Pracht,
     J. Seibert, S. Spicher, S. Grimme, WIREs Comput. Mol. Sci., 2020, 11,
     e01493. DOI: 10.1002/wcms.1493
   
   for GFN2-xTB:
   * C. Bannwarth, S. Ehlert and S. Grimme., J. Chem. Theory Comput., 2019,
     15, 1652-1671. DOI: 10.1021/acs.jctc.8b01176
   for GFN1-xTB:
   * S. Grimme, C. Bannwarth, P. Shushkov, J. Chem. Theory Comput., 2017,
     13, 1989-2009. DOI: 10.1021/acs.jctc.7b00118
   for GFN0-xTB:
   * P. Pracht, E. Caldeweyher, S. Ehlert, S. Grimme, ChemRxiv, 2019, preprint.
     DOI: 10.26434/chemrxiv.8326202.v1
   for GFN-FF:
   * S. Spicher and S. Grimme, Angew. Chem. Int. Ed., 2020, 59, 15665-15673.
     DOI: 10.1002/anie.202004239
   
   for ALPB and GBSA implicit solvation:
   * S. Ehlert, M. Stahn, S. Spicher, S. Grimme, J. Chem. Theory Comput.,
     2021, 17, 4250-4261. DOI: 10.1021/acs.jctc.1c00471
   
   for ddCOSMO and CPCM-X implicit solvation:
   * M. Stahn, S. Ehlert, S. Grimme, J. Phys. Chem. A,
     2023, XX, XXXX-XXXX. DOI: 10.1021/acs.jpca.3c04382
   
   for DFT-D4:
   * E. Caldeweyher, C. Bannwarth and S. Grimme, J. Chem. Phys., 2017,
     147, 034112. DOI: 10.1063/1.4993215
   * E. Caldeweyher, S. Ehlert, A. Hansen, H. Neugebauer, S. Spicher,
     C. Bannwarth and S. Grimme, J. Chem. Phys., 2019, 150, 154122.
     DOI: 10.1063/1.5090222
   * E. Caldeweyher, J.-M. Mewes, S. Ehlert and S. Grimme, Phys. Chem. Chem. Phys.
     2020, 22, 8499-8512. DOI: 10.1039/D0CP00502A
   
   for sTDA-xTB:
   * S. Grimme and C. Bannwarth, J. Chem. Phys., 2016, 145, 054103.
     DOI: 10.1063/1.4959605
   
   in the mass-spec context:
   * V. Asgeirsson, C. Bauer and S. Grimme, Chem. Sci., 2017, 8, 4879.
     DOI: 10.1039/c7sc00601b
   * J. Koopman and S. Grimme, ACS Omega 2019, 4, 12, 15120-15133.
     DOI: 10.1021/acsomega.9b02011
   
   for metadynamics refer to:
   * S. Grimme, J. Chem. Theory Comput., 2019, 155, 2847-2862
     DOI: 10.1021/acs.jctc.9b00143
   
   for SPH calculations refer to:
   * S. Spicher and S. Grimme, J. Chem. Theory Comput., 2021, 17, 1701-1714
     DOI: 10.1021/acs.jctc.0c01306
   
   for ONIOM refer to:
   * C. Plett, A. Katbashev, S. Ehlert, S. Grimme, M. Bursch,
     Phys. Chem. Chem. Phys., 2023, 25, 17860-17868. DOI: 10.1039/D3CP02178E
   
   for DIPRO refer to:
   * J. Kohn, N. Gildemeister, S. Grimme, D. Fazzi, A. Hansen,
     J. Chem. Phys., 2023, just accepted.
   
   for PTB refer to:
   * S. Grimme, M. Mueller, A. Hansen, J. Chem. Phys., 2023, 158, 124111.
     DOI: 10.1063/5.0137838
   
   with help from (in alphabetical order)
   P. Atkinson, C. Bannwarth, F. Bohle, G. Brandenburg, E. Caldeweyher
   M. Checinski, S. Dohm, S. Ehlert, S. Ehrlich, I. Gerasimov, C. Hﾃｶlzer
   A. Katbashev, J. Kohn, J. Koopman, C. Lavigne, S. Lehtola, F. Mﾃ､rz, M. Mﾃｼller,
   F. Musil, H. Neugebauer, J. Pisarek, C. Plett, P. Pracht, F. Pultar,
   J. Seibert, P. Shushkov, S. Spicher, M. Stahn, M. Steiner, T. Strunk,
   J. Stﾃｼckrath, T. Rose, and J. Unsleber
   
 * started run on 2026/10/03 at 09:28:24.895     
   ID    Z sym.   atoms
    1    1 H      1, 3, 6, 11, 12, 17, 19, 22, 24, 26-30, 39, 40, 42, 43, 45,
                  46, 48, 49, 52, 56, 57, 61, 62, 64, 65, 67, 68, 71, 74, 76,
                  78, 81, 83, 84, 89, 90, 95, 98-100, 108-110, 114, 116, 117
    2    6 C      2, 4, 5, 7-10, 13-16, 18, 20, 21, 23, 25, 38, 41, 44, 47,
                  50, 51, 53-55, 60, 63, 66, 69, 70, 72, 73, 75, 77, 80, 82,
                  85-88, 91-94, 96, 97, 107, 112, 113, 115
    3    7 N      31-34, 58, 79, 101-104
    4    8 O      35-37, 59, 105, 106, 111, 118

           -------------------------------------------------
          |                Calculation Setup                |
           -------------------------------------------------

          program call               : C:\ORCA_6.1.1\xtb-6.7.1pre\xtb.exe  D5\D5_pull_+10.0A_XTB2_SP_XTB.xyz --grad -c 0 -u 0 -P 4 --namespace D5\D5_pull_+10.0A_XTB2_SP --input D5\D5_pull_+10.0A_XTB2_SP_XTB.input.tmp --acc 1.000000      
          calculation namespace      : D5\D5_pull_+10.0A_XTB2_SP
          coordinate file            : D5\D5_pull_+10.0A_XTB2_SP_XTB.xyz
          omp threads                :                     4


molecular fragmentation (1/2 indicates fragments):
111111111111111111111111111111111111111111111111111111111112222222222222
2222222222222222222222222222222222222222222222
# atoms in fragment 1/2:    59    59
 fragment masses (1/2) :      459.50      459.50
CMA distance (Bohr)    :  38.055
constraining FC (au)   :  0.0500

           -------------------------------------------------
          |                 G F N 2 - x T B                 |
           -------------------------------------------------

        Reference                      10.1021/acs.jctc.8b01176
      * Hamiltonian:
        H0-scaling (s, p, d)           1.850000    2.230000    2.230000
        zeta-weighting                 0.500000
      * Dispersion:
        s8                             2.700000
        a1                             0.520000
        a2                             5.000000
        s9                             5.000000
      * Repulsion:
        kExp                           1.500000    1.000000
        rExp                           1.000000
      * Coulomb:
        alpha                          2.000000
        third order                    shell-resolved
        anisotropic                    true
        a3                             3.000000
        a5                             4.000000
        cn-shift                       1.200000
        cn-exp                         4.000000
        max-rad                        5.000000


          ...................................................
          :                      SETUP                      :
          :.................................................:
          :  # basis functions                 322          :
          :  # atomic orbitals                 322          :
          :  # shells                          186          :
          :  # electrons                       348          :
          :  max. iterations                   250          :
          :  Hamiltonian                  GFN2-xTB          :
          :  restarted?                      false          :
          :  GBSA solvation                  false          :
          :  PC potential                    false          :
          :  electronic temp.          300.0000000     K    :
          :  accuracy                    1.0000000          :
          :  -> integral cutoff          0.2500000E+02      :
          :  -> integral neglect         0.1000000E-07      :
          :  -> SCF convergence          0.1000000E-05 Eh   :
          :  -> wf. convergence          0.1000000E-03 e    :
          :  Broyden damping             0.4000000          :
          :  net charge                          0          :
          :  unpaired electrons                  0          :
          ...................................................

 iter      E             dE          RMSdq      gap      omega  full diag
   1   -197.4376185 -0.197438E+03  0.413E+00    2.89       0.0  T
   2   -197.9677697 -0.530151E+00  0.242E+00    2.67       1.0  T
   3   -198.0185120 -0.507423E-01  0.130E+00    3.09       1.0  T
   4   -198.0253955 -0.688352E-02  0.434E-01    2.92       1.0  T
   5   -198.0402459 -0.148503E-01  0.917E-02    2.97       1.0  T
   6   -198.0404500 -0.204126E-03  0.529E-02    2.98       1.0  T
   7   -198.0406144 -0.164423E-03  0.221E-02    3.00       1.0  T
   8   -198.0406214 -0.700173E-05  0.828E-03    3.00       1.1  T
   9   -198.0406243 -0.286091E-05  0.364E-03    3.00       2.5  T
  10   -198.0406245 -0.205646E-06  0.146E-03    3.00       6.3  T
  11   -198.0406246 -0.123167E-06  0.549E-04    3.00      16.8  T
  12   -198.0406246 -0.106745E-07  0.258E-04    3.00      35.6  T

   *** convergence criteria satisfied after 12 iterations ***

         #    Occupation            Energy/Eh            Energy/eV
      -------------------------------------------------------------
         1        2.0000           -0.7225620             -19.6619
       ...           ...                  ...                  ...
       168        2.0000           -0.3865890             -10.5196
       169        2.0000           -0.3837271             -10.4417
       170        2.0000           -0.3821868             -10.3998
       171        2.0000           -0.3818541             -10.3908
       172        2.0000           -0.3806873             -10.3590
       173        2.0000           -0.3796599             -10.3311
       174        2.0000           -0.3790175             -10.3136 (HOMO)
       175                         -0.2688506              -7.3158 (LUMO)
       176                         -0.2665880              -7.2542
       177                         -0.2413041              -6.5662
       178                         -0.2392450              -6.5102
       179                         -0.2344500              -6.3797
       ...                                ...                  ...
       322                          0.8699782              23.6733
      -------------------------------------------------------------
                  HL-Gap            0.1101669 Eh            2.9978 eV
             Fermi-level           -0.3239340 Eh           -8.8147 eV

 SCC (total)                   0 d,  0 h,  0 min,  0.304 sec
 SCC setup                      ...        0 min,  0.002 sec (  0.658%)
 Dispersion                     ...        0 min,  0.005 sec (  1.645%)
 classical contributions        ...        0 min,  0.000 sec (  0.000%)
 integral evaluation            ...        0 min,  0.019 sec (  6.250%)
 iterations                     ...        0 min,  0.203 sec ( 66.776%)
 molecular gradient             ...        0 min,  0.073 sec ( 24.013%)
 printout                       ...        0 min,  0.002 sec (  0.658%)

         :::::::::::::::::::::::::::::::::::::::::::::::::::::
         ::                     SUMMARY                     ::
         :::::::::::::::::::::::::::::::::::::::::::::::::::::
         :: total energy            -193.658648843855 Eh    ::
         :: gradient norm              1.318628077745 Eh/a0 ::
         :: HOMO-LUMO gap              2.997795181969 eV    ::
         ::.................................................::
         :: SCC energy              -198.041444025568 Eh    ::
         :: -> isotropic ES            0.296863721452 Eh    ::
         :: -> anisotropic ES          0.005616123201 Eh    ::
         :: -> anisotropic XC          0.036984898509 Eh    ::
         :: -> dispersion             -0.138443082880 Eh    ::
         :: repulsion energy           4.382795181713 Eh    ::
         :: add. restraining           0.000000000000 Eh    ::
         :: total charge               0.000000000000 e     ::
         :::::::::::::::::::::::::::::::::::::::::::::::::::::


Property printout bound to 'properties.out'
#
# Number of atoms
#
       118
#
# The current total energy in Eh
#
   -193.658648843855
#
# The current gradient in Eh/bohr
#
      -0.125146886050
       0.054279355665
       0.085536369291
       0.062411840048
      -0.119538616500
       0.033342197271
      -0.071943635786
       0.138810126978
      -0.038114514715
       0.007283688407
       0.004465423037
      -0.015802041693
       0.081754558665
       0.075771169368
       0.030931941732
      -0.108449729386
       0.030428142527
      -0.034855195982
      -0.000500603886
      -0.003098893984
      -0.003311304594
      -0.004529263609
       0.017155107608
       0.015236660783
       0.003067093331
      -0.006503442019
      -0.004802947791
      -0.056731509204
       0.073295115546
       0.061458718011
       0.104936490724
      -0.036402766645
       0.026136974358
      -0.032257183031
      -0.037020564915
      -0.102375062243
       0.001921772176
       0.013930862604
      -0.014122261212
       0.004527258245
      -0.031265968644
       0.018522704937
       0.004518316899
      -0.019223021643
      -0.008429148558
       0.085917062396
       0.113024268944
      -0.001451639788
      -0.095917743265
      -0.127844144471
       0.000472076598
       0.111846686281
       0.002619472872
      -0.085690505812
      -0.129559680026
      -0.009986455855
       0.096136127595
       0.003322159638
       0.013273417664
       0.008129376607
      -0.081001702425
      -0.114773831775
       0.001060663893
       0.092503220346
       0.132165875698
      -0.001292916530
      -0.113692965415
      -0.010826915357
       0.084463459420
       0.125912163349
       0.006404500453
      -0.098807852173
       0.073223636383
       0.003692334360
      -0.076906574249
       0.010096778573
       0.107646652264
       0.068599422009
       0.023949248600
      -0.107407781217
       0.074437837974
      -0.118157375645
      -0.007991533630
      -0.059232469628
       0.062959185665
      -0.014637662719
      -0.185674768318
      -0.148911753556
       0.273431504867
       0.117408641360
      -0.002686377774
       0.000712847865
       0.005168612450
       0.000496757369
       0.014645512328
      -0.009367285903
      -0.005151301671
      -0.015574999352
       0.021995455135
       0.082663605662
      -0.233666526054
       0.055470178567
      -0.001150061358
       0.001854567789
       0.005388531706
      -0.000068677137
      -0.000157371806
      -0.004131488214
       0.009615847027
       0.004471085328
      -0.007426536015
      -0.096091569382
      -0.014176635257
      -0.030394494521
       0.081141092797
      -0.076427679661
      -0.039406955594
       0.047873361910
       0.103599964218
       0.025975283253
      -0.026487839119
      -0.016433643585
      -0.068926515324
      -0.055318251535
       0.086719328492
       0.055931848465
       0.082568738791
      -0.045439093592
       0.068551727074
      -0.000037006002
       0.072281563144
      -0.044710359831
      -0.055875983013
      -0.029911251425
       0.096076238273
       0.055286765561
      -0.092575261209
      -0.045325133145
       0.099333820570
       0.025018050396
      -0.013473632223
      -0.076669451715
       0.070806770529
       0.051587762329
      -0.054801666490
      -0.089098645206
      -0.048376784128
      -0.004424935826
       0.007002015467
      -0.023973326587
      -0.062710765540
       0.122814460228
      -0.032632150568
       0.071862212938
      -0.138469999605
       0.037457892553
      -0.004036813508
      -0.007816154793
       0.010409932975
       0.107683040104
      -0.049137221556
      -0.072595606404
      -0.113888151686
       0.045032878102
       0.072505932980
       0.128236172435
      -0.052181247009
      -0.082418941313
       0.011984732581
      -0.111831308073
       0.016703532747
       0.000986205059
       0.003900412044
      -0.001278454600
       0.006329401833
       0.000184298966
       0.010183940812
      -0.096096813216
       0.014170075396
      -0.030387177404
       0.081139048497
       0.076418598504
      -0.039412419783
       0.047869306285
      -0.103593771363
       0.025973316720
      -0.026492824020
       0.016420362890
      -0.068919938530
      -0.055309762612
      -0.086711632168
       0.055928320646
       0.082567245813
       0.045435797616
       0.068551236811
      -0.000035440224
      -0.072275155153
      -0.044707397043
      -0.055878135664
       0.029909541419
       0.096082306903
       0.055286683122
       0.092572088744
      -0.045329080137
      -0.004261590344
      -0.007060896818
      -0.023939400956
      -0.062727251196
      -0.122807978084
      -0.032626590674
       0.071866830961
       0.138471522686
       0.037459969444
      -0.004013986724
       0.007777205303
       0.010365879922
       0.107676470579
       0.049141923317
      -0.072587044278
      -0.125133665445
      -0.054283126144
       0.085537629197
       0.062407617581
       0.119542438560
       0.033349666362
      -0.071933446472
      -0.138813324741
      -0.038110637958
      -0.113894130571
      -0.045022305361
       0.072509998361
      -0.129550979713
       0.009972154769
       0.096141411063
       0.000902412098
      -0.003829743310
      -0.001254473329
       0.007303604729
      -0.004503855869
      -0.015863428196
       0.128235147569
       0.052174433558
      -0.082417937594
       0.081760433173
      -0.075765010834
       0.030937892839
      -0.108452767156
      -0.030438889729
      -0.034858740133
       0.011988961371
       0.111840139514
       0.016704523176
      -0.000449917051
       0.002887527598
      -0.003304474332
      -0.004535504045
      -0.017162538884
       0.015279014066
       0.003071030637
       0.006488462265
      -0.004833233028
      -0.056727700014
      -0.073283795468
       0.061454442191
       0.104934923705
       0.036399498451
       0.026135312585
      -0.032253142725
       0.037019121702
      -0.102378013376
       0.001919967391
      -0.013925560430
      -0.014110752018
       0.004606766106
       0.031245922196
       0.018452207681
       0.004513298352
       0.019204695269
      -0.008411205355
       0.085915260927
      -0.113036715785
      -0.001444929763
      -0.095922752000
       0.127852196925
       0.000469545597
       0.111812582007
      -0.002574696398
      -0.085695772533
      -0.113687441104
       0.010797568890
       0.084470910966
       0.125922284074
      -0.006406319115
      -0.098807612572
       0.063006999434
       0.014643836981
      -0.185680190227
      -0.148867904658
      -0.273446003566
       0.117413078103
      -0.002720711227
      -0.000574752731
       0.005215013974
       0.000510093638
      -0.014648826986
      -0.009399445824
      -0.005196956614
       0.015625114070
       0.022045811086
       0.082566994904
       0.233698718049
       0.055494299741
      -0.001177336982
      -0.001761590406
       0.005349438452
      -0.000135608650
       0.000178804474
      -0.004089301979
       0.073204628708
      -0.003707071852
      -0.076877410324
       0.010076294344
      -0.107626585348
       0.068605714888
       0.023948389539
       0.107387943031
       0.074450481780
      -0.118156203319
       0.007973286618
      -0.059218494903
       0.009651872193
      -0.004308953104
      -0.007565232332
       0.003308220942
      -0.013453862679
       0.008260136284
      -0.080976034395
       0.114799263585
       0.001016551305
       0.092504629121
      -0.132162483858
      -0.001292648827
       0.099301934776
      -0.025011477017
      -0.013457249177
      -0.076657826899
      -0.070808564418
       0.051593817539
      -0.054797942327
       0.089106596923
      -0.048381591315
       0.006249811466
      -0.000167799481
       0.010140722716
#
# The atomic numbers and current coordinates in Bohr
#
   1    43.1604586   78.2515582   70.4834824
   6    40.9351014   77.4668192   73.4514114
   1    41.7179003   75.9522729   73.8786291
   6    38.9098143   78.3135525   74.8371188
   6    38.5105083   78.1422179   79.5038103
   1    40.2053923   77.7467094   80.0772988
   6    37.6370641   74.4034597   76.8150444
   6    37.2368841   73.1829289   79.2814312
   6    36.6134102   74.4489745   81.4421953
   6    36.6226606   77.2620023   81.4728170
   1    34.9508353   77.9036572   81.0791941
   1    37.1057468   77.8748834   83.1305524
   6    36.0792887   72.5608925   83.2039850
   6    35.1891918   72.8889134   85.8347778
   6    37.6461960   68.5464293   78.2078870
   6    39.7229025   68.6366743   76.6438006
   1    40.7705083   70.0484197   76.6553953
   6    40.2505162   66.6355898   75.0621736
   1    41.6497094   66.6975842   74.0034944
   6    38.7077731   64.5479224   75.0526601
   6    36.6681156   64.4359663   76.6854224
   1    35.6584754   62.9988476   76.7208009
   6    36.1250986   66.4255413   78.2509953
   1    34.7426214   66.3496832   79.3340530
   6    40.9217217   62.7181726   71.6203511
   1    40.8886785   61.2410323   70.5667259
   1    40.6240250   64.1916509   70.6053747
   1    42.5458029   62.8523630   72.4188944
   1    34.7622314   70.9037852   88.8475988
   1    35.9698693   69.5618815   86.7605647
   7    38.0788104   76.9428751   77.0261262
   7    37.0677592   70.6579004   79.7862437
   7    36.3856213   70.2561140   82.2104141
   7    35.2648507   70.8365593   87.2826205
   8    37.4232773   73.3254898   74.8011457
   8    34.3898587   74.9365590   86.5242125
   8    39.0181325   62.5230342   73.4930332
   6    40.0031552   83.0659320   66.6183071
   1    38.6913632   84.2312694   67.1537414
   1    39.1889076   81.4925303   66.1488731
   6    41.2647939   84.1161744   64.3817320
   1    42.0952652   82.7533443   63.4761613
   1    39.9986925   84.8329027   63.2680525
   6    43.1479586   86.0754061   64.9861394
   1    44.0126330   86.5776391   63.4494045
   1    42.2907910   87.5507154   65.6583309
   6    45.0428286   85.1630162   66.8650647
   1    46.2779685   84.1344849   65.9853590
   1    45.9258289   86.6168760   67.5461751
   6    44.0044486   83.6555326   69.0264234
   6    38.6438562   81.9521257   72.1739206
   1    37.8654845   83.4700726   71.7470002
   6    40.6982403   81.1171634   70.8084295
   6    41.8089041   78.8508372   71.4339451
   6    37.7380442   80.5416882   74.1714679
   1    36.3338648   81.0975450   75.0707953
   1    38.3859465   79.9622892   79.3221611
   7    41.6991226   82.5880259   68.7609360
   8    45.2417766   83.3881981   70.9710516
   6    19.5007506   53.8530821   95.8741030
   1    18.1889586   52.6877446   96.4095372
   1    18.6865031   55.4264838   95.4046689
   6    20.7623894   52.8028397   93.6375278
   1    21.5928607   54.1656698   92.7319572
   1    19.4962880   52.0861114   92.5238484
   6    22.6455541   50.8436080   94.2419353
   1    23.5102284   50.3413750   92.7052003
   1    21.7883865   49.3682986   94.9141268
   6    23.5020440   53.2634815   98.2822193
   6    18.1414517   54.9668883  101.4297164
   1    17.3630800   53.4489415  101.0027961
   6    20.1958358   55.8018506  100.0642253
   6    21.3064996   58.0681769  100.6897409
   1    22.6580540   58.6674559   99.7392783
   6    20.4326969   59.4521949  102.7072072
   1    21.2154958   60.9667412  103.1344249
   6    17.2356397   56.3773259  103.4272637
   1    21.1473049   70.2214299  103.2592902
   7    21.1967181   54.3309881   98.0167319
   6    18.4074098   58.6054615  104.0929147
   1    15.8314603   55.8214691  104.3265911
   6    18.0081038   58.7767962  108.7596062
   1    19.7029877   59.1723047  109.3330946
   1    17.8835420   56.9567249  108.5779569
   6    17.1346595   62.5155544  106.0708403
   6    16.7344796   63.7360851  108.5372270
   6    16.1110057   62.4700395  110.6979911
   6    16.1202561   59.6570118  110.7286128
   1    14.4484308   59.0153569  110.3349899
   1    16.6033423   59.0441306  112.3863482
   6    15.5768842   64.3581216  112.4597809
   6    14.6867873   64.0301007  115.0905736
   6    17.1437915   68.3725848  107.4636828
   6    19.2204980   68.2823398  105.8995965
   1    20.2681038   66.8705943  105.9111911
   6    19.7481117   70.2834243  104.3179695
   6    15.6226941   70.4934728  107.5067911
   1    14.2402169   70.5693309  108.5898488
   1    14.2598269   66.0152288  118.1033946
   1    15.4674648   67.3571325  116.0163605
   7    17.5764059   59.9761390  106.2819221
   7    16.5653547   66.2611137  109.0420395
   7    15.8832168   66.6629001  111.4662099
   7    14.7624462   66.0824548  116.5384163
   8    16.9208727   63.5935242  104.0569416
   8    13.8874542   61.9824551  115.7800084
   6    20.4193171   74.2008414  100.8761470
   1    20.3862740   75.6779818   99.8225218
   1    20.1216205   72.7273631   99.8611706
   1    22.0433984   74.0666510  101.6746902
   8    18.5157280   74.3959799  102.7488290
   6    18.2053686   72.3710916  104.3084559
   6    16.1657111   72.4830477  105.9412182
   1    15.1560709   73.9201664  105.9765967
   6    24.5404241   51.7559979   96.1208606
   1    25.7755640   52.7845291   95.2411549
   1    25.4234244   50.3021381   96.8019710
   8    24.7393721   53.5308159  100.2268475

           -------------------------------------------------
          | TOTAL ENERGY             -193.658648843855 Eh   |
          | GRADIENT NORM               1.318628077745 Eh/ﾎｱ |
          | HOMO-LUMO GAP               2.997795181969 eV   |
           -------------------------------------------------

------------------------------------------------------------------------
 * finished run on 2026/10/03 at 09:28:25.301     
------------------------------------------------------------------------
 total:
 * wall-time:     0 d,  0 h,  0 min,  0.403 sec
 *  cpu-time:     0 d,  0 h,  0 min,  1.594 sec
 * ratio c/w:     3.955 speedup
 SCF:
 * wall-time:     0 d,  0 h,  0 min,  0.306 sec
 *  cpu-time:     0 d,  0 h,  0 min,  1.250 sec
 * ratio c/w:     4.085 speedup


-------------------------   --------------------
FINAL SINGLE POINT ENERGY      -193.658648843850
-------------------------   --------------------


-------------
DIPOLE MOMENT
-------------
                                X             Y             Z
Total Dipole Moment    :      1.02100       0.02100      -3.51100
                        -----------------------------------------
Magnitude (a.u.)       :      3.65650
Magnitude (Debye)      :      9.29409


--------------------------------
SUGGESTED CITATIONS FOR THIS RUN
--------------------------------

Below you find a list of papers that are relevant to this ORCA run
We neither can nor want to force you to cite these papers, but we appreciate if you do
You receive ORCA, which is the product of decades of hard work by many enthusiastic individuals, for free
The only thing we kindly ask in return is that you cite our papers,
We deeply appreciate it, if you show your appreciation for ORCA by not just citing the generic ORCA reference.

Please note that relegating all ORCA citations to the supporting information does *not* help us.
SI sections are not indexed - citations you put there will not count into any citation statistics
But we need these citations in order to attract the funding resources that allow us to do what we are doing

Therefore, if you are a happy ORCA user, please consider citing a few of the papers listed below in the main body of your paper

In addition to the list printed below, the program has created the file D5\D5_pull_+10.0A_XTB2_SP.bibtex that contains the list in bibtex format
You can import this file easily into all common literature databanks and citation aid programs

It goes without saying that in many instances, there are alternative algorithms to achieve similar
results as the ones you have gotten from ORCA. It is, of course, also the case that in some instances
ORCA just re-implements algorithms worked out by others. We are fully aware of that and we are also
fully appreciative of our colleagues work. Hence this citation list should not be read as indicating
that the listed papers, which are focused on our own work, are the only ones worth citing. It simply
meant to make it easier for users to cite ORCA specific papers. It is not a substitute for doing your
own literature research and citing the relevant literature in a scientifically appropriate manner.

List of essential papers. We consider these as the minimum necessary citations

  1. Bannwarth, C.; Ehlert, S.; Grimme, S.
     GFN2-xTB窶尿n Accurate and Broadly Parametrized Self-Consistent Tight-Binding Quantum Chemical Method with Multipole Electrostatics and Density-Dependent Dispersion Contributions
     J. Chem. Theory Comput. 2019 15(3), 1652-1671
     doi.org/10.1021/acs.jctc.8b01176
  2. Neese, F.
     Software update: the ORCA program system, version 6.0
     WIRES Comput. Molec. Sci. 2025 15(1), e70019
     doi.org/10.1002/wcms.70019

List of papers to cite with high priority. The work reported in these papers was absolutely
necessary for this run to complete.
Our perspective: the developers of density functionals and basis sets usually get cited in chemistry papers
Good! But without the algorithms to do something with them, the functionals or basis sets would not do anything.
Hence, in our opinion, the algorithm design and method developments papers are equally worthy of getting cited

  1. Bannwarth, C.; Caldeweyher, E.; Ehlert, S.; Hansen, A.; Pracht, P.; Seibert, J.; Spicher, S.; Grimme, S.
     Extended tight-binding quantum chemistry methods
     WIRES Comput. Molec. Sci. 2020 11(2), e1493
     doi.org/10.1002/wcms.1493

List of suggested additional citations. These are papers that are important in the 'surrounding' of 
of this run, or papers that preceded the highly important papers. If you like your results we are grateful for a citation.

  1. Neese, F.
     The ORCA program system
     WIRES Comput. Molec. Sci. 2012 2(1), 73-78
     doi.org/10.1002/wcms.81
  2. Neese, F.
     Software update: the ORCA program system, version 4.0
     WIRES Comput. Molec. Sci. 2018 8(1), 1-6
     doi.org/10.1002/wcms.1327
  3. Neese, F.; Wennmohs, F.; Becker, U.; Riplinger, C.
     The ORCA quantum chemistry program package
     J. Chem. Phys. 2020 152(22), 224108
     doi.org/10.1063/5.0004608
  4. Neese, F.
     Software update: The ORCA program system窶之ersion 5.0
     WIRES Comput. Molec. Sci. 2022 12(1), e1606
     doi.org/10.1002/wcms.1606

List of optional additional citations

  1. Neese, F.
     Approximate second-order SCF convergence for spin unrestricted wavefunctions
     Chem. Phys. Lett. 2000 325(1-3), 93-98
     doi.org/10.1016/s0009-2614(00)00662-x

Timings for individual modules:

Sum of individual times          ...        0.489 sec (=   0.008 min)
XTB module                       ...        0.489 sec (=   0.008 min) 100.0 %
                             ****ORCA TERMINATED NORMALLY****
TOTAL RUN TIME: 0 days 0 hours 0 minutes 0 seconds 961 msec
