
                                 *****************
                                 * O   R   C   A *
                                 *****************

                                            #,                                       
                                            ###                                      
                                            ####                                     
                                            #####                                    
                                            ######                                   
                                           ########,                                 
                                     ,,################,,,,,                         
                               ,,#################################,,                 
                          ,,##########################################,,             
                       ,#########################################, ''#####,          
                    ,#############################################,,   '####,        
                  ,##################################################,,,,####,       
                ,###########''''           ''''###############################       
              ,#####''   ,,,,##########,,,,          '''####'''          '####       
            ,##' ,,,,###########################,,,                        '##       
           ' ,,###''''                  '''############,,,                           
         ,,##''                                '''############,,,,        ,,,,,,###''
      ,#''                                            '''#######################'''  
     '                                                          ''''####''''         
             ,#######,   #######,   ,#######,      ##                                
            ,#'     '#,  ##    ##  ,#'     '#,    #''#        ,####,    ,#,          
            ##       ##  ##   ,#'  ##            #'  '#       #'       ,# #          
            ##       ##  #######   ##           ,######,      #####,      #          
            '#,     ,#'  ##    ##  '#,     ,#' ,#      #,     #,   #      #          
             '#######'   ##     ##  '#######'  #'      '#     '####' #    #          



                #########################################################
                #                        -***-                          #
                #          Department of theory and spectroscopy        #
                #                                                       #
                #                      Frank Neese                      #
                #                                                       #
                #     Directorship, Architecture, Infrastructure        #
                #                    SHARK, DRIVERS                     #
                #        Core code/Algorithms in most modules           #
                #                                                       #
                #        Max Planck Institute fuer Kohlenforschung      #
                #                Kaiser Wilhelm Platz 1                 #
                #                 D-45470 Muelheim/Ruhr                 #
                #                      Germany                          #
                #                                                       #
                #                  All rights reserved                  #
                #                        -***-                          #
                #########################################################


                         Program Version 6.1.1  -  RELEASE   -


 With contributions from (in alphabetic order):
[Max-Planck-Institut fuer Kohlenforschung]                               
  Daniel Aravena         : Magnetic Suceptibility                        
  Michael Atanasov       : Ab Initio Ligand Field Theory (pilot matlab implementation)
  Alexander A. Auer      : GIAO ZORA, VPT2 properties, NMR spectrum      
  Ute Becker             : All parallelization in ORCA, NUMFREQ, NUMCALC 
  Giovanni Bistoni       : ED, misc. LED, open-shell LED, HFLD           
  Dmytro Bykov           : pre 5.0 version of the SCF Hessian            
  Marcos Casanova-Pﾃ｡ez   : Triplet and SCS-CIS(D). UHF-(DLPNO)-IP/EA/STEOM-CCSD. UHF-CVS-IP/STEOM-CCSD   
  Vijay G. Chilkuri      : MRCI spin determinant printing, contributions to CSF-ICE 
  Pauline Colinet        : FMM embedding                                 
  Dipayan Datta          : RHF DLPNO-CCSD density                        
  Achintya Kumar Dutta   : EOM-CC, STEOM-CC                              
  Nicolas Foglia         : Exact transition moments, OPA infrastructure, MCD improvements    
  Dmitry Ganyushin       : Spin-Orbit,Spin-Spin,Magnetic field MRCI      
  Miquel Garcia-Rates    : C-PCM and meta-GGA Hessian, CCSD/C-PCM, Gaussian charge scheme 
  Tiago L. C. Gouveia    : GS-ROHF, GS-ROCIS                             
  Yang Guo               : DLPNO-NEVPT2, F12-NEVPT2, CIM, IAO-localization        
  Andreas Hansen         : Spin unrestricted coupled pair/coupled cluster methods 
  Ingolf Harden          : AUTO-CI MPn and infrastructure                
  Benjamin Helmich-Paris : MC-RPA, TRAH-(SCF,CASSCF), AVAS, COSX integrals, SCF dyn. polar., MC-PDFT, srDFT 
  Lee Huntington         : MR-EOM, pCC                                   
  Robert Izsak           : Overlap fitted RIJCOSX, COSX-SCS-MP3, EOM     
  Riya Kayal             : Wick's Theorem for AUTO-CI, AUTO-CI UHF-CCSDT 
  Emily Kempfer          : AUTO-CI RHF CISDT and CCSDT, approximate NEVPT4
  Christian Kollmar      : KDIIS, OOCD, Brueckner-CCSD(T), CCSD density, CASPT2, CASPT2-K, improved NEVPT2 
  Axel Koslowski         : Symmetry handling                             
  Simone Kossmann        : meta-GGA functionals, TD-DFT gradient, OOMP2, (MP2 Hessian; deprecated post 5.0) 
  Lucas Lang             : DCDCAS, Hyperfine gauge corrections, ICE-SOC+SSC
  Marvin Lechner         : AUTO-CI (C++ implementation), FIC-MRCC        
  Spencer Leger          : CASSCF response                               
  Dagmar Lenk            : GEPOL surface, SMD, ORCA-2-JSON               
  Dimitrios Liakos       : Extrapolation schemes; Compound Job, Property file
  Dimitrios Manganas     : Further ROCIS development; embedding schemes. LFT, Crystal Embedding 
  Dimitrios Pantazis     : SARC Basis sets                               
  Anastasios Papadopoulos: AUTO-CI, single reference methods and gradients 
  Taras Petrenko         : pre 6.0 DFT Hessian and TD-DFT gradient,  ECA, NRVS 
  Petra Pikulova         : Analytic Raman intensities                    
  Peter Pinski           : DLPNO-MP2, DLPNO-MP2 Gradient                 
  Shashank Vittal Rao    : ES-AILFT, MagRelax                            
  Christoph Reimann      : Effective Core Potentials                     
  Marius Retegan         : Local ZFS, SOC                                
  Christoph Riplinger    : Optimizer, TS searches, QM/MM, DLPNO-CCSD(T), (RO)-DLPNO pert. Triples 
  Michael Roemelt        : Original ROCIS implementation, recursive CI coupling coefficients
  Masaaki Saitow         : Open-shell DLPNO-CCSD energy and density      
  Barbara Sandhoefer     : DKH picture change effects                    
  Yorick L. A. Schmerwitz: GMF and freeze-and-release deltaSCF, NEB S-IDPP initial path                    
  Kantharuban Sivalingam : CASSCF convergence/infrastructure, NEVPT2, NEVPT3, NEVPT4(SD), FIC-MRCI and CEPA variants
  Bernardo de Souza      : ESD, SOC TD-DFT                               
  Georgi L. Stoychev     : AutoAux, RI-MP2 NMR, DLPNO-MP2 response, X2C  
  Van Anh Tran           : RI-MP2 g-tensors                              
  Willem Van den Heuvel  : Paramagnetic NMR                              
  Zikuan Wang            : NOTCH, Electric field optimization            
  Frank Wennmohs         : Technical directorship and infrastructure     
  Hang Xu                : AUTO-CI-Response properties                   
                                                                         
[FACCTs GmbH]                                                            
  Markus Bursch, Nicolas Foglia, Miquel Garcia-Rates, Ingolf Harden, Hagen Neugebauer, Anastasios Papadopoulos, 
  Christoph Riplinger, Bernardo de Souza, Georgi L. Stoychev                                                    
                                                                 
  APM, various basis sets, CI-OPT, improved COSX, DLPNO-Multilevel,           
  DOCKER, DRACO, updates on ESD, Fragmentator, GOAT, IRC, LR-CPCM, L-BFGS, MBIS, meta-GGA TD-DFT gradient, ML-optimized integration grids, 
  MM, NACMEs, nearIR, NEB, NEB-TS, NL-DFT gradient (VV10), 2- and 3-layer-ONIOM, interface openCOSMO-RS, QMMM,   
  Crystal-QMMM, RESP, rigid body optimization, SF, symmetry and pop. for TD-DFT, various functionals, SOLVATOR                                   
                                                                         
[Other institutions]                                                     
  V. Asgeirsson          : NEB                                           
  Christoph Bannwarth    : sTDA-DFT, sTD-DFT, PBEh-3c, B97-3c, D3        
  Giovanni Bistoni       : ETS/NOCV, ADLD/ADEX, COVALED                  
  Martin Brehm           : Molecular dynamics                            
  Ronald Cardenas        : ETS/NOCV                                      
  Martina Colucci        : COVALED                                       
  Sebastian Ehlert       : rSCAN, r2SCAN, r2SCAN-3c, D4, dhf basis sets  
  Marvin Friede          : D4 for Fr, Ra, Ac-Lr                          
  Lars Goerigk           : TD-DFT with DH, B97 family of functionals     
  Stefan Grimme          : VdW corrections, initial TS optimization, DFT functionals, gCP, sTDA/sTD-DF 
  Waldemar Hujo          : DFT-NL                                        
  H. Jonsson             : NEB                                           
  Holger Kruse           : gCP                                           
  Marcel Mueller         : wB97X-3c, vDZP basis set                      
  Hagen Neugebauer       : wr2SCAN, Native XTB                           
  Gianluca Regni         : ADLD/ADEX                                     
  Tobias Risthaus        : pre 6.0 range-separated hybrid DFT and stability analysis
  Lukas Wittmann         : regularized MP2, r2SCAN double-hybrids, wr2SCAN        
                                                                         
We gratefully acknowledge several colleagues who have allowed us to      
interface, adapt or use parts of their codes:                            
  Ed Valeev, F. Pavosevic, A. Kumar             : LibInt (2-el integral package), F12 methods 
  Garnet Chan, S. Sharma, J. Yang, R. Olivares  : DMRG                   
  Ulf Ekstrom                                   : XCFun DFT Library      
  Mihaly Kallay                                 : mrcc  (arbitrary order and MRCC methods)
  Frank Weinhold                                : gennbo (NPA and NBO analysis)           
  Simon Mueller                                 : openCOSMO-RS                            
  Christopher J. Cramer and Donald G. Truhlar   : smd solvation model                     
  S Lehtola, MJT Oliveira, MAL Marques          : LibXC Library                           
  Liviu Ungur et al                             : ANISO software                          


 Your calculation uses the libint2 library for the computation of 2-el integrals
 For citations please refer to: http://libint.valeyev.net

 Your ORCA version has been built with support for libXC version: 7.0.0
 For citations please refer to: https://libxc.gitlab.io

 This ORCA versions uses:
   CBLAS   interface :  Fast vector & matrix operations
   LAPACKE interface :  Fast linear algebra routines
   Shared memory     :  Shared parallel matrices


  ***********************************
  * Starting time: Sat Oct  3 08:19:03 2026
  * Host name:     DESKTOP-2KDTO5M
  * Process ID:    904
  * Working dir.:  C:\Users\naoki\Downloads\デスクトップ\data\Molecules\Calculations\Apixaban\CrystalFragment
  ***********************************

NOTE: MaxCore=2000 MB was set to SCF,MP2,MDCI,CIPSI,MRCI,RASCI and CIS
      => If you want to overwrite this, your respective input block should be placed after the MaxCore statement
Your calculation utilizes the semiempirical GFN2-xTB method
Please cite in your paper:
Bannwarth, C.; Ehlert S.; Grimme, S. J. Chem. Theory Comput. 2019, 15, 1652.
   

================================================================================

================================================================================
                                        WARNINGS
                       Please study these warnings very carefully!
================================================================================


WARNING: Found dipole moment calculation with XTB calculation
  ===> : Switching off dipole moment calculation

Environment variable XTBEXE for xtb has been set!

================================================================================
                                       INPUT FILE
================================================================================
NAME = D5\D5_pull_+5.0A_XTB2_SP.inp
|  1> # D5 pull-apart: molecule B displaced +5.0 A along centroid vector (rigid), XTB2 single point
|  2> 
|  3> ! XTB2
|  4> 
|  5> %pal
|  6>   nprocs 4
|  7> end
|  8> 
|  9> %maxcore 2000
| 10> 
| 11> * xyz 0 1
| 12> H     22.83953108    41.40894130    37.29825264
| 13> C     21.66192281    40.99367530    38.86881303
| 14> H     22.07616212    40.19221192    39.09488688
| 15> C     20.59018700    41.44174731    39.60209780
| 16> C     20.37888339    41.35108090    42.07160460
| 17> H     21.27577734    41.14178684    42.37508161
| 18> C     19.91667659    39.37261526    40.64877097
| 19> C     19.70491047    38.72673821    41.95392663
| 20> C     19.37498228    39.39670069    43.09735375
| 21> C     19.37987740    40.88529087    43.11355807
| 22> H     18.49518556    41.22484004    42.90526177
| 23> H     19.63551561    41.20961362    43.99079384
| 24> C     19.09233738    38.39757069    44.02965274
| 25> C     18.62131839    38.57115188    45.42180829
| 26> C     19.92150901    36.27320826    41.38583152
| 27> C     21.02045476    36.32096385    40.55815264
| 28> H     21.57482386    37.06802738    40.56428826
| 29> C     21.29965591    35.26203555    39.72119169
| 30> H     22.04007708    35.29484156    39.16096274
| 31> C     20.48327140    34.15728956    39.71615733
| 32> C     19.40393116    34.09804495    40.58017793
| 33> H     18.86965258    33.33755448    40.59889943
| 34> C     19.11657892    35.15088268    41.40864342
| 35> H     18.38500348    35.11074030    41.98177289
| 36> C     21.65484253    33.18902767    37.89985766
| 37> H     21.63735684    32.40735864    37.34230322
| 38> H     21.49730824    33.96875880    37.36275527
| 39> H     22.51426932    33.26003816    38.32242855
| 40> H     18.39538066    37.52066732    47.01612452
| 41> H     19.03443510    36.81056246    45.91171363
| 42> N     20.15043870    40.71641603    40.76047065
| 43> N     19.61541343    37.39055064    42.22106192
| 44> N     19.25444159    37.17793445    43.50387764
| 45> N     18.66135535    37.48509287    46.18797368
| 46> O     19.80354548    38.80217820    39.58306166
| 47> O     18.19832953    39.65471929    45.78664146
| 48> O     20.64750653    33.08576486    38.89083831
| 49> C     21.16875807    43.95659821    35.25288997
| 50> H     20.47458764    44.57326822    35.53622957
| 51> H     20.73787682    43.12398988    35.00447618
| 52> C     21.83638855    44.51236254    34.06934536
| 53> H     22.27585503    43.79118392    33.59013802
| 54> H     21.16639655    44.89163882    33.48001158
| 55> C     22.83291639    45.54914332    34.38918402
| 56> H     23.29048235    45.81491356    33.57597890
| 57> H     22.37932284    46.32984340    34.74489242
| 58> C     23.83563842    45.06632738    35.38346846
| 59> H     24.48924629    44.52205208    34.91794826
| 60> H     24.30290205    45.83567686    35.74389657
| 61> C     23.28615136    44.26860140    36.52721022
| 62> C     20.44944804    43.36719733    38.19279400
| 63> H     20.03755147    44.17046020    37.96687747
| 64> C     21.53658130    42.92535431    37.47020721
| 65> C     22.12431926    41.72606610    37.80121583
| 66> C     19.97011296    42.62082591    39.24985051
| 67> H     19.22705322    42.91497266    39.72575407
| 68> H     20.31296812    42.31422118    41.97547995
| 69> N     22.06622540    43.70370122    36.38672035
| 70> O     23.94091717    44.12713411    37.55626316
| 71> C     12.98775562    30.33666278    46.92672740
| 72> H     12.29358519    29.71999277    47.21006700
| 73> H     12.55687437    31.16927111    46.67831361
| 74> C     13.65538610    29.78089845    45.74318280
| 75> H     14.09485259    30.50207707    45.26397545
| 76> H     12.98539410    29.40162217    45.15384901
| 77> C     14.65191394    28.74411767    46.06302145
| 78> H     15.10947990    28.47834743    45.24981634
| 79> H     14.19832040    27.96341759    46.41872986
| 80> C     15.10514891    30.02465959    48.20104766
| 81> C     12.26844559    30.92606366    49.86663143
| 82> H     11.85654902    30.12280079    49.64071490
| 83> C     13.35557885    31.36790668    49.14404465
| 84> C     13.94331681    32.56719489    49.47505327
| 85> H     14.65852863    32.88431969    48.97209008
| 86> C     13.48092036    33.29958569    50.54265046
| 87> H     13.89515967    34.10104907    50.76872431
| 88> C     11.78911051    31.67243508    50.92368795
| 89> H     13.85907463    38.99841943    50.83480018
| 90> N     13.88522295    30.58955977    48.06055778
| 91> C     12.40918455    32.85151368    51.27593524
| 92> H     11.04605077    31.37828833    51.39959150
| 93> C     12.19788094    32.94218009    53.74544204
| 94> H     13.09477489    33.15147415    54.04891905
| 95> H     12.13196567    31.97903981    53.64931739
| 96> C     11.73567414    34.92064573    52.32260841
| 97> C     11.52390802    35.56652278    53.62776407
| 98> C     11.19397983    34.89656030    54.77119118
| 99> C     11.19887495    33.40797012    54.78739550
|100> H     10.31418311    33.06842095    54.57909920
|101> H     11.45451316    33.08364737    55.66463127
|102> C     10.91133494    35.89569030    55.70349018
|103> C     10.44031594    35.72210911    57.09564572
|104> C     11.74050656    38.02005273    53.05966895
|105> C     12.83945231    37.97229714    52.23199008
|106> H     13.39382141    37.22523361    52.23812570
|107> C     13.11865346    39.03122544    51.39502912
|108> C     10.93557647    39.14237831    53.08248086
|109> H     10.20400103    39.18252069    53.65561033
|110> H     10.21437821    36.77259367    58.68996196
|111> H     10.85343265    37.48269853    57.58555107
|112> N     11.96943625    33.57684496    52.43430809
|113> N     11.43441098    36.90271035    53.89489935
|114> N     11.07343914    37.11532654    55.17771508
|115> N     10.48035290    36.80816812    57.86181111
|116> O     11.62254303    35.49108279    51.25689910
|117> O     10.01732708    34.63854170    57.46047889
|118> C     13.47384008    41.10423332    49.57369509
|119> H     13.45635439    41.88590235    49.01614065
|120> H     13.31630579    40.32450219    49.03659271
|121> H     14.33326687    41.03322283    49.99626598
|122> O     12.46650409    41.20749613    50.56467575
|123> C     12.30226895    40.13597143    51.38999477
|124> C     11.22292871    40.19521604    52.25401537
|125> H     10.68865013    40.95570651    52.27273686
|126> C     15.65463597    29.22693361    47.05730590
|127> H     16.30824384    29.77120891    46.59178570
|128> H     16.12189960    28.45758413    47.41773401
|129> O     15.75991472    30.16612688    49.23010060
|130> *
|131> 
|132>                          ****END OF INPUT****
================================================================================

                       ****************************
                       * Single Point Calculation *
                       ****************************

      -----------------------------------------------------------      
     |                   =====================                   |     
     |                           x T B                           |     
     |                   =====================                   |     
     |                         S. Grimme                         |     
     |          Mulliken Center for Theoretical Chemistry        |     
     |                    University of Bonn                     |     
      -----------------------------------------------------------      

   * xtb version 6.7.1pre (5071a88) compiled by 'Marcel@Raven' on 2024-07-23

   xtb is free software: you can redistribute it and/or modify it under
   the terms of the GNU Lesser General Public License as published by
   the Free Software Foundation, either version 3 of the License, or
   (at your option) any later version.
   
   xtb is distributed in the hope that it will be useful,
   but WITHOUT ANY WARRANTY; without even the implied warranty of
   MERCHANTABILITY or FITNESS FOR A PARTICULAR PURPOSE.  See the
   GNU Lesser General Public License for more details.
   
   Cite this work as:
   * C. Bannwarth, E. Caldeweyher, S. Ehlert, A. Hansen, P. Pracht,
     J. Seibert, S. Spicher, S. Grimme, WIREs Comput. Mol. Sci., 2020, 11,
     e01493. DOI: 10.1002/wcms.1493
   
   for GFN2-xTB:
   * C. Bannwarth, S. Ehlert and S. Grimme., J. Chem. Theory Comput., 2019,
     15, 1652-1671. DOI: 10.1021/acs.jctc.8b01176
   for GFN1-xTB:
   * S. Grimme, C. Bannwarth, P. Shushkov, J. Chem. Theory Comput., 2017,
     13, 1989-2009. DOI: 10.1021/acs.jctc.7b00118
   for GFN0-xTB:
   * P. Pracht, E. Caldeweyher, S. Ehlert, S. Grimme, ChemRxiv, 2019, preprint.
     DOI: 10.26434/chemrxiv.8326202.v1
   for GFN-FF:
   * S. Spicher and S. Grimme, Angew. Chem. Int. Ed., 2020, 59, 15665-15673.
     DOI: 10.1002/anie.202004239
   
   for ALPB and GBSA implicit solvation:
   * S. Ehlert, M. Stahn, S. Spicher, S. Grimme, J. Chem. Theory Comput.,
     2021, 17, 4250-4261. DOI: 10.1021/acs.jctc.1c00471
   
   for ddCOSMO and CPCM-X implicit solvation:
   * M. Stahn, S. Ehlert, S. Grimme, J. Phys. Chem. A,
     2023, XX, XXXX-XXXX. DOI: 10.1021/acs.jpca.3c04382
   
   for DFT-D4:
   * E. Caldeweyher, C. Bannwarth and S. Grimme, J. Chem. Phys., 2017,
     147, 034112. DOI: 10.1063/1.4993215
   * E. Caldeweyher, S. Ehlert, A. Hansen, H. Neugebauer, S. Spicher,
     C. Bannwarth and S. Grimme, J. Chem. Phys., 2019, 150, 154122.
     DOI: 10.1063/1.5090222
   * E. Caldeweyher, J.-M. Mewes, S. Ehlert and S. Grimme, Phys. Chem. Chem. Phys.
     2020, 22, 8499-8512. DOI: 10.1039/D0CP00502A
   
   for sTDA-xTB:
   * S. Grimme and C. Bannwarth, J. Chem. Phys., 2016, 145, 054103.
     DOI: 10.1063/1.4959605
   
   in the mass-spec context:
   * V. Asgeirsson, C. Bauer and S. Grimme, Chem. Sci., 2017, 8, 4879.
     DOI: 10.1039/c7sc00601b
   * J. Koopman and S. Grimme, ACS Omega 2019, 4, 12, 15120-15133.
     DOI: 10.1021/acsomega.9b02011
   
   for metadynamics refer to:
   * S. Grimme, J. Chem. Theory Comput., 2019, 155, 2847-2862
     DOI: 10.1021/acs.jctc.9b00143
   
   for SPH calculations refer to:
   * S. Spicher and S. Grimme, J. Chem. Theory Comput., 2021, 17, 1701-1714
     DOI: 10.1021/acs.jctc.0c01306
   
   for ONIOM refer to:
   * C. Plett, A. Katbashev, S. Ehlert, S. Grimme, M. Bursch,
     Phys. Chem. Chem. Phys., 2023, 25, 17860-17868. DOI: 10.1039/D3CP02178E
   
   for DIPRO refer to:
   * J. Kohn, N. Gildemeister, S. Grimme, D. Fazzi, A. Hansen,
     J. Chem. Phys., 2023, just accepted.
   
   for PTB refer to:
   * S. Grimme, M. Mueller, A. Hansen, J. Chem. Phys., 2023, 158, 124111.
     DOI: 10.1063/5.0137838
   
   with help from (in alphabetical order)
   P. Atkinson, C. Bannwarth, F. Bohle, G. Brandenburg, E. Caldeweyher
   M. Checinski, S. Dohm, S. Ehlert, S. Ehrlich, I. Gerasimov, C. Hﾃｶlzer
   A. Katbashev, J. Kohn, J. Koopman, C. Lavigne, S. Lehtola, F. Mﾃ､rz, M. Mﾃｼller,
   F. Musil, H. Neugebauer, J. Pisarek, C. Plett, P. Pracht, F. Pultar,
   J. Seibert, P. Shushkov, S. Spicher, M. Stahn, M. Steiner, T. Strunk,
   J. Stﾃｼckrath, T. Rose, and J. Unsleber
   
 * started run on 2026/10/03 at 08:19:03.483     
   ID    Z sym.   atoms
    1    1 H      1, 3, 6, 11, 12, 17, 19, 22, 24, 26-30, 39, 40, 42, 43, 45,
                  46, 48, 49, 52, 56, 57, 61, 62, 64, 65, 67, 68, 71, 74, 76,
                  78, 81, 83, 84, 89, 90, 95, 98-100, 108-110, 114, 116, 117
    2    6 C      2, 4, 5, 7-10, 13-16, 18, 20, 21, 23, 25, 38, 41, 44, 47,
                  50, 51, 53-55, 60, 63, 66, 69, 70, 72, 73, 75, 77, 80, 82,
                  85-88, 91-94, 96, 97, 107, 112, 113, 115
    3    7 N      31-34, 58, 79, 101-104
    4    8 O      35-37, 59, 105, 106, 111, 118

           -------------------------------------------------
          |                Calculation Setup                |
           -------------------------------------------------

          program call               : C:\ORCA_6.1.1\xtb-6.7.1pre\xtb.exe  D5\D5_pull_+5.0A_XTB2_SP_XTB.xyz --grad -c 0 -u 0 -P 4 --namespace D5\D5_pull_+5.0A_XTB2_SP --input D5\D5_pull_+5.0A_XTB2_SP_XTB.input.tmp --acc 1.000000      
          calculation namespace      : D5\D5_pull_+5.0A_XTB2_SP
          coordinate file            : D5\D5_pull_+5.0A_XTB2_SP_XTB.xyz
          omp threads                :                     4


molecular fragmentation (1/2 indicates fragments):
111111111111111111111111111111111111111111111111111111111112222222222222
2222222222222222222222222222222222222222222222
# atoms in fragment 1/2:    59    59
 fragment masses (1/2) :      459.50      459.50
CMA distance (Bohr)    :  28.610
constraining FC (au)   :  0.0500

           -------------------------------------------------
          |                 G F N 2 - x T B                 |
           -------------------------------------------------

        Reference                      10.1021/acs.jctc.8b01176
      * Hamiltonian:
        H0-scaling (s, p, d)           1.850000    2.230000    2.230000
        zeta-weighting                 0.500000
      * Dispersion:
        s8                             2.700000
        a1                             0.520000
        a2                             5.000000
        s9                             5.000000
      * Repulsion:
        kExp                           1.500000    1.000000
        rExp                           1.000000
      * Coulomb:
        alpha                          2.000000
        third order                    shell-resolved
        anisotropic                    true
        a3                             3.000000
        a5                             4.000000
        cn-shift                       1.200000
        cn-exp                         4.000000
        max-rad                        5.000000


          ...................................................
          :                      SETUP                      :
          :.................................................:
          :  # basis functions                 322          :
          :  # atomic orbitals                 322          :
          :  # shells                          186          :
          :  # electrons                       348          :
          :  max. iterations                   250          :
          :  Hamiltonian                  GFN2-xTB          :
          :  restarted?                      false          :
          :  GBSA solvation                  false          :
          :  PC potential                    false          :
          :  electronic temp.          300.0000000     K    :
          :  accuracy                    1.0000000          :
          :  -> integral cutoff          0.2500000E+02      :
          :  -> integral neglect         0.1000000E-07      :
          :  -> SCF convergence          0.1000000E-05 Eh   :
          :  -> wf. convergence          0.1000000E-03 e    :
          :  Broyden damping             0.4000000          :
          :  net charge                          0          :
          :  unpaired electrons                  0          :
          ...................................................

 iter      E             dE          RMSdq      gap      omega  full diag
   1   -197.4401820 -0.197440E+03  0.413E+00    2.88       0.0  T
   2   -197.9691243 -0.528942E+00  0.242E+00    2.65       1.0  T
   3   -198.0194830 -0.503586E-01  0.129E+00    3.04       1.0  T
   4   -198.0263103 -0.682731E-02  0.433E-01    2.88       1.0  T
   5   -198.0412483 -0.149380E-01  0.919E-02    2.92       1.0  T
   6   -198.0414560 -0.207711E-03  0.529E-02    2.92       1.0  T
   7   -198.0416209 -0.164884E-03  0.221E-02    2.93       1.0  T
   8   -198.0416278 -0.692665E-05  0.826E-03    2.93       1.1  T
   9   -198.0416307 -0.283876E-05  0.364E-03    2.93       2.5  T
  10   -198.0416309 -0.204772E-06  0.146E-03    2.93       6.3  T
  11   -198.0416310 -0.122151E-06  0.545E-04    2.93      16.9  T
  12   -198.0416310 -0.102681E-07  0.257E-04    2.93      35.8  T

   *** convergence criteria satisfied after 12 iterations ***

         #    Occupation            Energy/Eh            Energy/eV
      -------------------------------------------------------------
         1        2.0000           -0.7235138             -19.6878
       ...           ...                  ...                  ...
       168        2.0000           -0.3859505             -10.5022
       169        2.0000           -0.3842998             -10.4573
       170        2.0000           -0.3828380             -10.4176
       171        2.0000           -0.3819429             -10.3932
       172        2.0000           -0.3811688             -10.3721
       173        2.0000           -0.3793841             -10.3236
       174        2.0000           -0.3774453             -10.2708 (HOMO)
       175                         -0.2698649              -7.3434 (LUMO)
       176                         -0.2656329              -7.2282
       177                         -0.2422997              -6.5933
       178                         -0.2386522              -6.4941
       179                         -0.2350599              -6.3963
       ...                                ...                  ...
       322                          0.8717075              23.7204
      -------------------------------------------------------------
                  HL-Gap            0.1075804 Eh            2.9274 eV
             Fermi-level           -0.3236551 Eh           -8.8071 eV

 SCC (total)                   0 d,  0 h,  0 min,  0.332 sec
 SCC setup                      ...        0 min,  0.001 sec (  0.301%)
 Dispersion                     ...        0 min,  0.005 sec (  1.506%)
 classical contributions        ...        0 min,  0.000 sec (  0.000%)
 integral evaluation            ...        0 min,  0.022 sec (  6.627%)
 iterations                     ...        0 min,  0.224 sec ( 67.470%)
 molecular gradient             ...        0 min,  0.077 sec ( 23.193%)
 printout                       ...        0 min,  0.003 sec (  0.904%)

         :::::::::::::::::::::::::::::::::::::::::::::::::::::
         ::                     SUMMARY                     ::
         :::::::::::::::::::::::::::::::::::::::::::::::::::::
         :: total energy            -193.659753811912 Eh    ::
         :: gradient norm              1.318611171584 Eh/a0 ::
         :: HOMO-LUMO gap              2.927412694049 eV    ::
         ::.................................................::
         :: SCC energy              -198.042548993628 Eh    ::
         :: -> isotropic ES            0.296616379880 Eh    ::
         :: -> anisotropic ES          0.005563733065 Eh    ::
         :: -> anisotropic XC          0.036999880834 Eh    ::
         :: -> dispersion             -0.138861534366 Eh    ::
         :: repulsion energy           4.382795181716 Eh    ::
         :: add. restraining           0.000000000000 Eh    ::
         :: total charge               0.000000000000 e     ::
         :::::::::::::::::::::::::::::::::::::::::::::::::::::


Property printout bound to 'properties.out'
#
# Number of atoms
#
       118
#
# The current total energy in Eh
#
   -193.659753811912
#
# The current gradient in Eh/bohr
#
      -0.125144596346
       0.054277027639
       0.085533824445
       0.062414854912
      -0.119539696890
       0.033335677497
      -0.071947637008
       0.138809291071
      -0.038113919960
       0.007262040445
       0.004444185490
      -0.015759672610
       0.081755206654
       0.075784387435
       0.030933946541
      -0.108446967155
       0.030422919111
      -0.034856221595
      -0.000532788712
      -0.003177598589
      -0.003270880931
      -0.004528331946
       0.017177593266
       0.015206893143
       0.003065489062
      -0.006476728745
      -0.004799714938
      -0.056737540195
       0.073288025624
       0.061462559672
       0.104945065127
      -0.036408160008
       0.026155801509
      -0.032276417247
      -0.037019196652
      -0.102375971857
       0.001945604369
       0.013879417617
      -0.014185332126
       0.004249450989
      -0.030656258135
       0.018649965762
       0.004513778376
      -0.019213804325
      -0.008424763557
       0.085932813363
       0.113030530844
      -0.001449430461
      -0.095913283245
      -0.127830672719
       0.000474134909
       0.111849867326
       0.002603628464
      -0.085691889285
      -0.129542201055
      -0.009983279419
       0.096122574908
       0.003316309718
       0.013299638258
       0.008138008764
      -0.081026693628
      -0.114778021328
       0.001079344593
       0.092488213988
       0.132173568241
      -0.001285729667
      -0.113684519633
      -0.010852058244
       0.084445009755
       0.125885925440
       0.006386959195
      -0.098820109900
       0.073206663120
       0.003688586876
      -0.076898419920
       0.010091564622
       0.107645227986
       0.068599338074
       0.023946454179
      -0.107403196755
       0.074435960212
      -0.118151146238
      -0.007988659662
      -0.059228063704
       0.062897415993
      -0.014500113618
      -0.185680165858
      -0.148929568477
       0.273455067709
       0.117357662573
      -0.002660458039
       0.000767140456
       0.005124772719
       0.000512628742
       0.014619702870
      -0.009443873516
      -0.005110176550
      -0.015567623863
       0.022045626300
       0.082815672981
      -0.233980677785
       0.055620246218
      -0.001133236699
       0.001880453950
       0.005360691274
       0.000259131973
      -0.000520209906
      -0.004416492885
       0.009656729815
       0.004455312788
      -0.007455771410
      -0.096081550251
      -0.014180709474
      -0.030390413911
       0.081140543857
      -0.076429431977
      -0.039405144615
       0.047872778625
       0.103600314140
       0.025977281402
      -0.026489071609
      -0.016432314421
      -0.068927350975
      -0.055317465726
       0.086718194224
       0.055932484895
       0.082567078147
      -0.045438140209
       0.068549647168
      -0.000035941325
       0.072280854550
      -0.044710000977
      -0.055873868727
      -0.029910044264
       0.096072296571
       0.055285317018
      -0.092575560866
      -0.045322946537
       0.099342274397
       0.025024299854
      -0.013481816556
      -0.076669443484
       0.070804799983
       0.051585430942
      -0.054802251826
      -0.089095964203
      -0.048375772491
      -0.004477522412
       0.006978928695
      -0.023967585400
      -0.062703747867
       0.122819719354
      -0.032637445443
       0.071860177204
      -0.138467676923
       0.037457652446
      -0.004049795632
      -0.007839643875
       0.010437168104
       0.107680715128
      -0.049129648325
      -0.072603765192
      -0.113884611768
       0.045034726356
       0.072502352224
       0.128236427269
      -0.052183313549
      -0.082417157673
       0.011979678089
      -0.111827941087
       0.016706808060
       0.001017060075
       0.003930587934
      -0.001302792717
       0.006351876775
       0.000193511858
       0.010184918742
      -0.096062286190
       0.014183107131
      -0.030363993314
       0.081126434855
       0.076402071868
      -0.039416834228
       0.047859203967
      -0.103589259026
       0.025971719463
      -0.026508143437
       0.016387914206
      -0.068896903963
      -0.055301208341
      -0.086700464284
       0.055926067437
       0.082559984228
       0.045432983837
       0.068538283380
      -0.000027104098
      -0.072252049531
      -0.044705390840
      -0.055880863732
       0.029899979136
       0.096076645821
       0.055278951633
       0.092565256489
      -0.045325557307
      -0.004060942631
      -0.007041367709
      -0.023791782567
      -0.062757717937
      -0.122811863318
      -0.032615386630
       0.071866837147
       0.138465484242
       0.037458447263
      -0.003983253618
       0.007772362622
       0.010340725726
       0.107661719190
       0.049139447851
      -0.072588532052
      -0.125096915334
      -0.054272134896
       0.085563854636
       0.062403944872
       0.119556299740
       0.033349753540
      -0.071900450979
      -0.138827953300
      -0.038114800904
      -0.113898995141
      -0.045010881180
       0.072511878170
      -0.129513216683
       0.009891080802
       0.096181609065
       0.000802183941
      -0.003800795452
      -0.001268974102
       0.007316094518
      -0.004552645704
      -0.015925429156
       0.128223186334
       0.052164940965
      -0.082412058016
       0.081773064336
      -0.075756260984
       0.030949000949
      -0.108455160692
      -0.030450088892
      -0.034866888190
       0.011994302573
       0.111849783347
       0.016701723884
      -0.000382979096
       0.002595278795
      -0.003235255380
      -0.004535898263
      -0.017225491306
       0.015306093545
       0.003083163412
       0.006470256984
      -0.004899939629
      -0.056729329566
      -0.073267166398
       0.061449169701
       0.104932936247
       0.036401322405
       0.026139655800
      -0.032253589853
       0.037020506558
      -0.102379714583
       0.001947343623
      -0.013823234162
      -0.014170465526
       0.004568751928
       0.031193613695
       0.018576195805
       0.004502639931
       0.019157288847
      -0.008379823495
       0.085912669077
      -0.113112352926
      -0.001394086796
      -0.095919480168
       0.127860163532
       0.000457826830
       0.111692351920
      -0.002388820608
      -0.085720566972
      -0.113660421150
       0.010766253073
       0.084461059676
       0.125922853512
      -0.006397069278
      -0.098807348342
       0.063008246176
       0.014638590983
      -0.185673088498
      -0.148865422812
      -0.273443588807
       0.117430137069
      -0.002770719197
      -0.000395252977
       0.005254929610
       0.000546353420
      -0.014620468679
      -0.009508143213
      -0.005251359132
       0.015626466585
       0.022173193499
       0.082567233779
       0.233694852549
       0.055456878245
      -0.001214658610
      -0.001611458056
       0.005247398231
      -0.000111679980
       0.000244586819
      -0.004145822949
       0.073009523082
      -0.003668618663
      -0.076724660045
       0.009957017731
      -0.107490093826
       0.068617938827
       0.023818887394
       0.107252732101
       0.074478844106
      -0.118115177321
       0.007944704237
      -0.059028018299
       0.009965581735
      -0.003883011770
      -0.008127170009
       0.003240630025
      -0.014001004190
       0.008666259108
      -0.080929275540
       0.114863229106
       0.000922661657
       0.092505446508
      -0.132158668959
      -0.001296896066
       0.099264469620
      -0.025028373513
      -0.013463264365
      -0.076647327565
      -0.070804389494
       0.051612174455
      -0.054786344713
       0.089111966821
      -0.048382560332
       0.006113940085
      -0.000235953454
       0.010019767518
#
# The atomic numbers and current coordinates in Bohr
#
   1    43.1604586   78.2515582   70.4834824
   6    40.9351014   77.4668192   73.4514114
   1    41.7179003   75.9522729   73.8786291
   6    38.9098143   78.3135525   74.8371188
   6    38.5105083   78.1422179   79.5038103
   1    40.2053923   77.7467094   80.0772988
   6    37.6370641   74.4034597   76.8150444
   6    37.2368841   73.1829289   79.2814312
   6    36.6134102   74.4489745   81.4421953
   6    36.6226606   77.2620023   81.4728170
   1    34.9508353   77.9036572   81.0791941
   1    37.1057468   77.8748834   83.1305524
   6    36.0792887   72.5608925   83.2039850
   6    35.1891918   72.8889134   85.8347778
   6    37.6461960   68.5464293   78.2078870
   6    39.7229025   68.6366743   76.6438006
   1    40.7705083   70.0484197   76.6553953
   6    40.2505162   66.6355898   75.0621736
   1    41.6497094   66.6975842   74.0034944
   6    38.7077731   64.5479224   75.0526601
   6    36.6681156   64.4359663   76.6854224
   1    35.6584754   62.9988476   76.7208009
   6    36.1250986   66.4255413   78.2509953
   1    34.7426214   66.3496832   79.3340530
   6    40.9217217   62.7181726   71.6203511
   1    40.8886785   61.2410323   70.5667259
   1    40.6240250   64.1916509   70.6053747
   1    42.5458029   62.8523630   72.4188944
   1    34.7622314   70.9037852   88.8475988
   1    35.9698693   69.5618815   86.7605647
   7    38.0788104   76.9428751   77.0261262
   7    37.0677592   70.6579004   79.7862437
   7    36.3856213   70.2561140   82.2104141
   7    35.2648507   70.8365593   87.2826205
   8    37.4232773   73.3254898   74.8011457
   8    34.3898587   74.9365590   86.5242125
   8    39.0181325   62.5230342   73.4930332
   6    40.0031552   83.0659320   66.6183071
   1    38.6913632   84.2312694   67.1537414
   1    39.1889076   81.4925303   66.1488731
   6    41.2647939   84.1161744   64.3817320
   1    42.0952652   82.7533443   63.4761613
   1    39.9986925   84.8329027   63.2680525
   6    43.1479586   86.0754061   64.9861394
   1    44.0126330   86.5776391   63.4494045
   1    42.2907910   87.5507154   65.6583309
   6    45.0428286   85.1630162   66.8650647
   1    46.2779685   84.1344849   65.9853590
   1    45.9258289   86.6168760   67.5461751
   6    44.0044486   83.6555326   69.0264234
   6    38.6438562   81.9521257   72.1739206
   1    37.8654845   83.4700726   71.7470002
   6    40.6982403   81.1171634   70.8084295
   6    41.8089041   78.8508372   71.4339451
   6    37.7380442   80.5416882   74.1714679
   1    36.3338648   81.0975450   75.0707953
   1    38.3859465   79.9622892   79.3221611
   7    41.6991226   82.5880259   68.7609360
   8    45.2417766   83.3881981   70.9710516
   6    24.5433011   57.3279842   88.6786627
   1    23.2315091   56.1626468   89.2140970
   1    23.7290535   58.9013859   88.2092287
   6    25.8049399   56.2777418   86.4420876
   1    26.6354112   57.6405719   85.5365169
   1    24.5388385   55.5610135   85.3284081
   6    27.6881045   54.3185101   87.0464950
   1    28.5527789   53.8162771   85.5097601
   1    26.8309370   52.8432008   87.7186865
   6    28.5445945   56.7383836   91.0867790
   6    23.1840021   58.4417904   94.2342762
   1    22.4056304   56.9238436   93.8073558
   6    25.2383863   59.2767527   92.8687850
   6    26.3490500   61.5430790   93.4943007
   1    27.7006045   62.1423580   92.5438380
   6    25.4752474   62.9270970   95.5117670
   1    26.2580462   64.4416433   95.9389846
   6    22.2781901   59.8522280   96.2318235
   1    26.1898554   73.6963320   96.0638499
   7    26.2392686   57.8058902   90.8212916
   6    23.4499602   62.0803636   96.8974744
   1    20.8740107   59.2963712   97.1311509
   6    23.0506543   62.2516983  101.5641659
   1    24.7455382   62.6472068  102.1376543
   1    22.9260925   60.4316270  101.3825166
   6    22.1772100   65.9904565   98.8754000
   6    21.7770300   67.2109873  101.3417868
   6    21.1535561   65.9449417  103.5025508
   6    21.1628066   63.1319139  103.5331726
   1    19.4909813   62.4902590  103.1395496
   1    21.6458928   62.5190327  105.1909079
   6    20.6194347   67.8330237  105.2643406
   6    19.7293378   67.5050028  107.8951333
   6    22.1863420   71.8474869  100.2682426
   6    24.2630485   71.7572419   98.7041562
   1    25.3106542   70.3454964   98.7157508
   6    24.7906622   73.7583264   97.1225292
   6    20.6652445   73.9683749  100.3113508
   1    19.2827673   74.0442330  101.3944086
   1    19.3023774   69.4901309  110.9079544
   1    20.5100152   70.8320346  108.8209203
   7    22.6189564   63.4510411   99.0864818
   7    21.6079051   69.7360158  101.8465993
   7    20.9257672   70.1378022  104.2707697
   7    19.8049967   69.5573569  109.3429761
   8    21.9634232   67.0684263   96.8615013
   8    18.9300047   65.4573572  108.5845681
   6    25.4618676   77.6757435   93.6807067
   1    25.4288244   79.1528839   92.6270815
   1    25.1641709   76.2022653   92.6657303
   1    27.0859489   77.5415532   94.4792500
   8    23.5582785   77.8708820   95.5533887
   6    23.2479190   75.8459937   97.1130157
   6    21.2082616   75.9579498   98.7457780
   1    20.1986214   77.3950685   98.7811564
   6    29.5829746   55.2309000   88.9254203
   1    30.8181144   56.2594312   88.0457146
   1    30.4659749   53.7770402   89.6065307
   8    29.7819226   57.0057180   93.0314072

           -------------------------------------------------
          | TOTAL ENERGY             -193.659753811912 Eh   |
          | GRADIENT NORM               1.318611171584 Eh/ﾎｱ |
          | HOMO-LUMO GAP               2.927412694049 eV   |
           -------------------------------------------------

------------------------------------------------------------------------
 * finished run on 2026/10/03 at 08:19:03.896     
------------------------------------------------------------------------
 total:
 * wall-time:     0 d,  0 h,  0 min,  0.410 sec
 *  cpu-time:     0 d,  0 h,  0 min,  1.625 sec
 * ratio c/w:     3.963 speedup
 SCF:
 * wall-time:     0 d,  0 h,  0 min,  0.334 sec
 *  cpu-time:     0 d,  0 h,  0 min,  1.312 sec
 * ratio c/w:     3.930 speedup


-------------------------   --------------------
FINAL SINGLE POINT ENERGY      -193.659753811910
-------------------------   --------------------


-------------
DIPOLE MOMENT
-------------
                                X             Y             Z
Total Dipole Moment    :      1.04100       0.05000      -3.55000
                        -----------------------------------------
Magnitude (a.u.)       :      3.69982
Magnitude (Debye)      :      9.40420


--------------------------------
SUGGESTED CITATIONS FOR THIS RUN
--------------------------------

Below you find a list of papers that are relevant to this ORCA run
We neither can nor want to force you to cite these papers, but we appreciate if you do
You receive ORCA, which is the product of decades of hard work by many enthusiastic individuals, for free
The only thing we kindly ask in return is that you cite our papers,
We deeply appreciate it, if you show your appreciation for ORCA by not just citing the generic ORCA reference.

Please note that relegating all ORCA citations to the supporting information does *not* help us.
SI sections are not indexed - citations you put there will not count into any citation statistics
But we need these citations in order to attract the funding resources that allow us to do what we are doing

Therefore, if you are a happy ORCA user, please consider citing a few of the papers listed below in the main body of your paper

In addition to the list printed below, the program has created the file D5\D5_pull_+5.0A_XTB2_SP.bibtex that contains the list in bibtex format
You can import this file easily into all common literature databanks and citation aid programs

It goes without saying that in many instances, there are alternative algorithms to achieve similar
results as the ones you have gotten from ORCA. It is, of course, also the case that in some instances
ORCA just re-implements algorithms worked out by others. We are fully aware of that and we are also
fully appreciative of our colleagues work. Hence this citation list should not be read as indicating
that the listed papers, which are focused on our own work, are the only ones worth citing. It simply
meant to make it easier for users to cite ORCA specific papers. It is not a substitute for doing your
own literature research and citing the relevant literature in a scientifically appropriate manner.

List of essential papers. We consider these as the minimum necessary citations

  1. Bannwarth, C.; Ehlert, S.; Grimme, S.
     GFN2-xTB窶尿n Accurate and Broadly Parametrized Self-Consistent Tight-Binding Quantum Chemical Method with Multipole Electrostatics and Density-Dependent Dispersion Contributions
     J. Chem. Theory Comput. 2019 15(3), 1652-1671
     doi.org/10.1021/acs.jctc.8b01176
  2. Neese, F.
     Software update: the ORCA program system, version 6.0
     WIRES Comput. Molec. Sci. 2025 15(1), e70019
     doi.org/10.1002/wcms.70019

List of papers to cite with high priority. The work reported in these papers was absolutely
necessary for this run to complete.
Our perspective: the developers of density functionals and basis sets usually get cited in chemistry papers
Good! But without the algorithms to do something with them, the functionals or basis sets would not do anything.
Hence, in our opinion, the algorithm design and method developments papers are equally worthy of getting cited

  1. Bannwarth, C.; Caldeweyher, E.; Ehlert, S.; Hansen, A.; Pracht, P.; Seibert, J.; Spicher, S.; Grimme, S.
     Extended tight-binding quantum chemistry methods
     WIRES Comput. Molec. Sci. 2020 11(2), e1493
     doi.org/10.1002/wcms.1493

List of suggested additional citations. These are papers that are important in the 'surrounding' of 
of this run, or papers that preceded the highly important papers. If you like your results we are grateful for a citation.

  1. Neese, F.
     The ORCA program system
     WIRES Comput. Molec. Sci. 2012 2(1), 73-78
     doi.org/10.1002/wcms.81
  2. Neese, F.
     Software update: the ORCA program system, version 4.0
     WIRES Comput. Molec. Sci. 2018 8(1), 1-6
     doi.org/10.1002/wcms.1327
  3. Neese, F.; Wennmohs, F.; Becker, U.; Riplinger, C.
     The ORCA quantum chemistry program package
     J. Chem. Phys. 2020 152(22), 224108
     doi.org/10.1063/5.0004608
  4. Neese, F.
     Software update: The ORCA program system窶之ersion 5.0
     WIRES Comput. Molec. Sci. 2022 12(1), e1606
     doi.org/10.1002/wcms.1606

List of optional additional citations

  1. Neese, F.
     Approximate second-order SCF convergence for spin unrestricted wavefunctions
     Chem. Phys. Lett. 2000 325(1-3), 93-98
     doi.org/10.1016/s0009-2614(00)00662-x

Timings for individual modules:

Sum of individual times          ...        0.483 sec (=   0.008 min)
XTB module                       ...        0.483 sec (=   0.008 min) 100.0 %
                             ****ORCA TERMINATED NORMALLY****
TOTAL RUN TIME: 0 days 0 hours 0 minutes 0 seconds 946 msec
