118
p_A_D8b
H     22.83953108    41.40894130    37.29825264
C     21.66192281    40.99367530    38.86881303
H     22.07616212    40.19221192    39.09488688
C     20.59018700    41.44174731    39.60209780
C     20.37888339    41.35108090    42.07160460
H     21.27577734    41.14178684    42.37508161
C     19.91667659    39.37261526    40.64877097
C     19.70491047    38.72673821    41.95392663
C     19.37498228    39.39670069    43.09735375
C     19.37987740    40.88529087    43.11355807
H     18.49518556    41.22484004    42.90526177
H     19.63551561    41.20961362    43.99079384
C     19.09233738    38.39757069    44.02965274
C     18.62131839    38.57115188    45.42180829
C     19.92150901    36.27320826    41.38583152
C     21.02045476    36.32096385    40.55815264
H     21.57482386    37.06802738    40.56428826
C     21.29965591    35.26203555    39.72119169
H     22.04007708    35.29484156    39.16096274
C     20.48327140    34.15728956    39.71615733
C     19.40393116    34.09804495    40.58017793
H     18.86965258    33.33755448    40.59889943
C     19.11657892    35.15088268    41.40864342
H     18.38500348    35.11074030    41.98177289
C     21.65484253    33.18902767    37.89985766
H     21.63735684    32.40735864    37.34230322
H     21.49730824    33.96875880    37.36275527
H     22.51426932    33.26003816    38.32242855
H     18.39538066    37.52066732    47.01612452
H     19.03443510    36.81056246    45.91171363
N     20.15043870    40.71641603    40.76047065
N     19.61541343    37.39055064    42.22106192
N     19.25444159    37.17793445    43.50387764
N     18.66135535    37.48509287    46.18797368
O     19.80354548    38.80217820    39.58306166
O     18.19832953    39.65471929    45.78664146
O     20.64750653    33.08576486    38.89083831
C     21.16875807    43.95659821    35.25288997
H     20.47458764    44.57326822    35.53622957
H     20.73787682    43.12398988    35.00447618
C     21.83638855    44.51236254    34.06934536
H     22.27585503    43.79118392    33.59013802
H     21.16639655    44.89163882    33.48001158
C     22.83291639    45.54914332    34.38918402
H     23.29048235    45.81491356    33.57597890
H     22.37932284    46.32984340    34.74489242
C     23.83563842    45.06632738    35.38346846
H     24.48924629    44.52205208    34.91794826
H     24.30290205    45.83567686    35.74389657
C     23.28615136    44.26860140    36.52721022
C     20.44944804    43.36719733    38.19279400
H     20.03755147    44.17046020    37.96687747
C     21.53658130    42.92535431    37.47020721
C     22.12431926    41.72606610    37.80121583
C     19.97011296    42.62082591    39.24985051
H     19.22705322    42.91497266    39.72575407
H     20.31296812    42.31422118    41.97547995
N     22.06622540    43.70370122    36.38672035
O     23.94091717    44.12713411    37.55626316
C     26.68135773    46.01770179    27.38671554
H     25.98718729    45.40103178    27.67005515
H     26.25047647    46.85031012    27.13830176
C     27.34898821    45.46193746    26.20317094
H     27.78845469    46.18311608    25.72396360
H     26.67899620    45.08266118    25.61383715
C     28.34551605    44.42515668    26.52300959
H     28.80308201    44.15938644    25.70980448
H     27.89192250    43.64445660    26.87871800
C     28.79875101    45.70569860    28.66103580
C     25.96204769    46.60710267    30.32661957
H     25.55015112    45.80383980    30.10070304
C     27.04918095    47.04894569    29.60403279
C     27.63691892    48.24823390    29.93504141
H     28.35213073    48.56535870    29.43207822
C     27.17452246    48.98062470    31.00263860
H     27.58876177    49.78208808    31.22871246
C     25.48271261    47.35347409    31.38367609
H     27.55267673    54.67945844    31.29478832
N     27.57882505    46.27059878    28.52054593
C     26.10278666    48.53255269    31.73592338
H     24.73965288    47.05932734    31.85957964
C     25.89148304    48.62321910    34.20543018
H     26.78837699    48.83251316    34.50890719
H     25.82556778    47.66007882    34.10930553
C     25.42927624    50.60168474    32.78259655
C     25.21751012    51.24756179    34.08775221
C     24.88758193    50.57759931    35.23117933
C     24.89247705    49.08900913    35.24738364
H     24.00778522    48.74945996    35.03908735
H     25.14811527    48.76468638    36.12461942
C     24.60493704    51.57672931    36.16347832
C     24.13391805    51.40314812    37.55563387
C     25.43410866    53.70109174    33.51965709
C     26.53305441    53.65333615    32.69197822
H     27.08742352    52.90627262    32.69811384
C     26.81225556    54.71226445    31.85501726
C     24.62917857    54.82341732    33.54246900
H     23.89760314    54.86355970    34.11559847
H     23.90798032    52.45363268    39.14995010
H     24.54703475    53.16373754    38.04553921
N     25.66303835    49.25788397    32.89429623
N     25.12801309    52.58374936    34.35488749
N     24.76704125    52.79636555    35.63770322
N     24.17395500    52.48920713    38.32179926
O     25.31614513    51.17212180    31.71688724
O     23.71092918    50.31958071    37.92046704
C     27.16744218    56.78527233    30.03368324
H     27.14995649    57.56694136    29.47612879
H     27.00990789    56.00554120    29.49658085
H     28.02686898    56.71426184    30.45625413
O     26.16010619    56.88853514    31.02466389
C     25.99587105    55.81701044    31.84998291
C     24.91653082    55.87625505    32.71400351
H     24.38225224    56.63674552    32.73272501
C     29.34823808    44.90797262    27.51729404
H     30.00184595    45.45224792    27.05177384
H     29.81550170    44.13862314    27.87772215
O     29.45351682    45.84716589    29.69008874
