27
Coordinates from ORCA-job Adamantanol E -465.854430467414
  O           0.69299054831175      2.56824339274389      0.00000000000000
  C           0.28882311419682      1.18032224181353      0.00000000000000
  C          -0.53307205005625      0.85681082674744     -1.25134417367102
  C          -0.90381360258094     -0.63614725510015     -1.25557875273684
  C          -1.72818259019091     -0.95903833715266      0.00000000000000
  C          -0.90381360258094     -0.63614725510015      1.25557875273684
  C           0.38359529416494     -1.47430223694372      1.25375694225103
  C           1.20961942040251     -1.14736035246140      0.00000000000000
  C           0.38359529416494     -1.47430223694372     -1.25375694225103
  C           1.56959304047418      0.34805134553028      0.00000000000000
  C          -0.53307205005625      0.85681082674744      1.25134417367102
  H          -0.11188401820534      3.10531621602939      0.00000000000000
  H           0.05459760100253      1.10928572637010     -2.14485424293030
  H          -1.44172432439772      1.47656398107353     -1.26114468799871
  H          -1.49311711571154     -0.86170634093613     -2.15466232421542
  H          -2.00984857999550     -2.02096933130039      0.00000000000000
  H          -2.65795269553858     -0.37323611491390      0.00000000000000
  H          -1.49311711571154     -0.86170634093613      2.15466232421542
  H           0.13345094477559     -2.54398299825436      1.26708099984497
  H           0.97153117283407     -1.26381968851700      2.15793479934126
  H           2.13420751958842     -1.74001585967210      0.00000000000000
  H           0.13345094477559     -2.54398299825436     -1.26708099984497
  H           0.97153117283407     -1.26381968851700     -2.15793479934126
  H           2.16645844952279      0.59823164724053     -0.88798462532318
  H           2.16645844952279      0.59823164724053      0.88798462532318
  H           0.05459760100253      1.10928572637010      2.14485424293030
  H          -1.44172432439772      1.47656398107353      1.26114468799871
