27
Coordinates from ORCA-job Admantan-1-ol_XTB2 E -33.704610658430
  O           2.55359145271248      1.11606913919518      0.41828052245375
  C           1.27425194991249      0.54505620407363      0.19325432306843
  C           1.32788482345546     -0.98452809297951      0.28817827186020
  C          -0.07571371345493     -1.56025449316369      0.10587908396832
  C          -0.61729529449601     -1.16121435591376     -1.26657167256584
  C          -0.67533052341081      0.36294941218717     -1.36511833832636
  C          -1.59734781810059      0.90987822125955     -0.27607043752715
  C          -1.05548014313350      0.50890872143261      1.09553641602803
  C          -0.99721654601643     -1.01497023535449      1.19619416029867
  C           0.34562660593591      1.08701562677718      1.28023847874858
  C           0.72781191763224      0.94016025176643     -1.18400976113129
  H           3.15856666372040      0.78852257118019     -0.25652909356052
  H           1.73317216331277     -1.26883141035704      1.26172466254214
  H           1.99790945338481     -1.37770074383184     -0.48264101700499
  H          -0.03007706170883     -2.65301345675936      0.17740725570644
  H          -1.61601758163417     -1.58026924798840     -1.40727186786132
  H           0.02683716218060     -1.56191017878817     -2.05302761945099
  H          -1.06024975986755      0.65136501846674     -2.34999169127190
  H          -2.60539055089301      0.51081293610277     -0.40925452069007
  H          -1.65449661439534      1.99800770867786     -0.34952452014200
  H          -1.71330971008453      0.90236841424449      1.87820841573551
  H          -1.99893699856536     -1.43432929951262      1.07859515199615
  H          -0.62356635568890     -1.30847841532243      2.17952029452281
  H           0.75009468477885      0.81723550351305      2.25696723640805
  H           0.32649524190410      2.17608612238990      1.21728394215115
  H           0.70499442384555      2.02937916029031     -1.26112698602339
  H           1.39319214867431      0.56168492841425     -1.96613070993242
