
                                 *****************
                                 * O   R   C   A *
                                 *****************

                                            #,                                       
                                            ###                                      
                                            ####                                     
                                            #####                                    
                                            ######                                   
                                           ########,                                 
                                     ,,################,,,,,                         
                               ,,#################################,,                 
                          ,,##########################################,,             
                       ,#########################################, ''#####,          
                    ,#############################################,,   '####,        
                  ,##################################################,,,,####,       
                ,###########''''           ''''###############################       
              ,#####''   ,,,,##########,,,,          '''####'''          '####       
            ,##' ,,,,###########################,,,                        '##       
           ' ,,###''''                  '''############,,,                           
         ,,##''                                '''############,,,,        ,,,,,,###''
      ,#''                                            '''#######################'''  
     '                                                          ''''####''''         
             ,#######,   #######,   ,#######,      ##                                
            ,#'     '#,  ##    ##  ,#'     '#,    #''#        ,####,    ,#,          
            ##       ##  ##   ,#'  ##            #'  '#       #'       ,# #          
            ##       ##  #######   ##           ,######,      #####,      #          
            '#,     ,#'  ##    ##  '#,     ,#' ,#      #,     #,   #      #          
             '#######'   ##     ##  '#######'  #'      '#     '####' #    #          



                #########################################################
                #                        -***-                          #
                #          Department of theory and spectroscopy        #
                #                                                       #
                #                      Frank Neese                      #
                #                                                       #
                #     Directorship, Architecture, Infrastructure        #
                #                    SHARK, DRIVERS                     #
                #        Core code/Algorithms in most modules           #
                #                                                       #
                #        Max Planck Institute fuer Kohlenforschung      #
                #                Kaiser Wilhelm Platz 1                 #
                #                 D-45470 Muelheim/Ruhr                 #
                #                      Germany                          #
                #                                                       #
                #                  All rights reserved                  #
                #                        -***-                          #
                #########################################################


                         Program Version 6.1.1  -  RELEASE   -


 With contributions from (in alphabetic order):
[Max-Planck-Institut fuer Kohlenforschung]                               
  Daniel Aravena         : Magnetic Suceptibility                        
  Michael Atanasov       : Ab Initio Ligand Field Theory (pilot matlab implementation)
  Alexander A. Auer      : GIAO ZORA, VPT2 properties, NMR spectrum      
  Ute Becker             : All parallelization in ORCA, NUMFREQ, NUMCALC 
  Giovanni Bistoni       : ED, misc. LED, open-shell LED, HFLD           
  Dmytro Bykov           : pre 5.0 version of the SCF Hessian            
  Marcos Casanova-Pﾃ｡ez   : Triplet and SCS-CIS(D). UHF-(DLPNO)-IP/EA/STEOM-CCSD. UHF-CVS-IP/STEOM-CCSD   
  Vijay G. Chilkuri      : MRCI spin determinant printing, contributions to CSF-ICE 
  Pauline Colinet        : FMM embedding                                 
  Dipayan Datta          : RHF DLPNO-CCSD density                        
  Achintya Kumar Dutta   : EOM-CC, STEOM-CC                              
  Nicolas Foglia         : Exact transition moments, OPA infrastructure, MCD improvements    
  Dmitry Ganyushin       : Spin-Orbit,Spin-Spin,Magnetic field MRCI      
  Miquel Garcia-Rates    : C-PCM and meta-GGA Hessian, CCSD/C-PCM, Gaussian charge scheme 
  Tiago L. C. Gouveia    : GS-ROHF, GS-ROCIS                             
  Yang Guo               : DLPNO-NEVPT2, F12-NEVPT2, CIM, IAO-localization        
  Andreas Hansen         : Spin unrestricted coupled pair/coupled cluster methods 
  Ingolf Harden          : AUTO-CI MPn and infrastructure                
  Benjamin Helmich-Paris : MC-RPA, TRAH-(SCF,CASSCF), AVAS, COSX integrals, SCF dyn. polar., MC-PDFT, srDFT 
  Lee Huntington         : MR-EOM, pCC                                   
  Robert Izsak           : Overlap fitted RIJCOSX, COSX-SCS-MP3, EOM     
  Riya Kayal             : Wick's Theorem for AUTO-CI, AUTO-CI UHF-CCSDT 
  Emily Kempfer          : AUTO-CI RHF CISDT and CCSDT, approximate NEVPT4
  Christian Kollmar      : KDIIS, OOCD, Brueckner-CCSD(T), CCSD density, CASPT2, CASPT2-K, improved NEVPT2 
  Axel Koslowski         : Symmetry handling                             
  Simone Kossmann        : meta-GGA functionals, TD-DFT gradient, OOMP2, (MP2 Hessian; deprecated post 5.0) 
  Lucas Lang             : DCDCAS, Hyperfine gauge corrections, ICE-SOC+SSC
  Marvin Lechner         : AUTO-CI (C++ implementation), FIC-MRCC        
  Spencer Leger          : CASSCF response                               
  Dagmar Lenk            : GEPOL surface, SMD, ORCA-2-JSON               
  Dimitrios Liakos       : Extrapolation schemes; Compound Job, Property file
  Dimitrios Manganas     : Further ROCIS development; embedding schemes. LFT, Crystal Embedding 
  Dimitrios Pantazis     : SARC Basis sets                               
  Anastasios Papadopoulos: AUTO-CI, single reference methods and gradients 
  Taras Petrenko         : pre 6.0 DFT Hessian and TD-DFT gradient,  ECA, NRVS 
  Petra Pikulova         : Analytic Raman intensities                    
  Peter Pinski           : DLPNO-MP2, DLPNO-MP2 Gradient                 
  Shashank Vittal Rao    : ES-AILFT, MagRelax                            
  Christoph Reimann      : Effective Core Potentials                     
  Marius Retegan         : Local ZFS, SOC                                
  Christoph Riplinger    : Optimizer, TS searches, QM/MM, DLPNO-CCSD(T), (RO)-DLPNO pert. Triples 
  Michael Roemelt        : Original ROCIS implementation, recursive CI coupling coefficients
  Masaaki Saitow         : Open-shell DLPNO-CCSD energy and density      
  Barbara Sandhoefer     : DKH picture change effects                    
  Yorick L. A. Schmerwitz: GMF and freeze-and-release deltaSCF, NEB S-IDPP initial path                    
  Kantharuban Sivalingam : CASSCF convergence/infrastructure, NEVPT2, NEVPT3, NEVPT4(SD), FIC-MRCI and CEPA variants
  Bernardo de Souza      : ESD, SOC TD-DFT                               
  Georgi L. Stoychev     : AutoAux, RI-MP2 NMR, DLPNO-MP2 response, X2C  
  Van Anh Tran           : RI-MP2 g-tensors                              
  Willem Van den Heuvel  : Paramagnetic NMR                              
  Zikuan Wang            : NOTCH, Electric field optimization            
  Frank Wennmohs         : Technical directorship and infrastructure     
  Hang Xu                : AUTO-CI-Response properties                   
                                                                         
[FACCTs GmbH]                                                            
  Markus Bursch, Nicolas Foglia, Miquel Garcia-Rates, Ingolf Harden, Hagen Neugebauer, Anastasios Papadopoulos, 
  Christoph Riplinger, Bernardo de Souza, Georgi L. Stoychev                                                    
                                                                 
  APM, various basis sets, CI-OPT, improved COSX, DLPNO-Multilevel,           
  DOCKER, DRACO, updates on ESD, Fragmentator, GOAT, IRC, LR-CPCM, L-BFGS, MBIS, meta-GGA TD-DFT gradient, ML-optimized integration grids, 
  MM, NACMEs, nearIR, NEB, NEB-TS, NL-DFT gradient (VV10), 2- and 3-layer-ONIOM, interface openCOSMO-RS, QMMM,   
  Crystal-QMMM, RESP, rigid body optimization, SF, symmetry and pop. for TD-DFT, various functionals, SOLVATOR                                   
                                                                         
[Other institutions]                                                     
  V. Asgeirsson          : NEB                                           
  Christoph Bannwarth    : sTDA-DFT, sTD-DFT, PBEh-3c, B97-3c, D3        
  Giovanni Bistoni       : ETS/NOCV, ADLD/ADEX, COVALED                  
  Martin Brehm           : Molecular dynamics                            
  Ronald Cardenas        : ETS/NOCV                                      
  Martina Colucci        : COVALED                                       
  Sebastian Ehlert       : rSCAN, r2SCAN, r2SCAN-3c, D4, dhf basis sets  
  Marvin Friede          : D4 for Fr, Ra, Ac-Lr                          
  Lars Goerigk           : TD-DFT with DH, B97 family of functionals     
  Stefan Grimme          : VdW corrections, initial TS optimization, DFT functionals, gCP, sTDA/sTD-DF 
  Waldemar Hujo          : DFT-NL                                        
  H. Jonsson             : NEB                                           
  Holger Kruse           : gCP                                           
  Marcel Mueller         : wB97X-3c, vDZP basis set                      
  Hagen Neugebauer       : wr2SCAN, Native XTB                           
  Gianluca Regni         : ADLD/ADEX                                     
  Tobias Risthaus        : pre 6.0 range-separated hybrid DFT and stability analysis
  Lukas Wittmann         : regularized MP2, r2SCAN double-hybrids, wr2SCAN        
                                                                         
We gratefully acknowledge several colleagues who have allowed us to      
interface, adapt or use parts of their codes:                            
  Ed Valeev, F. Pavosevic, A. Kumar             : LibInt (2-el integral package), F12 methods 
  Garnet Chan, S. Sharma, J. Yang, R. Olivares  : DMRG                   
  Ulf Ekstrom                                   : XCFun DFT Library      
  Mihaly Kallay                                 : mrcc  (arbitrary order and MRCC methods)
  Frank Weinhold                                : gennbo (NPA and NBO analysis)           
  Simon Mueller                                 : openCOSMO-RS                            
  Christopher J. Cramer and Donald G. Truhlar   : smd solvation model                     
  S Lehtola, MJT Oliveira, MAL Marques          : LibXC Library                           
  Liviu Ungur et al                             : ANISO software                          


 Your calculation uses the libint2 library for the computation of 2-el integrals
 For citations please refer to: http://libint.valeyev.net

 Your ORCA version has been built with support for libXC version: 7.0.0
 For citations please refer to: https://libxc.gitlab.io

 This ORCA versions uses:
   CBLAS   interface :  Fast vector & matrix operations
   LAPACKE interface :  Fast linear algebra routines
   Shared memory     :  Shared parallel matrices


  ***********************************
  * Starting time: Sun Sep  6 20:56:18 2026
  * Host name:     DESKTOP-2KDTO5M
  * Process ID:    3124
  * Working dir.:  C:\Users\naoki\Downloads\デスクトップ\data\Molecules\Calculations\Adamantan-1-ol\Gas\XTB2
  ***********************************

NOTE: MaxCore=2000 MB was set to SCF,MP2,MDCI,CIPSI,MRCI,RASCI and CIS
      => If you want to overwrite this, your respective input block should be placed after the MaxCore statement
Your calculation utilizes the semiempirical GFN2-xTB method
Please cite in your paper:
Bannwarth, C.; Ehlert S.; Grimme, S. J. Chem. Theory Comput. 2019, 15, 1652.
   

================================================================================

================================================================================
                                        WARNINGS
                       Please study these warnings very carefully!
================================================================================


WARNING: Geometry Optimization
  ===> : Switching off AutoStart
         For restart on a previous wavefunction, please use MOREAD

WARNING: Found dipole moment calculation with XTB calculation
  ===> : Switching off dipole moment calculation

Environment variable XTBEXE for xtb has been set!

================================================================================
                                       INPUT FILE
================================================================================
NAME = Admantan-1-ol_XTB2.inp
|  1> ! XTB2 Opt
|  2> 
|  3> %pal
|  4>   nprocs 4
|  5> end
|  6> 
|  7> %maxcore 2000
|  8> 
|  9> * xyz 0 1
| 10> O   2.57725489  1.10475085  0.39383254
| 11> C   1.29683711  0.55667116  0.19918828
| 12> C   1.34836139 -0.99141334  0.30212872
| 13> C  -0.06917651 -1.57551333  0.11063462
| 14> C  -0.61049450 -1.16804073 -1.27821580
| 15> C  -0.67651392  0.37253245 -1.37942616
| 16> C  -1.61086253  0.92042971 -0.27830268
| 17> C  -1.06743763  0.51614684  1.10986830
| 18> C  -1.00466083 -1.02398627  1.20897951
| 19> C   0.35031504  1.10126233  1.29696454
| 20> C   0.73942248  0.96176731 -1.19185558
| 21> H   3.17053821  0.74588674 -0.31713344
| 22> H   1.75133825 -1.29492754  1.29360408
| 23> H   2.02954942 -1.40624480 -0.47342900
| 24> H  -0.02659515 -2.68409572  0.18181258
| 25> H  -1.62281587 -1.60199372 -1.43293674
| 26> H   0.04892930 -1.57337654 -2.07690707
| 27> H  -1.06993298  0.66241265 -2.37793768
| 28> H  -2.63812725  0.51703679 -0.41639324
| 29> H  -1.67721726  2.02819750 -0.35260922
| 30> H  -1.74013218  0.91193433  1.90148848
| 31> H  -2.02358546 -1.45413337  1.09135100
| 32> H  -0.63169099 -1.32537129  2.21253890
| 33> H   0.73852742  0.83073294  2.30391463
| 34> H   0.30791280  2.21193238  1.24742785
| 35> H   0.70224334  2.07007116 -1.28027438
| 36> H   1.40801343  0.58733152 -1.99831306
| 37> *
| 38> 
| 39>                          ****END OF INPUT****
================================================================================

                       *****************************
                       * Geometry Optimization Run *
                       *****************************

Geometry optimization settings:
Update method            Update   .... BFGS
Choice of coordinates    CoordSys .... (2022) Redundant Internals
Initial Hessian          InHess   .... Almloef's Model
Max. no of cycles        MaxIter  .... 81

Convergence Tolerances:
Energy Change            TolE     ....  5.0000e-06 Eh
Max. Gradient            TolMAXG  ....  3.0000e-04 Eh/bohr
RMS Gradient             TolRMSG  ....  1.0000e-04 Eh/bohr
Max. Displacement        TolMAXD  ....  4.0000e-03 bohr
RMS Displacement         TolRMSD  ....  2.0000e-03 bohr
Strict Convergence                .... False

------------------------------------------------------------------------------
                        ORCA OPTIMIZATION COORDINATE SETUP
------------------------------------------------------------------------------

The optimization will be done in redundant internal coordinates (2022)
Making redundant internal coordinates   ...  (2022 redundants) done
Evaluating the initial hessian          ...  (Almloef) done
Evaluating the coordinates              ...  done
Calculating the B-matrix                .... done
Calculating the G-matrix                .... done
The number of degrees of freedom        ....  165

    -----------------------------------------------------------------
                    Redundant Internal Coordinates


    -----------------------------------------------------------------
         Definition                    Initial Value    Approx d2E/dq
    -----------------------------------------------------------------
      1. B(C   1,O   0)                  1.4063         0.527025   
      2. B(C   2,C   1)                  1.5524         0.344117   
      3. B(C   3,C   2)                  1.5451         0.353449   
      4. B(C   4,C   3)                  1.5453         0.353151   
      5. B(C   5,C   4)                  1.5453         0.353150   
      6. B(C   6,C   5)                  1.5446         0.354115   
      7. B(C   7,C   6)                  1.5446         0.354072   
      8. B(C   8,C   7)                  1.5446         0.354072   
      9. B(C   8,C   3)                  1.5446         0.354114   
     10. B(C   9,C   7)                  1.5451         0.353394   
     11. B(C   9,C   1)                  1.5484         0.349135   
     12. B(C  10,C   5)                  1.5451         0.353449   
     13. B(C  10,C   1)                  1.5524         0.344117   
     14. B(H  11,O   0)                  0.9931         0.460429   
     15. B(H  12,C   2)                  1.1124         0.331599   
     16. B(H  13,C   2)                  1.1125         0.331567   
     17. B(H  14,C   3)                  1.1117         0.332531   
     18. B(H  15,C   4)                  1.1122         0.331865   
     19. B(H  16,C   4)                  1.1122         0.331867   
     20. B(H  17,C   5)                  1.1117         0.332531   
     21. B(H  18,C   6)                  1.1122         0.331855   
     22. B(H  19,C   6)                  1.1122         0.331851   
     23. B(H  20,C   7)                  1.1117         0.332535   
     24. B(H  21,C   8)                  1.1122         0.331853   
     25. B(H  22,C   8)                  1.1122         0.331853   
     26. B(H  23,C   9)                  1.1126         0.331430   
     27. B(H  24,C   9)                  1.1126         0.331432   
     28. B(H  25,C  10)                  1.1124         0.331597   
     29. B(H  26,C  10)                  1.1125         0.331569   
     30. A(C   1,O   0,H  11)          107.6983         0.352611   
     31. A(O   0,C   1,C  10)          110.4415         0.377717   
     32. A(C   2,C   1,C   9)          108.9060         0.354206   
     33. A(C   9,C   1,C  10)          108.9060         0.354206   
     34. A(O   0,C   1,C   9)          108.7453         0.378665   
     35. A(C   2,C   1,C  10)          109.3645         0.353338   
     36. A(O   0,C   1,C   2)          110.4417         0.377717   
     37. A(C   3,C   2,H  13)          109.5363         0.317086   
     38. A(C   1,C   2,H  12)          110.0725         0.315714   
     39. A(C   1,C   2,H  13)          110.2404         0.315709   
     40. A(H  12,C   2,H  13)          107.3250         0.283440   
     41. A(C   1,C   2,C   3)          109.7751         0.354944   
     42. A(C   3,C   2,H  12)          109.8563         0.317091   
     43. A(C   2,C   3,H  14)          109.5062         0.317236   
     44. A(C   4,C   3,H  14)          109.5064         0.317192   
     45. A(C   4,C   3,C   8)          109.4382         0.356622   
     46. A(C   8,C   3,H  14)          109.4966         0.317333   
     47. A(C   2,C   3,C   4)          109.4565         0.356508   
     48. A(C   2,C   3,C   8)          109.4234         0.356673   
     49. A(C   3,C   4,H  15)          109.9365         0.317089   
     50. A(C   3,C   4,C   5)          109.6764         0.356457   
     51. A(H  15,C   4,H  16)          107.3103         0.283515   
     52. A(C   5,C   4,H  16)          109.9755         0.317089   
     53. A(C   3,C   4,H  16)          109.9753         0.317089   
     54. A(C   5,C   4,H  15)          109.9363         0.317089   
     55. A(C   6,C   5,C  10)          109.4231         0.356673   
     56. A(C   4,C   5,C  10)          109.4566         0.356508   
     57. A(C   4,C   5,C   6)          109.4384         0.356622   
     58. A(C  10,C   5,H  17)          109.5065         0.317236   
     59. A(C   6,C   5,H  17)          109.4966         0.317333   
     60. A(C   4,C   5,H  17)          109.5061         0.317192   
     61. A(C   5,C   6,C   7)          109.5745         0.356780   
     62. A(H  18,C   6,H  19)          107.3275         0.283512   
     63. A(C   7,C   6,H  19)          109.9817         0.317221   
     64. A(C   5,C   6,H  19)          109.9843         0.317227   
     65. A(C   7,C   6,H  18)          109.9743         0.317222   
     66. A(C   5,C   6,H  18)          109.9712         0.317228   
     67. A(C   8,C   7,C   9)          109.4224         0.356657   
     68. A(C   6,C   7,C   9)          109.4225         0.356657   
     69. A(C   9,C   7,H  20)          109.5231         0.317228   
     70. A(C   8,C   7,H  20)          109.5056         0.317327   
     71. A(C   6,C   7,H  20)          109.5056         0.317327   
     72. A(C   6,C   7,C   8)          109.4480         0.356773   
     73. A(C   7,C   8,H  22)          109.9814         0.317221   
     74. A(C   3,C   8,H  22)          109.9844         0.317228   
     75. A(C   7,C   8,H  21)          109.9746         0.317221   
     76. A(H  21,C   8,H  22)          107.3273         0.283512   
     77. A(C   3,C   8,H  21)          109.9713         0.317228   
     78. A(C   3,C   8,C   7)          109.5745         0.356780   
     79. A(H  23,C   9,H  24)          107.2374         0.283400   
     80. A(C   1,C   9,C   7)          109.9902         0.355807   
     81. A(C   7,C   9,H  24)          109.7353         0.317057   
     82. A(C   1,C   9,H  24)          110.0497         0.316432   
     83. A(C   7,C   9,H  23)          109.7355         0.317056   
     84. A(C   1,C   9,H  23)          110.0500         0.316432   
     85. A(H  25,C  10,H  26)          107.3252         0.283440   
     86. A(C   5,C  10,H  26)          109.5361         0.317086   
     87. A(C   1,C  10,H  26)          110.2403         0.315709   
     88. A(C   5,C  10,H  25)          109.8566         0.317091   
     89. A(C   1,C  10,H  25)          110.0723         0.315713   
     90. A(C   1,C  10,C   5)          109.7751         0.354944   
     91. D(C   9,C   1,O   0,H  11)    179.9993         0.022046   
     92. D(C   2,C   1,O   0,H  11)     60.5503         0.022046   
     93. D(C  10,C   1,O   0,H  11)    -60.5517         0.022046   
     94. D(C   3,C   2,C   1,C   9)     59.6657         0.010000   
     95. D(H  12,C   2,C   1,C   9)    -61.3761         0.010000   
     96. D(C   3,C   2,C   1,C  10)    -59.2422         0.010000   
     97. D(H  12,C   2,C   1,C  10)    179.7160         0.010000   
     98. D(C   3,C   2,C   1,O   0)    179.0175         0.010000   
     99. D(H  12,C   2,C   1,O   0)     57.9757         0.010000   
    100. D(C   8,C   3,C   2,H  12)     61.0093         0.010050   
    101. D(C   4,C   3,C   2,H  13)    -61.4175         0.010050   
    102. D(C   4,C   3,C   2,C   1)     59.7587         0.010050   
    103. D(C   8,C   3,C   2,H  13)    178.6611         0.010050   
    104. D(C   4,C   3,C   2,H  12)   -179.0694         0.010050   
    105. D(C   8,C   3,C   2,C   1)    -60.1627         0.010050   
    106. D(H  15,C   4,C   3,H  14)     58.7899         0.010034   
    107. D(H  15,C   4,C   3,C   8)    -61.2425         0.010034   
    108. D(H  15,C   4,C   3,C   2)    178.8453         0.010034   
    109. D(C   5,C   4,C   3,C   8)     59.7487         0.010034   
    110. D(C   5,C   4,C   3,H  14)    179.7811         0.010034   
    111. D(C   5,C   4,C   3,C   2)    -60.1635         0.010034   
    112. D(C  10,C   5,C   4,H  16)    -60.9008         0.010034   
    113. D(C  10,C   5,C   4,H  15)   -178.8453         0.010034   
    114. D(C   6,C   5,C   4,H  16)    179.1871         0.010034   
    115. D(C   6,C   5,C   4,H  15)     61.2426         0.010034   
    116. D(C   6,C   5,C   4,C   3)    -59.7486         0.010034   
    117. D(C  10,C   5,C   4,C   3)     60.1635         0.010034   
    118. D(C   7,C   6,C   5,H  17)    179.8833         0.010085   
    119. D(C   7,C   6,C   5,C   4)     59.8451         0.010085   
    120. D(C   7,C   6,C   5,C  10)    -60.0875         0.010085   
    121. D(H  18,C   6,C   5,C   4)    -61.1501         0.010085   
    122. D(H  18,C   6,C   5,H  17)     58.8880         0.010085   
    123. D(H  18,C   6,C   5,C  10)    178.9172         0.010085   
    124. D(C   9,C   7,C   6,H  18)   -179.1200         0.010082   
    125. D(C   8,C   7,C   6,H  19)    178.9759         0.010082   
    126. D(C   8,C   7,C   6,H  18)     60.9837         0.010082   
    127. D(C   8,C   7,C   6,C   5)    -60.0098         0.010082   
    128. D(C   9,C   7,C   6,H  19)    -61.1278         0.010082   
    129. D(C   9,C   7,C   6,C   5)     59.8865         0.010082   
    130. D(H  21,C   8,C   7,H  20)     59.0652         0.010082   
    131. D(H  21,C   8,C   7,C   9)    179.1199         0.010082   
    132. D(H  21,C   8,C   7,C   6)    -60.9838         0.010082   
    133. D(C   3,C   8,C   7,H  20)   -179.9411         0.010082   
    134. D(C   3,C   8,C   7,C   9)    -59.8864         0.010082   
    135. D(C   3,C   8,C   7,C   6)     60.0099         0.010082   
    136. D(H  21,C   8,C   3,H  14)    -58.8880         0.010085   
    137. D(H  21,C   8,C   3,C   4)     61.1503         0.010085   
    138. D(H  21,C   8,C   3,C   2)   -178.9171         0.010085   
    139. D(C   7,C   8,C   3,H  14)   -179.8838         0.010085   
    140. D(C   7,C   8,C   3,C   4)    -59.8454         0.010085   
    141. D(C   7,C   8,C   3,C   2)     60.0871         0.010085   
    142. D(H  23,C   9,C   7,C   8)    -61.2483         0.010047   
    143. D(H  23,C   9,C   7,C   6)    178.8397         0.010047   
    144. D(C   1,C   9,C   7,H  20)   -179.9998         0.010047   
    145. D(C   1,C   9,C   7,C   8)     59.9561         0.010047   
    146. D(C   1,C   9,C   7,C   6)    -59.9559         0.010047   
    147. D(H  23,C   9,C   1,C  10)   -179.3872         0.010000   
    148. D(H  23,C   9,C   1,C   2)     61.4186         0.010000   
    149. D(H  23,C   9,C   1,O   0)    -58.9844         0.010000   
    150. D(C   7,C   9,C   1,C  10)     59.5970         0.010000   
    151. D(C   7,C   9,C   1,C   2)    -59.5973         0.010000   
    152. D(H  23,C   9,C   7,H  20)     58.7958         0.010047   
    153. D(C   7,C   9,C   1,O   0)    179.9998         0.010000   
    154. D(H  25,C  10,C   5,C   6)    -61.0089         0.010050   
    155. D(H  25,C  10,C   5,C   4)    179.0696         0.010050   
    156. D(C   1,C  10,C   5,H  17)   -179.8138         0.010050   
    157. D(C   1,C  10,C   5,C   6)     60.1631         0.010050   
    158. D(C   1,C  10,C   5,C   4)    -59.7584         0.010050   
    159. D(H  25,C  10,C   1,C   9)     61.3763         0.010000   
    160. D(H  25,C  10,C   1,C   2)   -179.7159         0.010000   
    161. D(H  25,C  10,C   1,O   0)    -57.9754         0.010000   
    162. D(C   5,C  10,C   1,C   9)    -59.6658         0.010000   
    163. D(C   5,C  10,C   1,C   2)     59.2420         0.010000   
    164. D(H  25,C  10,C   5,H  17)     59.0142         0.010050   
    165. D(C   5,C  10,C   1,O   0)   -179.0175         0.010000   
    -----------------------------------------------------------------

Number of atoms                         .... 27
Number of degrees of freedom            .... 165


         *************************************************************
         *                GEOMETRY OPTIMIZATION CYCLE   1            *
         *************************************************************
---------------------------------
CARTESIAN COORDINATES (ANGSTROEM)
---------------------------------
  O     2.577255    1.104751    0.393833
  C     1.296837    0.556671    0.199188
  C     1.348361   -0.991413    0.302129
  C    -0.069177   -1.575513    0.110635
  C    -0.610495   -1.168041   -1.278216
  C    -0.676514    0.372532   -1.379426
  C    -1.610863    0.920430   -0.278303
  C    -1.067438    0.516147    1.109868
  C    -1.004661   -1.023986    1.208980
  C     0.350315    1.101262    1.296965
  C     0.739422    0.961767   -1.191856
  H     3.170538    0.745887   -0.317133
  H     1.751338   -1.294928    1.293604
  H     2.029549   -1.406245   -0.473429
  H    -0.026595   -2.684096    0.181813
  H    -1.622816   -1.601994   -1.432937
  H     0.048929   -1.573377   -2.076907
  H    -1.069933    0.662413   -2.377938
  H    -2.638127    0.517037   -0.416393
  H    -1.677217    2.028198   -0.352609
  H    -1.740132    0.911934    1.901488
  H    -2.023585   -1.454133    1.091351
  H    -0.631691   -1.325371    2.212539
  H     0.738527    0.830733    2.303915
  H     0.307913    2.211932    1.247428
  H     0.702243    2.070071   -1.280274
  H     1.408013    0.587332   -1.998313

----------------------------
CARTESIAN COORDINATES (A.U.)
----------------------------
  NO LB    ZA    FRAG    MASS        X           Y           Z
   0 O   8.0000    0    15.999    4.870306    2.087677    0.744236
   1 C   6.0000    0    12.011    2.450667    1.051956    0.376411
   2 C   6.0000    0    12.011    2.548034   -1.873500    0.570941
   3 C   6.0000    0    12.011   -0.130725   -2.977289    0.209069
   4 C   6.0000    0    12.011   -1.153667   -2.207277   -2.415478
   5 C   6.0000    0    12.011   -1.278426    0.703984   -2.606738
   6 C   6.0000    0    12.011   -3.044089    1.739360   -0.525916
   7 C   6.0000    0    12.011   -2.017165    0.975376    2.097347
   8 C   6.0000    0    12.011   -1.898534   -1.935054    2.284640
   9 C   6.0000    0    12.011    0.661999    2.081084    2.450908
  10 C   6.0000    0    12.011    1.397306    1.817477   -2.252281
  11 H   1.0000    0     1.008    5.991449    1.409522   -0.599295
  12 H   1.0000    0     1.008    3.309550   -2.447058    2.444557
  13 H   1.0000    0     1.008    3.835293   -2.657418   -0.894651
  14 H   1.0000    0     1.008   -0.050258   -5.072206    0.343576
  15 H   1.0000    0     1.008   -3.066678   -3.027329   -2.707858
  16 H   1.0000    0     1.008    0.092463   -2.973251   -3.924786
  17 H   1.0000    0     1.008   -2.021880    1.251778   -4.493651
  18 H   1.0000    0     1.008   -4.985338    0.977058   -0.786869
  19 H   1.0000    0     1.008   -3.169481    3.832738   -0.666335
  20 H   1.0000    0     1.008   -3.288373    1.723306    3.593292
  21 H   1.0000    0     1.008   -3.824022   -2.747914    2.062355
  22 H   1.0000    0     1.008   -1.193723   -2.504589    4.181093
  23 H   1.0000    0     1.008    1.395615    1.569858    4.353768
  24 H   1.0000    0     1.008    0.581871    4.179946    2.357297
  25 H   1.0000    0     1.008    1.327048    3.911868   -2.419368
  26 H   1.0000    0     1.008    2.660760    1.109896   -3.776264

      -----------------------------------------------------------      
     |                   =====================                   |     
     |                           x T B                           |     
     |                   =====================                   |     
     |                         S. Grimme                         |     
     |          Mulliken Center for Theoretical Chemistry        |     
     |                    University of Bonn                     |     
      -----------------------------------------------------------      

   * xtb version 6.7.1pre (5071a88) compiled by 'Marcel@Raven' on 2024-07-23

   xtb is free software: you can redistribute it and/or modify it under
   the terms of the GNU Lesser General Public License as published by
   the Free Software Foundation, either version 3 of the License, or
   (at your option) any later version.
   
   xtb is distributed in the hope that it will be useful,
   but WITHOUT ANY WARRANTY; without even the implied warranty of
   MERCHANTABILITY or FITNESS FOR A PARTICULAR PURPOSE.  See the
   GNU Lesser General Public License for more details.
   
   Cite this work as:
   * C. Bannwarth, E. Caldeweyher, S. Ehlert, A. Hansen, P. Pracht,
     J. Seibert, S. Spicher, S. Grimme, WIREs Comput. Mol. Sci., 2020, 11,
     e01493. DOI: 10.1002/wcms.1493
   
   for GFN2-xTB:
   * C. Bannwarth, S. Ehlert and S. Grimme., J. Chem. Theory Comput., 2019,
     15, 1652-1671. DOI: 10.1021/acs.jctc.8b01176
   for GFN1-xTB:
   * S. Grimme, C. Bannwarth, P. Shushkov, J. Chem. Theory Comput., 2017,
     13, 1989-2009. DOI: 10.1021/acs.jctc.7b00118
   for GFN0-xTB:
   * P. Pracht, E. Caldeweyher, S. Ehlert, S. Grimme, ChemRxiv, 2019, preprint.
     DOI: 10.26434/chemrxiv.8326202.v1
   for GFN-FF:
   * S. Spicher and S. Grimme, Angew. Chem. Int. Ed., 2020, 59, 15665-15673.
     DOI: 10.1002/anie.202004239
   
   for ALPB and GBSA implicit solvation:
   * S. Ehlert, M. Stahn, S. Spicher, S. Grimme, J. Chem. Theory Comput.,
     2021, 17, 4250-4261. DOI: 10.1021/acs.jctc.1c00471
   
   for ddCOSMO and CPCM-X implicit solvation:
   * M. Stahn, S. Ehlert, S. Grimme, J. Phys. Chem. A,
     2023, XX, XXXX-XXXX. DOI: 10.1021/acs.jpca.3c04382
   
   for DFT-D4:
   * E. Caldeweyher, C. Bannwarth and S. Grimme, J. Chem. Phys., 2017,
     147, 034112. DOI: 10.1063/1.4993215
   * E. Caldeweyher, S. Ehlert, A. Hansen, H. Neugebauer, S. Spicher,
     C. Bannwarth and S. Grimme, J. Chem. Phys., 2019, 150, 154122.
     DOI: 10.1063/1.5090222
   * E. Caldeweyher, J.-M. Mewes, S. Ehlert and S. Grimme, Phys. Chem. Chem. Phys.
     2020, 22, 8499-8512. DOI: 10.1039/D0CP00502A
   
   for sTDA-xTB:
   * S. Grimme and C. Bannwarth, J. Chem. Phys., 2016, 145, 054103.
     DOI: 10.1063/1.4959605
   
   in the mass-spec context:
   * V. Asgeirsson, C. Bauer and S. Grimme, Chem. Sci., 2017, 8, 4879.
     DOI: 10.1039/c7sc00601b
   * J. Koopman and S. Grimme, ACS Omega 2019, 4, 12, 15120-15133.
     DOI: 10.1021/acsomega.9b02011
   
   for metadynamics refer to:
   * S. Grimme, J. Chem. Theory Comput., 2019, 155, 2847-2862
     DOI: 10.1021/acs.jctc.9b00143
   
   for SPH calculations refer to:
   * S. Spicher and S. Grimme, J. Chem. Theory Comput., 2021, 17, 1701-1714
     DOI: 10.1021/acs.jctc.0c01306
   
   for ONIOM refer to:
   * C. Plett, A. Katbashev, S. Ehlert, S. Grimme, M. Bursch,
     Phys. Chem. Chem. Phys., 2023, 25, 17860-17868. DOI: 10.1039/D3CP02178E
   
   for DIPRO refer to:
   * J. Kohn, N. Gildemeister, S. Grimme, D. Fazzi, A. Hansen,
     J. Chem. Phys., 2023, just accepted.
   
   for PTB refer to:
   * S. Grimme, M. Mueller, A. Hansen, J. Chem. Phys., 2023, 158, 124111.
     DOI: 10.1063/5.0137838
   
   with help from (in alphabetical order)
   P. Atkinson, C. Bannwarth, F. Bohle, G. Brandenburg, E. Caldeweyher
   M. Checinski, S. Dohm, S. Ehlert, S. Ehrlich, I. Gerasimov, C. Hﾃｶlzer
   A. Katbashev, J. Kohn, J. Koopman, C. Lavigne, S. Lehtola, F. Mﾃ､rz, M. Mﾃｼller,
   F. Musil, H. Neugebauer, J. Pisarek, C. Plett, P. Pracht, F. Pultar,
   J. Seibert, P. Shushkov, S. Spicher, M. Stahn, M. Steiner, T. Strunk,
   J. Stﾃｼckrath, T. Rose, and J. Unsleber
   
 * started run on 2026/09/06 at 20:56:18.594     
   ID    Z sym.   atoms
    1    8 O      1
    2    6 C      2-11
    3    1 H      12-27

           -------------------------------------------------
          |                Calculation Setup                |
           -------------------------------------------------

          program call               : C:\ORCA_6.1.1\xtb-6.7.1pre\xtb.exe  Admantan-1-ol_XTB2_XTB.xyz --grad -c 0 -u 0 -P 4 --namespace Admantan-1-ol_XTB2 --input Admantan-1-ol_XTB2_XTB.input.tmp --acc 0.200000      
          calculation namespace      : Admantan-1-ol_XTB2
          coordinate file            : Admantan-1-ol_XTB2_XTB.xyz
          omp threads                :                     4


           -------------------------------------------------
          |                 G F N 2 - x T B                 |
           -------------------------------------------------

        Reference                      10.1021/acs.jctc.8b01176
      * Hamiltonian:
        H0-scaling (s, p, d)           1.850000    2.230000    2.230000
        zeta-weighting                 0.500000
      * Dispersion:
        s8                             2.700000
        a1                             0.520000
        a2                             5.000000
        s9                             5.000000
      * Repulsion:
        kExp                           1.500000    1.000000
        rExp                           1.000000
      * Coulomb:
        alpha                          2.000000
        third order                    shell-resolved
        anisotropic                    true
        a3                             3.000000
        a5                             4.000000
        cn-shift                       1.200000
        cn-exp                         4.000000
        max-rad                        5.000000


          ...................................................
          :                      SETUP                      :
          :.................................................:
          :  # basis functions                  60          :
          :  # atomic orbitals                  60          :
          :  # shells                           38          :
          :  # electrons                        62          :
          :  max. iterations                   250          :
          :  Hamiltonian                  GFN2-xTB          :
          :  restarted?                      false          :
          :  GBSA solvation                  false          :
          :  PC potential                    false          :
          :  electronic temp.          300.0000000     K    :
          :  accuracy                    0.2000000          :
          :  -> integral cutoff          0.3198970E+02      :
          :  -> integral neglect         0.2000000E-08      :
          :  -> SCF convergence          0.2000000E-06 Eh   :
          :  -> wf. convergence          0.2000000E-04 e    :
          :  Broyden damping             0.4000000          :
          :  net charge                          0          :
          :  unpaired electrons                  0          :
          ...................................................

 iter      E             dE          RMSdq      gap      omega  full diag
   1    -34.0083275 -0.340083E+02  0.270E+00   11.15       0.0  T
   2    -34.0723492 -0.640217E-01  0.160E+00   10.92       1.0  T
   3    -34.0739932 -0.164403E-02  0.774E-01   11.01       1.0  T
   4    -34.0745068 -0.513532E-03  0.151E-01   11.00       1.0  T
   5    -34.0747361 -0.229287E-03  0.632E-02   11.01       1.0  T
   6    -34.0747377 -0.161926E-05  0.880E-03   11.01       2.2  T
   7    -34.0747384 -0.725481E-06  0.441E-03   11.01       4.4  T
   8    -34.0747385 -0.583567E-07  0.132E-03   11.01      14.5  T
   9    -34.0747385 -0.651366E-08  0.465E-04   11.01      41.4  T
  10    -34.0747385 -0.510362E-09  0.733E-05   11.01     262.6  T
  11    -34.0747385 -0.246203E-10  0.359E-05   11.01     536.1  T

   *** convergence criteria satisfied after 11 iterations ***

         #    Occupation            Energy/Eh            Energy/eV
      -------------------------------------------------------------
         1        2.0000           -0.6796966             -18.4955
       ...           ...                  ...                  ...
        25        2.0000           -0.4353592             -11.8467
        26        2.0000           -0.4311541             -11.7323
        27        2.0000           -0.4288848             -11.6705
        28        2.0000           -0.4163599             -11.3297
        29        2.0000           -0.4147978             -11.2872
        30        2.0000           -0.4010172             -10.9122
        31        2.0000           -0.3898012             -10.6070 (HOMO)
        32                          0.0149597               0.4071 (LUMO)
        33                          0.0408966               1.1129
        34                          0.0469629               1.2779
        35                          0.0619838               1.6867
        36                          0.0689279               1.8756
       ...                                ...                  ...
        60                          0.2751268               7.4866
      -------------------------------------------------------------
                  HL-Gap            0.4047609 Eh           11.0141 eV
             Fermi-level           -0.1874207 Eh           -5.1000 eV

 SCC (total)                   0 d,  0 h,  0 min,  0.069 sec
 SCC setup                      ...        0 min,  0.008 sec ( 11.594%)
 Dispersion                     ...        0 min,  0.001 sec (  1.449%)
 classical contributions        ...        0 min,  0.002 sec (  2.899%)
 integral evaluation            ...        0 min,  0.007 sec ( 10.145%)
 iterations                     ...        0 min,  0.039 sec ( 56.522%)
 molecular gradient             ...        0 min,  0.010 sec ( 14.493%)
 printout                       ...        0 min,  0.002 sec (  2.899%)

         :::::::::::::::::::::::::::::::::::::::::::::::::::::
         ::                     SUMMARY                     ::
         :::::::::::::::::::::::::::::::::::::::::::::::::::::
         :: total energy             -33.697885125522 Eh    ::
         :: gradient norm              0.057065510479 Eh/a0 ::
         :: HOMO-LUMO gap             11.014104237771 eV    ::
         ::.................................................::
         :: SCC energy               -34.074493275911 Eh    ::
         :: -> isotropic ES            0.028010726158 Eh    ::
         :: -> anisotropic ES          0.007131356615 Eh    ::
         :: -> anisotropic XC          0.013225023237 Eh    ::
         :: -> dispersion             -0.025220314358 Eh    ::
         :: repulsion energy           0.376608150388 Eh    ::
         :: add. restraining           0.000000000000 Eh    ::
         :: total charge              -0.000000000000 e     ::
         :::::::::::::::::::::::::::::::::::::::::::::::::::::


Property printout bound to 'properties.out'

           -------------------------------------------------
          | TOTAL ENERGY              -33.697885125522 Eh   |
          | GRADIENT NORM               0.057065510479 Eh/ﾎｱ |
          | HOMO-LUMO GAP              11.014104237771 eV   |
           -------------------------------------------------

------------------------------------------------------------------------
 * finished run on 2026/09/06 at 20:56:18.788     
------------------------------------------------------------------------
 total:
 * wall-time:     0 d,  0 h,  0 min,  0.192 sec
 *  cpu-time:     0 d,  0 h,  0 min,  0.453 sec
 * ratio c/w:     2.360 speedup
 SCF:
 * wall-time:     0 d,  0 h,  0 min,  0.073 sec
 *  cpu-time:     0 d,  0 h,  0 min,  0.203 sec
 * ratio c/w:     2.783 speedup


-------------------------   --------------------
FINAL SINGLE POINT ENERGY       -33.697885125520
-------------------------   --------------------


-------------
DIPOLE MOMENT
-------------
                                X             Y             Z
Total Dipole Moment    :     -0.22200      -0.45600      -0.50500
                        -----------------------------------------
Magnitude (a.u.)       :      0.71571
Magnitude (Debye)      :      1.81920


------------------
CARTESIAN GRADIENT
------------------

   1   O   :   -0.015493284    0.005185904    0.013093927
   2   C   :    0.011336219    0.004997072    0.001911959
   3   C   :    0.002565760    0.003737929    0.000076801
   4   C   :    0.000993234   -0.002623121    0.000235831
   5   C   :    0.000776803    0.001314500    0.001401972
   6   C   :   -0.000160884    0.001078178   -0.002595098
   7   C   :    0.002171413   -0.001130503    0.000326392
   8   C   :   -0.001871741    0.001676777    0.002955137
   9   C   :    0.001408739    0.001315207   -0.001544395
  10   C   :    0.001387214   -0.002560739   -0.003913030
  11   C   :    0.003633182    0.000315098    0.002695314
  12   H   :    0.012628230   -0.008510042   -0.016272384
  13   H   :    0.004274090   -0.005325173    0.010522839
  14   H   :    0.006407850   -0.005428632   -0.006966076
  15   H   :    0.000170322   -0.009769513    0.000679432
  16   H   :   -0.010717315   -0.005094149   -0.002291756
  17   H   :    0.006491909   -0.004581232   -0.008634836
  18   H   :   -0.003663413    0.002525634   -0.008725519
  19   H   :   -0.011304122   -0.003562715   -0.001465856
  20   H   :   -0.001510619    0.011958321   -0.000902170
  21   H   :   -0.006655356    0.003348730    0.007090566
  22   H   :   -0.010903335   -0.004850685   -0.000480782
  23   H   :    0.003351425   -0.003638312    0.011027553
  24   H   :    0.002489619   -0.002416691    0.012574320
  25   H   :   -0.002258827    0.012812800    0.000923979
  26   H   :   -0.001176653    0.012160001   -0.002850527
  27   H   :    0.005629541   -0.002934644   -0.008873592

Difference to translation invariance:
           :   -0.0000000000   -0.0000000000   -0.0000000000

Difference to rotation invariance:
           :    0.0000001157   -0.0000003698    0.0000002819

Norm of the Cartesian gradient     ...    0.0570655105
RMS gradient                       ...    0.0063406123
MAX gradient                       ...    0.0162723840
------------------------------------------------------------------------------
                         ORCA GEOMETRY RELAXATION STEP
------------------------------------------------------------------------------

Reading the OPT-File                    .... done
Getting information on internals        .... done
Copying old internal coords+grads       .... done
Making the new internal coordinates     .... (2022 redundants) done
Validating the new internal coordinates .... (2022 redundants) done
Calculating the B-matrix                .... done
Calculating the G,G- and P matrices     .... done
Transforming gradient to internals      .... done
Projecting the internal gradient        .... done
Number of atoms                         ....  27
Number of internal coordinates          .... 165
Current Energy                          ....   -33.697885126 Eh
Current gradient norm                   ....     0.057065510 Eh/bohr
Maximum allowed component of the step   ....  0.300
Current trust radius                    ....  0.300
Evaluating the initial hessian          ....  (Almloef) done
Projecting the Hessian                  .... done
Forming the augmented Hessian           .... done
Diagonalizing the augmented Hessian     .... done
Last element of RFO vector              ....  0.983069072
Lowest eigenvalues of augmented Hessian:
 -0.012039873  0.022046157  0.026373700  0.026657942  0.027166931
Length of the computed step             ....  0.186391143
The final length of the internal step   ....  0.186391143
Converting the step to Cartesian space:
 Initial RMS(Int)=    0.0145105308
Transforming coordinates:
 Iter   0:  RMS(Cart)=    0.0335849924 RMS(Int)=    1.0936507138
done
Storing new coordinates                 .... done

                                .--------------------.
          ----------------------|Geometry convergence|-------------------------
          Item                value                   Tolerance       Converged
          ---------------------------------------------------------------------
          RMS gradient        0.0051156535            0.0001000000      NO
          MAX gradient        0.0222689120            0.0003000000      NO
          RMS step            0.0145105308            0.0020000000      NO
          MAX step            0.0471330453            0.0040000000      NO
          -------------------------------------------------------------------------
          ........................................................
          Max(Bonds)      0.0249      Max(Angles)    0.82
          Max(Dihed)        0.84      Max(Improp)    0.00
          ---------------------------------------------------------------------

The optimization has not yet converged - more geometry cycles are needed


    ---------------------------------------------------------------------------
                         Redundant Internal Coordinates
                            (Angstroem and degrees)

        Definition                    Value    dE/dq     Step     New-Value
    ----------------------------------------------------------------------------
     1. B(C   1,O   0)                1.4063 -0.004344  0.0043    1.4106   
     2. B(C   2,C   1)                1.5524  0.011590 -0.0172    1.5352   
     3. B(C   3,C   2)                1.5451  0.011574 -0.0163    1.5288   
     4. B(C   4,C   3)                1.5453  0.012287 -0.0174    1.5279   
     5. B(C   5,C   4)                1.5453  0.012284 -0.0174    1.5279   
     6. B(C   6,C   5)                1.5446  0.011775 -0.0173    1.5273   
     7. B(C   7,C   6)                1.5446  0.011574 -0.0169    1.5277   
     8. B(C   8,C   7)                1.5446  0.011411 -0.0169    1.5277   
     9. B(C   8,C   3)                1.5446  0.011931 -0.0173    1.5272   
    10. B(C   9,C   7)                1.5451  0.010520 -0.0163    1.5288   
    11. B(C   9,C   1)                1.5484  0.014182 -0.0205    1.5280   
    12. B(C  10,C   5)                1.5451  0.011652 -0.0163    1.5288   
    13. B(C  10,C   1)                1.5524  0.011421 -0.0172    1.5352   
    14. B(H  11,O   0)                0.9931  0.022269 -0.0249    0.9682   
    15. B(H  12,C   2)                1.1124  0.012380 -0.0191    1.0934   
    16. B(H  13,C   2)                1.1125  0.010804 -0.0166    1.0958   
    17. B(H  14,C   3)                1.1117  0.009792 -0.0150    1.0966   
    18. B(H  15,C   4)                1.1122  0.012061 -0.0186    1.0937   
    19. B(H  16,C   4)                1.1122  0.011719 -0.0180    1.0942   
    20. B(H  17,C   5)                1.1117  0.009792 -0.0150    1.0966   
    21. B(H  18,C   6)                1.1122  0.011915 -0.0183    1.0939   
    22. B(H  19,C   6)                1.1122  0.012061 -0.0186    1.0937   
    23. B(H  20,C   7)                1.1117  0.010269 -0.0158    1.0959   
    24. B(H  21,C   8)                1.1122  0.011915 -0.0183    1.0939   
    25. B(H  22,C   8)                1.1122  0.012060 -0.0186    1.0937   
    26. B(H  23,C   9)                1.1126  0.012837 -0.0198    1.0928   
    27. B(H  24,C   9)                1.1126  0.012836 -0.0198    1.0928   
    28. B(H  25,C  10)                1.1124  0.012381 -0.0191    1.0934   
    29. B(H  26,C  10)                1.1125  0.010804 -0.0166    1.0958   
    30. A(C   1,O   0,H  11)          107.70 -0.001657    0.26    107.96   
    31. A(O   0,C   1,C  10)          110.44 -0.001498    0.52    110.96   
    32. A(C   2,C   1,C   9)          108.91 -0.000450    0.05    108.96   
    33. A(C   9,C   1,C  10)          108.91 -0.000322    0.04    108.95   
    34. A(O   0,C   1,C   9)          108.75  0.002441   -0.82    107.93   
    35. A(C   2,C   1,C  10)          109.36  0.001488   -0.34    109.03   
    36. A(O   0,C   1,C   2)          110.44 -0.001633    0.53    110.97   
    37. A(C   3,C   2,H  13)          109.54 -0.001109    0.21    109.75   
    38. A(C   1,C   2,H  12)          110.07  0.001820   -0.50    109.57   
    39. A(C   1,C   2,H  13)          110.24  0.001178   -0.30    109.94   
    40. A(H  12,C   2,H  13)          107.33 -0.000541    0.26    107.58   
    41. A(C   1,C   2,C   3)          109.78 -0.000757    0.16    109.93   
    42. A(C   3,C   2,H  12)          109.86 -0.000595    0.18    110.04   
    43. A(C   2,C   3,H  14)          109.51 -0.000215   -0.03    109.48   
    44. A(C   4,C   3,H  14)          109.51  0.000274   -0.02    109.49   
    45. A(C   4,C   3,C   8)          109.44 -0.000454    0.05    109.48   
    46. A(C   8,C   3,H  14)          109.50 -0.000120    0.01    109.51   
    47. A(C   2,C   3,C   4)          109.46 -0.000276    0.05    109.50   
    48. A(C   2,C   3,C   8)          109.42  0.000791   -0.06    109.37   
    49. A(C   3,C   4,H  15)          109.94 -0.000014   -0.03    109.91   
    50. A(C   3,C   4,C   5)          109.68  0.000440   -0.13    109.55   
    51. A(H  15,C   4,H  16)          107.31 -0.000580    0.22    107.53   
    52. A(C   5,C   4,H  16)          109.98  0.000285   -0.02    109.95   
    53. A(C   3,C   4,H  16)          109.98 -0.000086   -0.02    109.96   
    54. A(C   5,C   4,H  15)          109.94 -0.000066   -0.02    109.92   
    55. A(C   6,C   5,C  10)          109.42  0.000671   -0.03    109.39   
    56. A(C   4,C   5,C  10)          109.46 -0.000134    0.02    109.48   
    57. A(C   4,C   5,C   6)          109.44 -0.000577    0.05    109.49   
    58. A(C  10,C   5,H  17)          109.51 -0.000178   -0.04    109.46   
    59. A(C   6,C   5,H  17)          109.50 -0.000098    0.02    109.52   
    60. A(C   4,C   5,H  17)          109.51  0.000316   -0.02    109.49   
    61. A(C   5,C   6,C   7)          109.57  0.000329   -0.13    109.44   
    62. A(H  18,C   6,H  19)          107.33 -0.000594    0.25    107.58   
    63. A(C   7,C   6,H  19)          109.98  0.000439   -0.05    109.93   
    64. A(C   5,C   6,H  19)          109.98 -0.000102   -0.05    109.94   
    65. A(C   7,C   6,H  18)          109.97 -0.000338    0.02    109.99   
    66. A(C   5,C   6,H  18)          109.97  0.000250   -0.04    109.93   
    67. A(C   8,C   7,C   9)          109.42 -0.000419    0.13    109.55   
    68. A(C   6,C   7,C   9)          109.42 -0.000543    0.12    109.55   
    69. A(C   9,C   7,H  20)          109.52  0.000704   -0.21    109.31   
    70. A(C   8,C   7,H  20)          109.51  0.000029   -0.02    109.48   
    71. A(C   6,C   7,H  20)          109.51 -0.000181   -0.01    109.49   
    72. A(C   6,C   7,C   8)          109.45  0.000409   -0.01    109.44   
    73. A(C   7,C   8,H  22)          109.98  0.000521   -0.06    109.93   
    74. A(C   3,C   8,H  22)          109.98  0.000581   -0.07    109.92   
    75. A(C   7,C   8,H  21)          109.97 -0.000246    0.02    109.99   
    76. A(H  21,C   8,H  22)          107.33 -0.001134    0.26    107.59   
    77. A(C   3,C   8,H  21)          109.97  0.000108   -0.03    109.94   
    78. A(C   3,C   8,C   7)          109.57  0.000152   -0.12    109.45   
    79. A(H  23,C   9,H  24)          107.24 -0.001192    0.24    107.48   
    80. A(C   1,C   9,C   7)          109.99  0.000468   -0.03    109.96   
    81. A(C   7,C   9,H  24)          109.74 -0.002224    0.40    110.13   
    82. A(C   1,C   9,H  24)          110.05  0.003052   -0.52    109.53   
    83. A(C   7,C   9,H  23)          109.74 -0.001442    0.39    110.13   
    84. A(C   1,C   9,H  23)          110.05  0.001280   -0.47    109.58   
    85. A(H  25,C  10,H  26)          107.33 -0.001280    0.27    107.59   
    86. A(C   5,C  10,H  26)          109.54 -0.001034    0.20    109.74   
    87. A(C   1,C  10,H  26)          110.24  0.002028   -0.34    109.90   
    88. A(C   5,C  10,H  25)          109.86 -0.000490    0.19    110.05   
    89. A(C   1,C  10,H  25)          110.07  0.001567   -0.48    109.59   
    90. A(C   1,C  10,C   5)          109.78 -0.000803    0.17    109.94   
    91. D(C   9,C   1,O   0,H  11)    180.00 -0.000079    0.01    180.01   
    92. D(C   2,C   1,O   0,H  11)     60.55 -0.000060    0.13     60.68   
    93. D(C  10,C   1,O   0,H  11)    -60.55  0.000139   -0.14    -60.69   
    94. D(C   3,C   2,C   1,C   9)     59.67 -0.000219   -0.13     59.54   
    95. D(H  12,C   2,C   1,C   9)    -61.38 -0.000158   -0.14    -61.51   
    96. D(C   3,C   2,C   1,C  10)    -59.24 -0.000434   -0.01    -59.25   
    97. D(H  12,C   2,C   1,C  10)    179.72 -0.000373   -0.02    179.70   
    98. D(C   3,C   2,C   1,O   0)    179.02  0.001509   -0.77    178.24   
    99. D(H  12,C   2,C   1,O   0)     57.98  0.001571   -0.79     57.19   
   100. D(C   8,C   3,C   2,H  12)     61.01  0.001140   -0.31     60.70   
   101. D(C   4,C   3,C   2,H  13)    -61.42 -0.000768    0.29    -61.13   
   102. D(C   4,C   3,C   2,C   1)     59.76 -0.000495    0.15     59.90   
   103. D(C   8,C   3,C   2,H  13)    178.66 -0.000527    0.24    178.90   
   104. D(C   4,C   3,C   2,H  12)   -179.07  0.000899   -0.25   -179.32   
   105. D(C   8,C   3,C   2,C   1)    -60.16 -0.000253    0.09    -60.07   
   106. D(H  15,C   4,C   3,H  14)     58.79 -0.000207    0.24     59.03   
   107. D(H  15,C   4,C   3,C   8)    -61.24  0.000051    0.20    -61.04   
   108. D(H  15,C   4,C   3,C   2)    178.85 -0.000471    0.22    179.06   
   109. D(C   5,C   4,C   3,C   8)     59.75  0.000241    0.09     59.84   
   110. D(C   5,C   4,C   3,H  14)    179.78 -0.000017    0.12    179.90   
   111. D(C   5,C   4,C   3,C   2)    -60.16 -0.000281    0.10    -60.06   
   112. D(C  10,C   5,C   4,H  16)    -60.90 -0.000114    0.03    -60.87   
   113. D(C  10,C   5,C   4,H  15)   -178.85  0.000464   -0.21   -179.06   
   114. D(C   6,C   5,C   4,H  16)    179.19 -0.000501    0.02    179.21   
   115. D(C   6,C   5,C   4,H  15)     61.24  0.000077   -0.22     61.02   
   116. D(C   6,C   5,C   4,C   3)    -59.75 -0.000145   -0.10    -59.85   
   117. D(C  10,C   5,C   4,C   3)     60.16  0.000242   -0.09     60.07   
   118. D(C   7,C   6,C   5,H  17)    179.88 -0.000404    0.16    180.04   
   119. D(C   7,C   6,C   5,C   4)     59.85 -0.000378    0.14     59.98   
   120. D(C   7,C   6,C   5,C  10)    -60.09 -0.000271    0.10    -59.99   
   121. D(H  18,C   6,C   5,C   4)    -61.15 -0.000327    0.22    -60.93   
   122. D(H  18,C   6,C   5,H  17)     58.89 -0.000354    0.24     59.13   
   123. D(H  18,C   6,C   5,C  10)    178.92 -0.000221    0.19    179.10   
   124. D(C   9,C   7,C   6,H  18)   -179.12 -0.000126   -0.03   -179.15   
   125. D(C   8,C   7,C   6,H  19)    178.98 -0.000199    0.03    179.01   
   126. D(C   8,C   7,C   6,H  18)     60.98  0.000468   -0.26     60.73   
   127. D(C   8,C   7,C   6,C   5)    -60.01  0.000163   -0.14    -60.15   
   128. D(C   9,C   7,C   6,H  19)    -61.13 -0.000793    0.26    -60.87   
   129. D(C   9,C   7,C   6,C   5)     59.89 -0.000431    0.09     59.98   
   130. D(H  21,C   8,C   7,H  20)     59.07 -0.000278    0.20     59.27   
   131. D(H  21,C   8,C   7,C   9)    179.12  0.000346    0.01    179.13   
   132. D(H  21,C   8,C   7,C   6)    -60.98 -0.000325    0.23    -60.75   
   133. D(C   3,C   8,C   7,H  20)   -179.94 -0.000203    0.10   -179.84   
   134. D(C   3,C   8,C   7,C   9)    -59.89  0.000421   -0.09    -59.98   
   135. D(C   3,C   8,C   7,C   6)     60.01 -0.000250    0.14     60.15   
   136. D(H  21,C   8,C   3,H  14)    -58.89  0.000199   -0.21    -59.09   
   137. D(H  21,C   8,C   3,C   4)     61.15  0.000183   -0.19     60.96   
   138. D(H  21,C   8,C   3,C   2)   -178.92  0.000051   -0.14   -179.06   
   139. D(C   7,C   8,C   3,H  14)   -179.88  0.000339   -0.14   -180.02   
   140. D(C   7,C   8,C   3,C   4)    -59.85  0.000322   -0.12    -59.97   
   141. D(C   7,C   8,C   3,C   2)     60.09  0.000190   -0.07     60.01   
   142. D(H  23,C   9,C   7,C   8)    -61.25 -0.000897    0.39    -60.86   
   143. D(H  23,C   9,C   7,C   6)    178.84 -0.000811    0.25    179.09   
   144. D(C   1,C   9,C   7,H  20)   -180.00  0.000275   -0.03   -180.03   
   145. D(C   1,C   9,C   7,C   8)     59.96  0.000065    0.05     60.00   
   146. D(C   1,C   9,C   7,C   6)    -59.96  0.000151   -0.09    -60.05   
   147. D(H  23,C   9,C   1,C  10)   -179.39  0.000011    0.01   -179.38   
   148. D(H  23,C   9,C   1,C   2)     61.42 -0.001335    0.36     61.78   
   149. D(H  23,C   9,C   1,O   0)    -58.98 -0.000542    0.17    -58.81   
   150. D(C   7,C   9,C   1,C  10)     59.60  0.000680   -0.16     59.44   
   151. D(C   7,C   9,C   1,C   2)    -59.60 -0.000667    0.19    -59.41   
   152. D(H  23,C   9,C   7,H  20)     58.80 -0.000687    0.32     59.11   
   153. D(C   7,C   9,C   1,O   0)    180.00  0.000126    0.00    180.00   
   154. D(H  25,C  10,C   5,C   6)    -61.01 -0.000843    0.25    -60.76   
   155. D(H  25,C  10,C   5,C   4)    179.07 -0.000465    0.19    179.26   
   156. D(C   1,C  10,C   5,H  17)   -179.81  0.000456   -0.14   -179.96   
   157. D(C   1,C  10,C   5,C   6)     60.16  0.000274   -0.13     60.04   
   158. D(C   1,C  10,C   5,C   4)    -59.76  0.000651   -0.18    -59.94   
   159. D(H  25,C  10,C   1,C   9)     61.38  0.000021    0.18     61.55   
   160. D(H  25,C  10,C   1,C   2)   -179.72  0.000157    0.07   -179.65   
   161. D(H  25,C  10,C   1,O   0)    -57.98 -0.001868    0.84    -57.14   
   162. D(C   5,C  10,C   1,C   9)    -59.67  0.000144    0.14    -59.52   
   163. D(C   5,C  10,C   1,C   2)     59.24  0.000280    0.04     59.28   
   164. D(H  25,C  10,C   5,H  17)     59.01 -0.000661    0.23     59.24   
   165. D(C   5,C  10,C   1,O   0)   -179.02 -0.001744    0.81   -178.21   
    ----------------------------------------------------------------------------

Geometry step timings:
Preparation and reading OPT file:      0.000 s ( 0.000 %)
Internal coordinates            :      0.000 s ( 0.000 %)
B/P matrices and projection     :      0.003 s (23.077 %)
Hessian update/contruction      :      0.004 s (30.769 %)
Making the step                 :      0.002 s (15.385 %)
Converting the step to Cartesian:      0.000 s ( 0.000 %)
Storing new data                :      0.001 s ( 7.692 %)
Checking convergence            :      0.000 s ( 0.000 %)
Final printing                  :      0.003 s (23.077 %)
Total time                      :      0.013 s

Time for energy+gradient        :      0.268 s
Time for complete geometry iter :      0.311 s

         *************************************************************
         *                GEOMETRY OPTIMIZATION CYCLE   2            *
         *************************************************************
---------------------------------
CARTESIAN COORDINATES (ANGSTROEM)
---------------------------------
  O     2.559836    1.108271    0.405568
  C     1.281853    0.549239    0.195802
  C     1.329151   -0.982055    0.294210
  C    -0.073741   -1.559989    0.106767
  C    -0.611619   -1.158524   -1.265814
  C    -0.673889    0.364836   -1.364988
  C    -1.595761    0.909071   -0.275672
  C    -1.053924    0.509291    1.095571
  C    -0.995942   -1.014089    1.194888
  C     0.349164    1.087816    1.279624
  C     0.728247    0.945450   -1.180205
  H     3.151150    0.767357   -0.281055
  H     1.727520   -1.274286    1.269601
  H     2.000996   -1.385138   -0.471947
  H    -0.031133   -2.653523    0.177427
  H    -1.608804   -1.582628   -1.413691
  H     0.036157   -1.557739   -2.052116
  H    -1.061293    0.651764   -2.349983
  H    -2.606029    0.511357   -0.409097
  H    -1.657268    1.998545   -0.349137
  H    -1.713307    0.901772    1.877996
  H    -1.999058   -1.434897    1.079562
  H    -0.624996   -1.309497    2.180418
  H     0.739723    0.820878    2.264730
  H     0.316388    2.178723    1.224183
  H     0.696459    2.035260   -1.262590
  H     1.390119    0.572734   -1.970050

----------------------------
CARTESIAN COORDINATES (A.U.)
----------------------------
  NO LB    ZA    FRAG    MASS        X           Y           Z
   0 O   8.0000    0    15.999    4.837389    2.094329    0.766412
   1 C   6.0000    0    12.011    2.422351    1.037912    0.370011
   2 C   6.0000    0    12.011    2.511732   -1.855816    0.555977
   3 C   6.0000    0    12.011   -0.139351   -2.947952    0.201760
   4 C   6.0000    0    12.011   -1.155792   -2.189292   -2.392043
   5 C   6.0000    0    12.011   -1.273465    0.689440   -2.579454
   6 C   6.0000    0    12.011   -3.015551    1.717895   -0.520944
   7 C   6.0000    0    12.011   -1.991628    0.962421    2.070330
   8 C   6.0000    0    12.011   -1.882057   -1.916351    2.258011
   9 C   6.0000    0    12.011    0.659824    2.055674    2.418139
  10 C   6.0000    0    12.011    1.376188    1.786641   -2.230264
  11 H   1.0000    0     1.008    5.954810    1.450096   -0.531117
  12 H   1.0000    0     1.008    3.264541   -2.408051    2.399197
  13 H   1.0000    0     1.008    3.781334   -2.617531   -0.891851
  14 H   1.0000    0     1.008   -0.058832   -5.014431    0.335288
  15 H   1.0000    0     1.008   -3.040199   -2.990734   -2.671489
  16 H   1.0000    0     1.008    0.068327   -2.943700   -3.877938
  17 H   1.0000    0     1.008   -2.005553    1.231655   -4.440824
  18 H   1.0000    0     1.008   -4.924681    0.966325   -0.773081
  19 H   1.0000    0     1.008   -3.131782    3.776703   -0.659774
  20 H   1.0000    0     1.008   -3.237680    1.704101    3.548899
  21 H   1.0000    0     1.008   -3.777671   -2.711562    2.040077
  22 H   1.0000    0     1.008   -1.181071   -2.474590    4.120392
  23 H   1.0000    0     1.008    1.397875    1.551235    4.279719
  24 H   1.0000    0     1.008    0.597886    4.117190    2.313370
  25 H   1.0000    0     1.008    1.316117    3.846083   -2.385950
  26 H   1.0000    0     1.008    2.626945    1.082310   -3.722855

      -----------------------------------------------------------      
     |                   =====================                   |     
     |                           x T B                           |     
     |                   =====================                   |     
     |                         S. Grimme                         |     
     |          Mulliken Center for Theoretical Chemistry        |     
     |                    University of Bonn                     |     
      -----------------------------------------------------------      

   * xtb version 6.7.1pre (5071a88) compiled by 'Marcel@Raven' on 2024-07-23

   xtb is free software: you can redistribute it and/or modify it under
   the terms of the GNU Lesser General Public License as published by
   the Free Software Foundation, either version 3 of the License, or
   (at your option) any later version.
   
   xtb is distributed in the hope that it will be useful,
   but WITHOUT ANY WARRANTY; without even the implied warranty of
   MERCHANTABILITY or FITNESS FOR A PARTICULAR PURPOSE.  See the
   GNU Lesser General Public License for more details.
   
   Cite this work as:
   * C. Bannwarth, E. Caldeweyher, S. Ehlert, A. Hansen, P. Pracht,
     J. Seibert, S. Spicher, S. Grimme, WIREs Comput. Mol. Sci., 2020, 11,
     e01493. DOI: 10.1002/wcms.1493
   
   for GFN2-xTB:
   * C. Bannwarth, S. Ehlert and S. Grimme., J. Chem. Theory Comput., 2019,
     15, 1652-1671. DOI: 10.1021/acs.jctc.8b01176
   for GFN1-xTB:
   * S. Grimme, C. Bannwarth, P. Shushkov, J. Chem. Theory Comput., 2017,
     13, 1989-2009. DOI: 10.1021/acs.jctc.7b00118
   for GFN0-xTB:
   * P. Pracht, E. Caldeweyher, S. Ehlert, S. Grimme, ChemRxiv, 2019, preprint.
     DOI: 10.26434/chemrxiv.8326202.v1
   for GFN-FF:
   * S. Spicher and S. Grimme, Angew. Chem. Int. Ed., 2020, 59, 15665-15673.
     DOI: 10.1002/anie.202004239
   
   for ALPB and GBSA implicit solvation:
   * S. Ehlert, M. Stahn, S. Spicher, S. Grimme, J. Chem. Theory Comput.,
     2021, 17, 4250-4261. DOI: 10.1021/acs.jctc.1c00471
   
   for ddCOSMO and CPCM-X implicit solvation:
   * M. Stahn, S. Ehlert, S. Grimme, J. Phys. Chem. A,
     2023, XX, XXXX-XXXX. DOI: 10.1021/acs.jpca.3c04382
   
   for DFT-D4:
   * E. Caldeweyher, C. Bannwarth and S. Grimme, J. Chem. Phys., 2017,
     147, 034112. DOI: 10.1063/1.4993215
   * E. Caldeweyher, S. Ehlert, A. Hansen, H. Neugebauer, S. Spicher,
     C. Bannwarth and S. Grimme, J. Chem. Phys., 2019, 150, 154122.
     DOI: 10.1063/1.5090222
   * E. Caldeweyher, J.-M. Mewes, S. Ehlert and S. Grimme, Phys. Chem. Chem. Phys.
     2020, 22, 8499-8512. DOI: 10.1039/D0CP00502A
   
   for sTDA-xTB:
   * S. Grimme and C. Bannwarth, J. Chem. Phys., 2016, 145, 054103.
     DOI: 10.1063/1.4959605
   
   in the mass-spec context:
   * V. Asgeirsson, C. Bauer and S. Grimme, Chem. Sci., 2017, 8, 4879.
     DOI: 10.1039/c7sc00601b
   * J. Koopman and S. Grimme, ACS Omega 2019, 4, 12, 15120-15133.
     DOI: 10.1021/acsomega.9b02011
   
   for metadynamics refer to:
   * S. Grimme, J. Chem. Theory Comput., 2019, 155, 2847-2862
     DOI: 10.1021/acs.jctc.9b00143
   
   for SPH calculations refer to:
   * S. Spicher and S. Grimme, J. Chem. Theory Comput., 2021, 17, 1701-1714
     DOI: 10.1021/acs.jctc.0c01306
   
   for ONIOM refer to:
   * C. Plett, A. Katbashev, S. Ehlert, S. Grimme, M. Bursch,
     Phys. Chem. Chem. Phys., 2023, 25, 17860-17868. DOI: 10.1039/D3CP02178E
   
   for DIPRO refer to:
   * J. Kohn, N. Gildemeister, S. Grimme, D. Fazzi, A. Hansen,
     J. Chem. Phys., 2023, just accepted.
   
   for PTB refer to:
   * S. Grimme, M. Mueller, A. Hansen, J. Chem. Phys., 2023, 158, 124111.
     DOI: 10.1063/5.0137838
   
   with help from (in alphabetical order)
   P. Atkinson, C. Bannwarth, F. Bohle, G. Brandenburg, E. Caldeweyher
   M. Checinski, S. Dohm, S. Ehlert, S. Ehrlich, I. Gerasimov, C. Hﾃｶlzer
   A. Katbashev, J. Kohn, J. Koopman, C. Lavigne, S. Lehtola, F. Mﾃ､rz, M. Mﾃｼller,
   F. Musil, H. Neugebauer, J. Pisarek, C. Plett, P. Pracht, F. Pultar,
   J. Seibert, P. Shushkov, S. Spicher, M. Stahn, M. Steiner, T. Strunk,
   J. Stﾃｼckrath, T. Rose, and J. Unsleber
   
 * started run on 2026/09/06 at 20:56:18.889     
   ID    Z sym.   atoms
    1    8 O      1
    2    6 C      2-11
    3    1 H      12-27

           -------------------------------------------------
          |                Calculation Setup                |
           -------------------------------------------------

          program call               : C:\ORCA_6.1.1\xtb-6.7.1pre\xtb.exe  Admantan-1-ol_XTB2_XTB.xyz --grad -c 0 -u 0 -P 4 --namespace Admantan-1-ol_XTB2 --input Admantan-1-ol_XTB2_XTB.input.tmp --acc 0.200000      
          calculation namespace      : Admantan-1-ol_XTB2
          coordinate file            : Admantan-1-ol_XTB2_XTB.xyz
          omp threads                :                     4


           -------------------------------------------------
          |                 G F N 2 - x T B                 |
           -------------------------------------------------

        Reference                      10.1021/acs.jctc.8b01176
      * Hamiltonian:
        H0-scaling (s, p, d)           1.850000    2.230000    2.230000
        zeta-weighting                 0.500000
      * Dispersion:
        s8                             2.700000
        a1                             0.520000
        a2                             5.000000
        s9                             5.000000
      * Repulsion:
        kExp                           1.500000    1.000000
        rExp                           1.000000
      * Coulomb:
        alpha                          2.000000
        third order                    shell-resolved
        anisotropic                    true
        a3                             3.000000
        a5                             4.000000
        cn-shift                       1.200000
        cn-exp                         4.000000
        max-rad                        5.000000

q/qsh data taken from xtbrestart
CAMM data taken from xtbrestart

          ...................................................
          :                      SETUP                      :
          :.................................................:
          :  # basis functions                  60          :
          :  # atomic orbitals                  60          :
          :  # shells                           38          :
          :  # electrons                        62          :
          :  max. iterations                   250          :
          :  Hamiltonian                  GFN2-xTB          :
          :  restarted?                       true          :
          :  GBSA solvation                  false          :
          :  PC potential                    false          :
          :  electronic temp.          300.0000000     K    :
          :  accuracy                    0.2000000          :
          :  -> integral cutoff          0.3198970E+02      :
          :  -> integral neglect         0.2000000E-08      :
          :  -> SCF convergence          0.2000000E-06 Eh   :
          :  -> wf. convergence          0.2000000E-04 e    :
          :  Broyden damping             0.4000000          :
          :  net charge                          0          :
          :  unpaired electrons                  0          :
          ...................................................

 iter      E             dE          RMSdq      gap      omega  full diag
   1    -34.1330929 -0.341331E+02  0.183E-01   11.32       0.0  T
   2    -34.1331744 -0.815544E-04  0.960E-02   11.32       1.0  T
   3    -34.1331803 -0.588647E-05  0.309E-02   11.32       1.0  T
   4    -34.1331812 -0.921973E-06  0.740E-03   11.32       2.6  T
   5    -34.1331813 -0.784892E-07  0.285E-03   11.32       6.8  T
   6    -34.1331813 -0.259402E-07  0.111E-03   11.32      17.3  T
   7    -34.1331813 -0.390485E-08  0.240E-04   11.32      80.3  T
   8    -34.1331813 -0.126505E-09  0.128E-04   11.32     150.8  T
   9    -34.1331813 -0.419149E-10  0.200E-05   11.32     961.9  T

   *** convergence criteria satisfied after 9 iterations ***

         #    Occupation            Energy/Eh            Energy/eV
      -------------------------------------------------------------
         1        2.0000           -0.6806040             -18.5202
       ...           ...                  ...                  ...
        25        2.0000           -0.4358202             -11.8593
        26        2.0000           -0.4313609             -11.7379
        27        2.0000           -0.4291186             -11.6769
        28        2.0000           -0.4163138             -11.3285
        29        2.0000           -0.4146853             -11.2842
        30        2.0000           -0.4000675             -10.8864
        31        2.0000           -0.3894691             -10.5980 (HOMO)
        32                          0.0264274               0.7191 (LUMO)
        33                          0.0576049               1.5675
        34                          0.0630330               1.7152
        35                          0.0790863               2.1520
        36                          0.0981351               2.6704
       ...                                ...                  ...
        60                          0.3051168               8.3027
      -------------------------------------------------------------
                  HL-Gap            0.4158965 Eh           11.3171 eV
             Fermi-level           -0.1815209 Eh           -4.9394 eV

 SCC (total)                   0 d,  0 h,  0 min,  0.015 sec
 SCC setup                      ...        0 min,  0.001 sec (  6.666%)
 Dispersion                     ...        0 min,  0.000 sec (  0.000%)
 classical contributions        ...        0 min,  0.000 sec (  0.000%)
 integral evaluation            ...        0 min,  0.002 sec ( 13.334%)
 iterations                     ...        0 min,  0.008 sec ( 53.333%)
 molecular gradient             ...        0 min,  0.004 sec ( 26.667%)
 printout                       ...        0 min,  0.000 sec (  0.000%)

         :::::::::::::::::::::::::::::::::::::::::::::::::::::
         ::                     SUMMARY                     ::
         :::::::::::::::::::::::::::::::::::::::::::::::::::::
         :: total energy             -33.704414733576 Eh    ::
         :: gradient norm              0.011394218125 Eh/a0 ::
         :: HOMO-LUMO gap             11.317120710585 eV    ::
         ::.................................................::
         :: SCC energy               -34.132947206650 Eh    ::
         :: -> isotropic ES            0.028683376700 Eh    ::
         :: -> anisotropic ES          0.005705609295 Eh    ::
         :: -> anisotropic XC          0.011530289652 Eh    ::
         :: -> dispersion             -0.025480446188 Eh    ::
         :: repulsion energy           0.428532473074 Eh    ::
         :: add. restraining           0.000000000000 Eh    ::
         :: total charge              -0.000000000000 e     ::
         :::::::::::::::::::::::::::::::::::::::::::::::::::::


Property printout bound to 'properties.out'

           -------------------------------------------------
          | TOTAL ENERGY              -33.704414733576 Eh   |
          | GRADIENT NORM               0.011394218125 Eh/ﾎｱ |
          | HOMO-LUMO GAP              11.317120710585 eV   |
           -------------------------------------------------

------------------------------------------------------------------------
 * finished run on 2026/09/06 at 20:56:18.952     
------------------------------------------------------------------------
 total:
 * wall-time:     0 d,  0 h,  0 min,  0.061 sec
 *  cpu-time:     0 d,  0 h,  0 min,  0.203 sec
 * ratio c/w:     3.330 speedup
 SCF:
 * wall-time:     0 d,  0 h,  0 min,  0.015 sec
 *  cpu-time:     0 d,  0 h,  0 min,  0.062 sec
 * ratio c/w:     4.167 speedup


-------------------------   --------------------
FINAL SINGLE POINT ENERGY       -33.704414733580
-------------------------   --------------------


-------------
DIPOLE MOMENT
-------------
                                X             Y             Z
Total Dipole Moment    :     -0.22900      -0.46100      -0.51000
                        -----------------------------------------
Magnitude (a.u.)       :      0.72461
Magnitude (Debye)      :      1.84182


------------------
CARTESIAN GRADIENT
------------------

   1   O   :   -0.005330876   -0.000442081    0.001575600
   2   C   :    0.004540729    0.002477415    0.001386417
   3   C   :    0.000040340    0.002218319    0.000565695
   4   C   :    0.000059209   -0.000633500    0.000015821
   5   C   :    0.000443421    0.001288452    0.001462518
   6   C   :   -0.000206704    0.000142868   -0.000570972
   7   C   :    0.001759355   -0.001137550    0.000229684
   8   C   :   -0.000540285    0.000350277    0.000653313
   9   C   :    0.001069848    0.001040492   -0.001511740
  10   C   :    0.001919803   -0.001697871   -0.002949092
  11   C   :    0.000687144    0.000136083    0.002160511
  12   H   :    0.001510584   -0.001776361   -0.002937128
  13   H   :    0.000002516   -0.001191713    0.000441142
  14   H   :    0.000246895   -0.000986587   -0.000235357
  15   H   :   -0.000336746   -0.000494241    0.000029667
  16   H   :   -0.000589284   -0.000484958   -0.000389393
  17   H   :    0.000282865   -0.000369935   -0.000601944
  18   H   :   -0.000463611   -0.000005481   -0.000353786
  19   H   :   -0.000894688    0.000075658   -0.000138228
  20   H   :   -0.000373773    0.000758805   -0.000078716
  21   H   :   -0.000500678   -0.000050011    0.000156224
  22   H   :   -0.000728173   -0.000478128    0.000286407
  23   H   :   -0.000000396   -0.000351505    0.000755084
  24   H   :   -0.000871187    0.000074783    0.001355014
  25   H   :   -0.001084642    0.000877910    0.000661038
  26   H   :   -0.000574691    0.000636293   -0.000963626
  27   H   :   -0.000066973    0.000022569   -0.001004156

Difference to translation invariance:
           :    0.0000000000    0.0000000000    0.0000000000

Difference to rotation invariance:
           :    0.0000000578   -0.0000001839    0.0000001405

Norm of the Cartesian gradient     ...    0.0113942181
RMS gradient                       ...    0.0012660242
MAX gradient                       ...    0.0053308759
------------------------------------------------------------------------------
                         ORCA GEOMETRY RELAXATION STEP
------------------------------------------------------------------------------

Reading the OPT-File                    .... done
Getting information on internals        .... done
Copying old internal coords+grads       .... done
Making the new internal coordinates     .... (2022 redundants) done
Validating the new internal coordinates .... (2022 redundants) done
Calculating the B-matrix                .... done
Calculating the G,G- and P matrices     .... done
Transforming gradient to internals      .... done
Projecting the internal gradient        .... done
Number of atoms                         ....  27
Number of internal coordinates          .... 165
Current Energy                          ....   -33.704414734 Eh
Current gradient norm                   ....     0.011394218 Eh/bohr
Maximum allowed component of the step   ....  0.300
Current trust radius                    ....  0.300
Updating the Hessian (BFGS)             .... done
Forming the augmented Hessian           .... done
Diagonalizing the augmented Hessian     .... done
Last element of RFO vector              ....  0.999297489
Lowest eigenvalues of augmented Hessian:
 -0.000237057  0.022046157  0.026366382  0.026657893  0.027166909
Length of the computed step             ....  0.037503395
The final length of the internal step   ....  0.037503395
Converting the step to Cartesian space:
 Initial RMS(Int)=    0.0029196353
Transforming coordinates:
 Iter   0:  RMS(Cart)=    0.0063639181 RMS(Int)=    0.6914887063
done
Storing new coordinates                 .... done
The predicted energy change is          ....    -0.000118695
Previously predicted energy change      ....    -0.006229079
Actually observed energy change         ....    -0.006529608
Ratio of predicted to observed change   ....     1.048246120
New trust radius                        ....     0.450000000

                                .--------------------.
          ----------------------|Geometry convergence|-------------------------
          Item                value                   Tolerance       Converged
          ---------------------------------------------------------------------
          Energy change      -0.0065296081            0.0000050000      NO
          RMS gradient        0.0006281101            0.0001000000      NO
          MAX gradient        0.0045428222            0.0003000000      NO
          RMS step            0.0029196353            0.0020000000      NO
          MAX step            0.0093379150            0.0040000000      NO
          -------------------------------------------------------------------------
          ........................................................
          Max(Bonds)      0.0049      Max(Angles)    0.48
          Max(Dihed)        0.48      Max(Improp)    0.00
          ---------------------------------------------------------------------

The optimization has not yet converged - more geometry cycles are needed


    ---------------------------------------------------------------------------
                         Redundant Internal Coordinates
                            (Angstroem and degrees)

        Definition                    Value    dE/dq     Step     New-Value
    ----------------------------------------------------------------------------
     1. B(C   1,O   0)                1.4106 -0.004543  0.0049    1.4155   
     2. B(C   2,C   1)                1.5352  0.000573 -0.0015    1.5337   
     3. B(C   3,C   2)                1.5288  0.000455 -0.0006    1.5282   
     4. B(C   4,C   3)                1.5279  0.000102 -0.0001    1.5278   
     5. B(C   5,C   4)                1.5279  0.000101 -0.0000    1.5278   
     6. B(C   6,C   5)                1.5273 -0.000373  0.0003    1.5276   
     7. B(C   7,C   6)                1.5277 -0.000093  0.0001    1.5278   
     8. B(C   8,C   7)                1.5277 -0.000160  0.0001    1.5278   
     9. B(C   8,C   3)                1.5272 -0.000319  0.0004    1.5276   
    10. B(C   9,C   7)                1.5288  0.000127 -0.0011    1.5277   
    11. B(C   9,C   1)                1.5280  0.000239 -0.0006    1.5274   
    12. B(C  10,C   5)                1.5288  0.000493 -0.0006    1.5282   
    13. B(C  10,C   1)                1.5352  0.000491 -0.0015    1.5337   
    14. B(H  11,O   0)                0.9682  0.003631 -0.0048    0.9634   
    15. B(H  12,C   2)                1.0934  0.000713 -0.0014    1.0919   
    16. B(H  13,C   2)                1.0958  0.000679 -0.0014    1.0945   
    17. B(H  14,C   3)                1.0966  0.000482 -0.0010    1.0956   
    18. B(H  15,C   4)                1.0937  0.000778 -0.0015    1.0921   
    19. B(H  16,C   4)                1.0942  0.000735 -0.0015    1.0927   
    20. B(H  17,C   5)                1.0966  0.000480 -0.0010    1.0956   
    21. B(H  18,C   6)                1.0939  0.000816 -0.0016    1.0923   
    22. B(H  19,C   6)                1.0937  0.000782 -0.0016    1.0921   
    23. B(H  20,C   7)                1.0959  0.000395 -0.0009    1.0951   
    24. B(H  21,C   8)                1.0939  0.000821 -0.0016    1.0923   
    25. B(H  22,C   8)                1.0937  0.000775 -0.0015    1.0921   
    26. B(H  23,C   9)                1.0928  0.000892 -0.0018    1.0911   
    27. B(H  24,C   9)                1.0928  0.000875 -0.0017    1.0911   
    28. B(H  25,C  10)                1.0934  0.000724 -0.0015    1.0919   
    29. B(H  26,C  10)                1.0958  0.000676 -0.0013    1.0945   
    30. A(C   1,O   0,H  11)          107.96 -0.001715    0.30    108.26   
    31. A(O   0,C   1,C  10)          110.96 -0.000253    0.13    111.09   
    32. A(C   2,C   1,C   9)          108.96 -0.000433    0.16    109.12   
    33. A(C   9,C   1,C  10)          108.95 -0.000360    0.16    109.11   
    34. A(O   0,C   1,C   9)          107.93  0.001107   -0.48    107.45   
    35. A(C   2,C   1,C  10)          109.03  0.000251   -0.10    108.92   
    36. A(O   0,C   1,C   2)          110.97 -0.000319    0.13    111.10   
    37. A(C   3,C   2,H  13)          109.74 -0.000707    0.16    109.90   
    38. A(C   1,C   2,H  12)          109.57  0.000828   -0.26    109.32   
    39. A(C   1,C   2,H  13)          109.94  0.000522   -0.16    109.78   
    40. A(H  12,C   2,H  13)          107.58 -0.000173    0.15    107.73   
    41. A(C   1,C   2,C   3)          109.93 -0.000013   -0.07    109.87   
    42. A(C   3,C   2,H  12)          110.04 -0.000456    0.18    110.22   
    43. A(C   2,C   3,H  14)          109.48  0.000075   -0.11    109.36   
    44. A(C   4,C   3,H  14)          109.49  0.000110   -0.00    109.48   
    45. A(C   4,C   3,C   8)          109.48 -0.000237    0.02    109.50   
    46. A(C   8,C   3,H  14)          109.51 -0.000045    0.02    109.53   
    47. A(C   2,C   3,C   4)          109.50 -0.000073    0.02    109.52   
    48. A(C   2,C   3,C   8)          109.37  0.000170    0.06    109.43   
    49. A(C   3,C   4,H  15)          109.91 -0.000043   -0.01    109.90   
    50. A(C   3,C   4,C   5)          109.55  0.000359   -0.12    109.43   
    51. A(H  15,C   4,H  16)          107.53 -0.000194    0.11    107.64   
    52. A(C   5,C   4,H  16)          109.95  0.000057    0.02    109.97   
    53. A(C   3,C   4,H  16)          109.96 -0.000089    0.02    109.97   
    54. A(C   5,C   4,H  15)          109.92 -0.000102   -0.01    109.91   
    55. A(C   6,C   5,C  10)          109.39  0.000125    0.06    109.45   
    56. A(C   4,C   5,C  10)          109.48  0.000023    0.02    109.50   
    57. A(C   4,C   5,C   6)          109.49 -0.000323    0.02    109.51   
    58. A(C  10,C   5,H  17)          109.46  0.000147   -0.11    109.35   
    59. A(C   6,C   5,H  17)          109.52 -0.000063    0.02    109.54   
    60. A(C   4,C   5,H  17)          109.49  0.000091   -0.00    109.48   
    61. A(C   5,C   6,C   7)          109.44  0.000185   -0.07    109.37   
    62. A(H  18,C   6,H  19)          107.58 -0.000224    0.14    107.72   
    63. A(C   7,C   6,H  19)          109.93  0.000141   -0.00    109.93   
    64. A(C   5,C   6,H  19)          109.94 -0.000088   -0.01    109.93   
    65. A(C   7,C   6,H  18)          109.99 -0.000158   -0.02    109.97   
    66. A(C   5,C   6,H  18)          109.93  0.000136   -0.03    109.90   
    67. A(C   8,C   7,C   9)          109.55 -0.000093    0.02    109.57   
    68. A(C   6,C   7,C   9)          109.55 -0.000147    0.02    109.57   
    69. A(C   9,C   7,H  20)          109.31  0.000330   -0.12    109.20   
    70. A(C   8,C   7,H  20)          109.48 -0.000023    0.02    109.50   
    71. A(C   6,C   7,H  20)          109.50 -0.000130    0.02    109.51   
    72. A(C   6,C   7,C   8)          109.44  0.000062    0.04    109.48   
    73. A(C   7,C   8,H  22)          109.93  0.000185   -0.00    109.92   
    74. A(C   3,C   8,H  22)          109.92  0.000204   -0.01    109.91   
    75. A(C   7,C   8,H  21)          109.99 -0.000097   -0.02    109.97   
    76. A(H  21,C   8,H  22)          107.58 -0.000437    0.13    107.72   
    77. A(C   3,C   8,H  21)          109.94  0.000042   -0.03    109.92   
    78. A(C   3,C   8,C   7)          109.45  0.000097   -0.07    109.38   
    79. A(H  23,C   9,H  24)          107.48 -0.000464    0.13    107.60   
    80. A(C   1,C   9,C   7)          109.96  0.000454   -0.10    109.87   
    81. A(C   7,C   9,H  24)          110.13 -0.001358    0.29    110.42   
    82. A(C   1,C   9,H  24)          109.52  0.001589   -0.29    109.23   
    83. A(C   7,C   9,H  23)          110.13 -0.000902    0.29    110.41   
    84. A(C   1,C   9,H  23)          109.58  0.000683   -0.30    109.28   
    85. A(H  25,C  10,H  26)          107.59 -0.000530    0.15    107.74   
    86. A(C   5,C  10,H  26)          109.73 -0.000663    0.16    109.89   
    87. A(C   1,C  10,H  26)          109.90  0.000941   -0.16    109.74   
    88. A(C   5,C  10,H  25)          110.05 -0.000391    0.19    110.23   
    89. A(C   1,C  10,H  25)          109.59  0.000698   -0.26    109.33   
    90. A(C   1,C  10,C   5)          109.94 -0.000058   -0.07    109.87   
    91. D(C   9,C   1,O   0,H  11)   -179.99 -0.000043   -0.00   -179.99   
    92. D(C   2,C   1,O   0,H  11)     60.68 -0.000015    0.02     60.71   
    93. D(C  10,C   1,O   0,H  11)    -60.69  0.000057   -0.02    -60.71   
    94. D(C   3,C   2,C   1,C   9)     59.54 -0.000302   -0.05     59.49   
    95. D(H  12,C   2,C   1,C   9)    -61.51 -0.000257   -0.07    -61.58   
    96. D(C   3,C   2,C   1,C  10)    -59.25  0.000239   -0.28    -59.53   
    97. D(H  12,C   2,C   1,C  10)    179.70  0.000284   -0.30    179.40   
    98. D(C   3,C   2,C   1,O   0)    178.24  0.000595   -0.46    177.78   
    99. D(H  12,C   2,C   1,O   0)     57.19  0.000640   -0.48     56.71   
   100. D(C   8,C   3,C   2,H  12)     60.70  0.000662   -0.15     60.56   
   101. D(C   4,C   3,C   2,H  13)    -61.13 -0.000484    0.31    -60.82   
   102. D(C   4,C   3,C   2,C   1)     59.90 -0.000297    0.17     60.08   
   103. D(C   8,C   3,C   2,H  13)    178.90 -0.000253    0.24    179.14   
   104. D(C   4,C   3,C   2,H  12)   -179.32  0.000431   -0.07   -179.40   
   105. D(C   8,C   3,C   2,C   1)    -60.07 -0.000067    0.10    -59.97   
   106. D(H  15,C   4,C   3,H  14)     59.03 -0.000212    0.27     59.30   
   107. D(H  15,C   4,C   3,C   8)    -61.04 -0.000079    0.24    -60.79   
   108. D(H  15,C   4,C   3,C   2)    179.06 -0.000098    0.15    179.21   
   109. D(C   5,C   4,C   3,C   8)     59.84 -0.000004    0.15     59.99   
   110. D(C   5,C   4,C   3,H  14)    179.90 -0.000137    0.18    180.08   
   111. D(C   5,C   4,C   3,C   2)    -60.06 -0.000023    0.05    -60.01   
   112. D(C  10,C   5,C   4,H  16)    -60.87 -0.000140   -0.01    -60.88   
   113. D(C  10,C   5,C   4,H  15)   -179.06  0.000125   -0.15   -179.21   
   114. D(C   6,C   5,C   4,H  16)    179.21 -0.000109   -0.10    179.11   
   115. D(C   6,C   5,C   4,H  15)     61.02  0.000156   -0.25     60.78   
   116. D(C   6,C   5,C   4,C   3)    -59.85  0.000045   -0.15    -59.99   
   117. D(C  10,C   5,C   4,C   3)     60.07  0.000015   -0.05     60.02   
   118. D(C   7,C   6,C   5,H  17)   -179.96 -0.000295    0.10   -179.86   
   119. D(C   7,C   6,C   5,C   4)     59.98 -0.000170    0.08     60.06   
   120. D(C   7,C   6,C   5,C  10)    -59.99 -0.000077    0.01    -59.98   
   121. D(H  18,C   6,C   5,C   4)    -60.93 -0.000178    0.16    -60.76   
   122. D(H  18,C   6,C   5,H  17)     59.13 -0.000303    0.18     59.31   
   123. D(H  18,C   6,C   5,C  10)    179.10 -0.000085    0.09    179.19   
   124. D(C   9,C   7,C   6,H  18)   -179.15 -0.000033   -0.02   -179.17   
   125. D(C   8,C   7,C   6,H  19)    179.01 -0.000152    0.07    179.08   
   126. D(C   8,C   7,C   6,H  18)     60.73  0.000133   -0.09     60.64   
   127. D(C   8,C   7,C   6,C   5)    -60.15 -0.000054    0.01    -60.14   
   128. D(C   9,C   7,C   6,H  19)    -60.87 -0.000317    0.13    -60.74   
   129. D(C   9,C   7,C   6,C   5)     59.98 -0.000220    0.07     60.04   
   130. D(H  21,C   8,C   7,H  20)     59.27 -0.000198    0.15     59.41   
   131. D(H  21,C   8,C   7,C   9)    179.13  0.000135    0.02    179.15   
   132. D(H  21,C   8,C   7,C   6)    -60.75 -0.000064    0.09    -60.66   
   133. D(C   3,C   8,C   7,H  20)   -179.84 -0.000146    0.05   -179.78   
   134. D(C   3,C   8,C   7,C   9)    -59.98  0.000187   -0.07    -60.04   
   135. D(C   3,C   8,C   7,C   6)     60.15 -0.000011   -0.01     60.14   
   136. D(H  21,C   8,C   3,H  14)    -59.09  0.000183   -0.18    -59.28   
   137. D(H  21,C   8,C   3,C   4)     60.96  0.000144   -0.17     60.79   
   138. D(H  21,C   8,C   3,C   2)   -179.06  0.000014   -0.09   -179.15   
   139. D(C   7,C   8,C   3,H  14)    179.98  0.000214   -0.10    179.88   
   140. D(C   7,C   8,C   3,C   4)    -59.97  0.000176   -0.08    -60.05   
   141. D(C   7,C   8,C   3,C   2)     60.01  0.000046   -0.01     60.01   
   142. D(H  23,C   9,C   7,C   8)    -60.86 -0.000538    0.29    -60.56   
   143. D(H  23,C   9,C   7,C   6)    179.09 -0.000467    0.21    179.30   
   144. D(C   1,C   9,C   7,H  20)    179.97  0.000142    0.00    179.97   
   145. D(C   1,C   9,C   7,C   8)     60.00  0.000024    0.04     60.04   
   146. D(C   1,C   9,C   7,C   6)    -60.05  0.000095   -0.04    -60.09   
   147. D(H  23,C   9,C   1,C  10)   -179.38 -0.000462    0.13   -179.25   
   148. D(H  23,C   9,C   1,C   2)     61.78 -0.000304    0.07     61.85   
   149. D(H  23,C   9,C   1,O   0)    -58.81 -0.000322    0.10    -58.71   
   150. D(C   7,C   9,C   1,C  10)     59.44 -0.000070    0.03     59.46   
   151. D(C   7,C   9,C   1,C   2)    -59.41  0.000088   -0.03    -59.44   
   152. D(H  23,C   9,C   7,H  20)     59.11 -0.000421    0.25     59.36   
   153. D(C   7,C   9,C   1,O   0)   -180.00  0.000070   -0.00   -180.00   
   154. D(H  25,C  10,C   5,C   6)    -60.76 -0.000503    0.15    -60.62   
   155. D(H  25,C  10,C   5,C   4)    179.26 -0.000198    0.08    179.34   
   156. D(C   1,C  10,C   5,H  17)   -179.96  0.000167   -0.11   -180.06   
   157. D(C   1,C  10,C   5,C   6)     60.03  0.000078   -0.10     59.94   
   158. D(C   1,C  10,C   5,C   4)    -59.94  0.000383   -0.17    -60.11   
   159. D(H  25,C  10,C   1,C   9)     61.55  0.000179    0.07     61.62   
   160. D(H  25,C  10,C   1,C   2)   -179.65 -0.000408    0.30   -179.34   
   161. D(H  25,C  10,C   1,O   0)    -57.14 -0.000804    0.48    -56.66   
   162. D(C   5,C  10,C   1,C   9)    -59.52  0.000253    0.05    -59.47   
   163. D(C   5,C  10,C   1,C   2)     59.28 -0.000333    0.28     59.56   
   164. D(H  25,C  10,C   5,H  17)     59.24 -0.000414    0.14     59.38   
   165. D(C   5,C  10,C   1,O   0)   -178.21 -0.000729    0.46   -177.75   
    ----------------------------------------------------------------------------

Geometry step timings:
Preparation and reading OPT file:      0.007 s (36.842 %)
Internal coordinates            :      0.000 s ( 0.000 %)
B/P matrices and projection     :      0.004 s (21.053 %)
Hessian update/contruction      :      0.003 s (15.789 %)
Making the step                 :      0.002 s (10.526 %)
Converting the step to Cartesian:      0.000 s ( 0.000 %)
Storing new data                :      0.000 s ( 0.000 %)
Checking convergence            :      0.001 s ( 5.263 %)
Final printing                  :      0.002 s (10.526 %)
Total time                      :      0.019 s

Time for energy+gradient        :      0.136 s
Time for complete geometry iter :      0.176 s

         *************************************************************
         *                GEOMETRY OPTIMIZATION CYCLE   3            *
         *************************************************************
---------------------------------
CARTESIAN COORDINATES (ANGSTROEM)
---------------------------------
  O     2.557656    1.112976    0.412618
  C     1.278511    0.547303    0.194612
  C     1.327761   -0.982566    0.290597
  C    -0.075063   -1.559906    0.105789
  C    -0.615087   -1.160026   -1.266354
  C    -0.674789    0.363453   -1.364842
  C    -1.596593    0.909245   -0.275813
  C    -1.053927    0.508895    1.095061
  C    -0.996587   -1.014537    1.195257
  C     0.348156    1.087009    1.279029
  C     0.727811    0.941789   -1.181388
  H     3.154682    0.779887   -0.266136
  H     1.729217   -1.270650    1.264342
  H     1.998529   -1.380406   -0.477307
  H    -0.030560   -2.652345    0.176769
  H    -1.612270   -1.581412   -1.410563
  H     0.030179   -1.559842   -2.052378
  H    -1.060160    0.651173   -2.349299
  H    -2.605181    0.511454   -0.408565
  H    -1.656121    1.997267   -0.349361
  H    -1.711099    0.902224    1.877721
  H    -1.998446   -1.434044    1.079579
  H    -0.624476   -1.309025    2.178914
  H     0.744451    0.819401    2.259708
  H     0.321436    2.176168    1.220061
  H     0.700809    2.030446   -1.261365
  H     1.391162    0.566068   -1.966687

----------------------------
CARTESIAN COORDINATES (A.U.)
----------------------------
  NO LB    ZA    FRAG    MASS        X           Y           Z
   0 O   8.0000    0    15.999    4.833270    2.103220    0.779735
   1 C   6.0000    0    12.011    2.416036    1.034253    0.367763
   2 C   6.0000    0    12.011    2.509104   -1.856781    0.549149
   3 C   6.0000    0    12.011   -0.141848   -2.947795    0.199912
   4 C   6.0000    0    12.011   -1.162346   -2.192131   -2.393061
   5 C   6.0000    0    12.011   -1.275166    0.686826   -2.579178
   6 C   6.0000    0    12.011   -3.017123    1.718225   -0.521211
   7 C   6.0000    0    12.011   -1.991633    0.961672    2.069366
   8 C   6.0000    0    12.011   -1.883277   -1.917196    2.258709
   9 C   6.0000    0    12.011    0.657920    2.054150    2.417014
  10 C   6.0000    0    12.011    1.375363    1.779724   -2.232499
  11 H   1.0000    0     1.008    5.961484    1.473774   -0.502925
  12 H   1.0000    0     1.008    3.267746   -2.401181    2.389260
  13 H   1.0000    0     1.008    3.776672   -2.608590   -0.901979
  14 H   1.0000    0     1.008   -0.057751   -5.012206    0.334045
  15 H   1.0000    0     1.008   -3.046749   -2.988436   -2.665577
  16 H   1.0000    0     1.008    0.057029   -2.947674   -3.878433
  17 H   1.0000    0     1.008   -2.003412    1.230540   -4.439532
  18 H   1.0000    0     1.008   -4.923078    0.966508   -0.772077
  19 H   1.0000    0     1.008   -3.129614    3.774288   -0.660196
  20 H   1.0000    0     1.008   -3.233509    1.704956    3.548379
  21 H   1.0000    0     1.008   -3.776516   -2.709951    2.040109
  22 H   1.0000    0     1.008   -1.180088   -2.473699    4.117551
  23 H   1.0000    0     1.008    1.406808    1.548444    4.270230
  24 H   1.0000    0     1.008    0.607426    4.112361    2.305581
  25 H   1.0000    0     1.008    1.324337    3.836986   -2.383635
  26 H   1.0000    0     1.008    2.628915    1.069713   -3.716499

      -----------------------------------------------------------      
     |                   =====================                   |     
     |                           x T B                           |     
     |                   =====================                   |     
     |                         S. Grimme                         |     
     |          Mulliken Center for Theoretical Chemistry        |     
     |                    University of Bonn                     |     
      -----------------------------------------------------------      

   * xtb version 6.7.1pre (5071a88) compiled by 'Marcel@Raven' on 2024-07-23

   xtb is free software: you can redistribute it and/or modify it under
   the terms of the GNU Lesser General Public License as published by
   the Free Software Foundation, either version 3 of the License, or
   (at your option) any later version.
   
   xtb is distributed in the hope that it will be useful,
   but WITHOUT ANY WARRANTY; without even the implied warranty of
   MERCHANTABILITY or FITNESS FOR A PARTICULAR PURPOSE.  See the
   GNU Lesser General Public License for more details.
   
   Cite this work as:
   * C. Bannwarth, E. Caldeweyher, S. Ehlert, A. Hansen, P. Pracht,
     J. Seibert, S. Spicher, S. Grimme, WIREs Comput. Mol. Sci., 2020, 11,
     e01493. DOI: 10.1002/wcms.1493
   
   for GFN2-xTB:
   * C. Bannwarth, S. Ehlert and S. Grimme., J. Chem. Theory Comput., 2019,
     15, 1652-1671. DOI: 10.1021/acs.jctc.8b01176
   for GFN1-xTB:
   * S. Grimme, C. Bannwarth, P. Shushkov, J. Chem. Theory Comput., 2017,
     13, 1989-2009. DOI: 10.1021/acs.jctc.7b00118
   for GFN0-xTB:
   * P. Pracht, E. Caldeweyher, S. Ehlert, S. Grimme, ChemRxiv, 2019, preprint.
     DOI: 10.26434/chemrxiv.8326202.v1
   for GFN-FF:
   * S. Spicher and S. Grimme, Angew. Chem. Int. Ed., 2020, 59, 15665-15673.
     DOI: 10.1002/anie.202004239
   
   for ALPB and GBSA implicit solvation:
   * S. Ehlert, M. Stahn, S. Spicher, S. Grimme, J. Chem. Theory Comput.,
     2021, 17, 4250-4261. DOI: 10.1021/acs.jctc.1c00471
   
   for ddCOSMO and CPCM-X implicit solvation:
   * M. Stahn, S. Ehlert, S. Grimme, J. Phys. Chem. A,
     2023, XX, XXXX-XXXX. DOI: 10.1021/acs.jpca.3c04382
   
   for DFT-D4:
   * E. Caldeweyher, C. Bannwarth and S. Grimme, J. Chem. Phys., 2017,
     147, 034112. DOI: 10.1063/1.4993215
   * E. Caldeweyher, S. Ehlert, A. Hansen, H. Neugebauer, S. Spicher,
     C. Bannwarth and S. Grimme, J. Chem. Phys., 2019, 150, 154122.
     DOI: 10.1063/1.5090222
   * E. Caldeweyher, J.-M. Mewes, S. Ehlert and S. Grimme, Phys. Chem. Chem. Phys.
     2020, 22, 8499-8512. DOI: 10.1039/D0CP00502A
   
   for sTDA-xTB:
   * S. Grimme and C. Bannwarth, J. Chem. Phys., 2016, 145, 054103.
     DOI: 10.1063/1.4959605
   
   in the mass-spec context:
   * V. Asgeirsson, C. Bauer and S. Grimme, Chem. Sci., 2017, 8, 4879.
     DOI: 10.1039/c7sc00601b
   * J. Koopman and S. Grimme, ACS Omega 2019, 4, 12, 15120-15133.
     DOI: 10.1021/acsomega.9b02011
   
   for metadynamics refer to:
   * S. Grimme, J. Chem. Theory Comput., 2019, 155, 2847-2862
     DOI: 10.1021/acs.jctc.9b00143
   
   for SPH calculations refer to:
   * S. Spicher and S. Grimme, J. Chem. Theory Comput., 2021, 17, 1701-1714
     DOI: 10.1021/acs.jctc.0c01306
   
   for ONIOM refer to:
   * C. Plett, A. Katbashev, S. Ehlert, S. Grimme, M. Bursch,
     Phys. Chem. Chem. Phys., 2023, 25, 17860-17868. DOI: 10.1039/D3CP02178E
   
   for DIPRO refer to:
   * J. Kohn, N. Gildemeister, S. Grimme, D. Fazzi, A. Hansen,
     J. Chem. Phys., 2023, just accepted.
   
   for PTB refer to:
   * S. Grimme, M. Mueller, A. Hansen, J. Chem. Phys., 2023, 158, 124111.
     DOI: 10.1063/5.0137838
   
   with help from (in alphabetical order)
   P. Atkinson, C. Bannwarth, F. Bohle, G. Brandenburg, E. Caldeweyher
   M. Checinski, S. Dohm, S. Ehlert, S. Ehrlich, I. Gerasimov, C. Hﾃｶlzer
   A. Katbashev, J. Kohn, J. Koopman, C. Lavigne, S. Lehtola, F. Mﾃ､rz, M. Mﾃｼller,
   F. Musil, H. Neugebauer, J. Pisarek, C. Plett, P. Pracht, F. Pultar,
   J. Seibert, P. Shushkov, S. Spicher, M. Stahn, M. Steiner, T. Strunk,
   J. Stﾃｼckrath, T. Rose, and J. Unsleber
   
 * started run on 2026/09/06 at 20:56:19.064     
   ID    Z sym.   atoms
    1    8 O      1
    2    6 C      2-11
    3    1 H      12-27

           -------------------------------------------------
          |                Calculation Setup                |
           -------------------------------------------------

          program call               : C:\ORCA_6.1.1\xtb-6.7.1pre\xtb.exe  Admantan-1-ol_XTB2_XTB.xyz --grad -c 0 -u 0 -P 4 --namespace Admantan-1-ol_XTB2 --input Admantan-1-ol_XTB2_XTB.input.tmp --acc 0.200000      
          calculation namespace      : Admantan-1-ol_XTB2
          coordinate file            : Admantan-1-ol_XTB2_XTB.xyz
          omp threads                :                     4


           -------------------------------------------------
          |                 G F N 2 - x T B                 |
           -------------------------------------------------

        Reference                      10.1021/acs.jctc.8b01176
      * Hamiltonian:
        H0-scaling (s, p, d)           1.850000    2.230000    2.230000
        zeta-weighting                 0.500000
      * Dispersion:
        s8                             2.700000
        a1                             0.520000
        a2                             5.000000
        s9                             5.000000
      * Repulsion:
        kExp                           1.500000    1.000000
        rExp                           1.000000
      * Coulomb:
        alpha                          2.000000
        third order                    shell-resolved
        anisotropic                    true
        a3                             3.000000
        a5                             4.000000
        cn-shift                       1.200000
        cn-exp                         4.000000
        max-rad                        5.000000

q/qsh data taken from xtbrestart
CAMM data taken from xtbrestart

          ...................................................
          :                      SETUP                      :
          :.................................................:
          :  # basis functions                  60          :
          :  # atomic orbitals                  60          :
          :  # shells                           38          :
          :  # electrons                        62          :
          :  max. iterations                   250          :
          :  Hamiltonian                  GFN2-xTB          :
          :  restarted?                       true          :
          :  GBSA solvation                  false          :
          :  PC potential                    false          :
          :  electronic temp.          300.0000000     K    :
          :  accuracy                    0.2000000          :
          :  -> integral cutoff          0.3198970E+02      :
          :  -> integral neglect         0.2000000E-08      :
          :  -> SCF convergence          0.2000000E-06 Eh   :
          :  -> wf. convergence          0.2000000E-04 e    :
          :  Broyden damping             0.4000000          :
          :  net charge                          0          :
          :  unpaired electrons                  0          :
          ...................................................

 iter      E             dE          RMSdq      gap      omega  full diag
   1    -34.1368691 -0.341369E+02  0.308E-02   11.29       0.0  T
   2    -34.1368712 -0.214058E-05  0.181E-02   11.29       1.1  T
   3    -34.1368713 -0.448918E-07  0.615E-03   11.29       3.1  T
   4    -34.1368716 -0.345042E-06  0.171E-03   11.29      11.2  T
   5    -34.1368716 -0.124766E-07  0.677E-04   11.29      28.4  T
   6    -34.1368716 -0.707779E-09  0.291E-04   11.29      66.0  T
   7    -34.1368716 -0.230386E-09  0.404E-05   11.29     476.0  T
   8    -34.1368716 -0.293454E-11  0.182E-05   11.29    1060.2  T

   *** convergence criteria satisfied after 8 iterations ***

         #    Occupation            Energy/Eh            Energy/eV
      -------------------------------------------------------------
         1        2.0000           -0.6800715             -18.5057
       ...           ...                  ...                  ...
        25        2.0000           -0.4359147             -11.8618
        26        2.0000           -0.4313622             -11.7380
        27        2.0000           -0.4291951             -11.6790
        28        2.0000           -0.4163744             -11.3301
        29        2.0000           -0.4148047             -11.2874
        30        2.0000           -0.3999802             -10.8840
        31        2.0000           -0.3895512             -10.6002 (HOMO)
        32                          0.0251944               0.6856 (LUMO)
        33                          0.0585119               1.5922
        34                          0.0636367               1.7316
        35                          0.0795451               2.1645
        36                          0.1006983               2.7401
       ...                                ...                  ...
        60                          0.3067146               8.3461
      -------------------------------------------------------------
                  HL-Gap            0.4147456 Eh           11.2858 eV
             Fermi-level           -0.1821784 Eh           -4.9573 eV

 SCC (total)                   0 d,  0 h,  0 min,  0.012 sec
 SCC setup                      ...        0 min,  0.001 sec (  8.333%)
 Dispersion                     ...        0 min,  0.000 sec (  0.000%)
 classical contributions        ...        0 min,  0.000 sec (  0.000%)
 integral evaluation            ...        0 min,  0.001 sec (  8.333%)
 iterations                     ...        0 min,  0.007 sec ( 58.334%)
 molecular gradient             ...        0 min,  0.003 sec ( 25.000%)
 printout                       ...        0 min,  0.000 sec (  0.000%)

         :::::::::::::::::::::::::::::::::::::::::::::::::::::
         ::                     SUMMARY                     ::
         :::::::::::::::::::::::::::::::::::::::::::::::::::::
         :: total energy             -33.704568284363 Eh    ::
         :: gradient norm              0.004527694836 Eh/a0 ::
         :: HOMO-LUMO gap             11.285801105028 eV    ::
         ::.................................................::
         :: SCC energy               -34.136638014072 Eh    ::
         :: -> isotropic ES            0.028866034099 Eh    ::
         :: -> anisotropic ES          0.005587835870 Eh    ::
         :: -> anisotropic XC          0.011479975146 Eh    ::
         :: -> dispersion             -0.025481677126 Eh    ::
         :: repulsion energy           0.432069729709 Eh    ::
         :: add. restraining           0.000000000000 Eh    ::
         :: total charge               0.000000000000 e     ::
         :::::::::::::::::::::::::::::::::::::::::::::::::::::


Property printout bound to 'properties.out'

           -------------------------------------------------
          | TOTAL ENERGY              -33.704568284363 Eh   |
          | GRADIENT NORM               0.004527694836 Eh/ﾎｱ |
          | HOMO-LUMO GAP              11.285801105028 eV   |
           -------------------------------------------------

------------------------------------------------------------------------
 * finished run on 2026/09/06 at 20:56:19.125     
------------------------------------------------------------------------
 total:
 * wall-time:     0 d,  0 h,  0 min,  0.058 sec
 *  cpu-time:     0 d,  0 h,  0 min,  0.234 sec
 * ratio c/w:     4.041 speedup
 SCF:
 * wall-time:     0 d,  0 h,  0 min,  0.012 sec
 *  cpu-time:     0 d,  0 h,  0 min,  0.000 sec
 * ratio c/w:     0.000 speedup


-------------------------   --------------------
FINAL SINGLE POINT ENERGY       -33.704568284360
-------------------------   --------------------


-------------
DIPOLE MOMENT
-------------
                                X             Y             Z
Total Dipole Moment    :     -0.22900      -0.46300      -0.51200
                        -----------------------------------------
Magnitude (a.u.)       :      0.72729
Magnitude (Debye)      :      1.84863


------------------
CARTESIAN GRADIENT
------------------

   1   O   :   -0.000957140   -0.000664001   -0.000491328
   2   C   :    0.002001447    0.001178458    0.000725825
   3   C   :   -0.000100060    0.001172781    0.000270402
   4   C   :    0.000081129   -0.000558764   -0.000061105
   5   C   :    0.000088286    0.000452909    0.000521526
   6   C   :   -0.000163287    0.000084488   -0.000517591
   7   C   :    0.000533981   -0.000392111    0.000085904
   8   C   :   -0.000324061    0.000201355    0.000378332
   9   C   :    0.000286524    0.000329551   -0.000518745
  10   C   :    0.001453229   -0.000793370   -0.001546657
  11   C   :    0.000245987    0.000034024    0.001152509
  12   H   :   -0.000525102   -0.000149757    0.000018530
  13   H   :   -0.000191525   -0.000381124   -0.000264461
  14   H   :   -0.000103056   -0.000313044    0.000174628
  15   H   :   -0.000202536    0.000156164   -0.000035726
  16   H   :    0.000178813   -0.000086467   -0.000171549
  17   H   :   -0.000160181   -0.000045051    0.000009452
  18   H   :   -0.000081242   -0.000135114    0.000177077
  19   H   :   -0.000013390    0.000284463   -0.000005858
  20   H   :   -0.000226827   -0.000098646   -0.000015017
  21   H   :    0.000055879   -0.000135023   -0.000176169
  22   H   :    0.000094022   -0.000062535    0.000271818
  23   H   :   -0.000211082   -0.000078074   -0.000036918
  24   H   :   -0.000708176    0.000213087    0.000213730
  25   H   :   -0.000568823   -0.000111824    0.000393798
  26   H   :   -0.000240395   -0.000238799   -0.000384011
  27   H   :   -0.000242414    0.000136426   -0.000168397

Difference to translation invariance:
           :   -0.0000000000   -0.0000000000   -0.0000000000

Difference to rotation invariance:
           :    0.0000000398   -0.0000001274    0.0000000971

Norm of the Cartesian gradient     ...    0.0045276948
RMS gradient                       ...    0.0005030772
MAX gradient                       ...    0.0020014468
------------------------------------------------------------------------------
                         ORCA GEOMETRY RELAXATION STEP
------------------------------------------------------------------------------

Reading the OPT-File                    .... done
Getting information on internals        .... done
Copying old internal coords+grads       .... done
Making the new internal coordinates     .... (2022 redundants) done
Validating the new internal coordinates .... (2022 redundants) done
Calculating the B-matrix                .... done
Calculating the G,G- and P matrices     .... done
Transforming gradient to internals      .... done
Projecting the internal gradient        .... done
Number of atoms                         ....  27
Number of internal coordinates          .... 165
Current Energy                          ....   -33.704568284 Eh
Current gradient norm                   ....     0.004527695 Eh/bohr
Maximum allowed component of the step   ....  0.300
Current trust radius                    ....  0.450
Updating the Hessian (BFGS)             .... done
Forming the augmented Hessian           .... done
Diagonalizing the augmented Hessian     .... done
Last element of RFO vector              ....  0.999620740
Lowest eigenvalues of augmented Hessian:
 -0.000064908  0.022046157  0.025797843  0.026658978  0.027170200
Length of the computed step             ....  0.027549067
The final length of the internal step   ....  0.027549067
Converting the step to Cartesian space:
 Initial RMS(Int)=    0.0021446920
Transforming coordinates:
 Iter   0:  RMS(Cart)=    0.0040834479 RMS(Int)=    0.0021442314
done
Storing new coordinates                 .... done
The predicted energy change is          ....    -0.000032479
Previously predicted energy change      ....    -0.000118695
Actually observed energy change         ....    -0.000153551
Ratio of predicted to observed change   ....     1.293658684
New trust radius                        ....     0.450000000

                                .--------------------.
          ----------------------|Geometry convergence|-------------------------
          Item                value                   Tolerance       Converged
          ---------------------------------------------------------------------
          Energy change      -0.0001535508            0.0000050000      NO
          RMS gradient        0.0002422871            0.0001000000      NO
          MAX gradient        0.0017374393            0.0003000000      NO
          RMS step            0.0021446920            0.0020000000      NO
          MAX step            0.0063655945            0.0040000000      NO
          -------------------------------------------------------------------------
          ........................................................
          Max(Bonds)      0.0032      Max(Angles)    0.36
          Max(Dihed)        0.34      Max(Improp)    0.00
          ---------------------------------------------------------------------

The optimization has not yet converged - more geometry cycles are needed


    ---------------------------------------------------------------------------
                         Redundant Internal Coordinates
                            (Angstroem and degrees)

        Definition                    Value    dE/dq     Step     New-Value
    ----------------------------------------------------------------------------
     1. B(C   1,O   0)                1.4155 -0.001737  0.0032    1.4187   
     2. B(C   2,C   1)                1.5337 -0.000116 -0.0004    1.5333   
     3. B(C   3,C   2)                1.5282  0.000063 -0.0002    1.5280   
     4. B(C   4,C   3)                1.5278 -0.000222  0.0005    1.5283   
     5. B(C   5,C   4)                1.5278 -0.000212  0.0005    1.5283   
     6. B(C   6,C   5)                1.5276 -0.000343  0.0006    1.5282   
     7. B(C   7,C   6)                1.5278 -0.000210  0.0005    1.5282   
     8. B(C   8,C   7)                1.5278 -0.000253  0.0005    1.5283   
     9. B(C   8,C   3)                1.5276 -0.000295  0.0006    1.5282   
    10. B(C   9,C   7)                1.5277 -0.000048 -0.0006    1.5271   
    11. B(C   9,C   1)                1.5274 -0.000495  0.0008    1.5282   
    12. B(C  10,C   5)                1.5282  0.000086 -0.0002    1.5280   
    13. B(C  10,C   1)                1.5337 -0.000153 -0.0004    1.5333   
    14. B(H  11,O   0)                0.9634 -0.000287 -0.0004    0.9629   
    15. B(H  12,C   2)                1.0919 -0.000206  0.0001    1.0920   
    16. B(H  13,C   2)                1.0945 -0.000072 -0.0002    1.0943   
    17. B(H  14,C   3)                1.0956 -0.000166  0.0001    1.0958   
    18. B(H  15,C   4)                1.0921 -0.000107 -0.0001    1.0920   
    19. B(H  16,C   4)                1.0927 -0.000085 -0.0002    1.0926   
    20. B(H  17,C   5)                1.0956 -0.000166  0.0001    1.0958   
    21. B(H  18,C   6)                1.0923 -0.000091 -0.0002    1.0921   
    22. B(H  19,C   6)                1.0921 -0.000085 -0.0002    1.0919   
    23. B(H  20,C   7)                1.0951 -0.000208  0.0002    1.0953   
    24. B(H  21,C   8)                1.0923 -0.000091 -0.0002    1.0921   
    25. B(H  22,C   8)                1.0921 -0.000084 -0.0002    1.0920   
    26. B(H  23,C   9)                1.0911 -0.000117 -0.0002    1.0909   
    27. B(H  24,C   9)                1.0911 -0.000119 -0.0001    1.0909   
    28. B(H  25,C  10)                1.0919 -0.000204  0.0001    1.0920   
    29. B(H  26,C  10)                1.0945 -0.000073 -0.0002    1.0943   
    30. A(C   1,O   0,H  11)          108.26 -0.000847    0.24    108.50   
    31. A(O   0,C   1,C  10)          111.09  0.000020    0.04    111.13   
    32. A(C   2,C   1,C   9)          109.12 -0.000232    0.15    109.28   
    33. A(C   9,C   1,C  10)          109.11 -0.000194    0.16    109.27   
    34. A(O   0,C   1,C   9)          107.45  0.000474   -0.36    107.09   
    35. A(C   2,C   1,C  10)          108.92 -0.000056   -0.01    108.91   
    36. A(O   0,C   1,C   2)          111.10 -0.000017    0.03    111.13   
    37. A(C   3,C   2,H  13)          109.90 -0.000317    0.12    110.02   
    38. A(C   1,C   2,H  12)          109.32  0.000289   -0.16    109.15   
    39. A(C   1,C   2,H  13)          109.78  0.000184   -0.11    109.67   
    40. A(H  12,C   2,H  13)          107.72 -0.000087    0.13    107.85   
    41. A(C   1,C   2,C   3)          109.87  0.000184   -0.13    109.73   
    42. A(C   3,C   2,H  12)          110.22 -0.000254    0.16    110.38   
    43. A(C   2,C   3,H  14)          109.36  0.000105   -0.10    109.26   
    44. A(C   4,C   3,H  14)          109.48  0.000003    0.01    109.49   
    45. A(C   4,C   3,C   8)          109.50 -0.000020    0.00    109.51   
    46. A(C   8,C   3,H  14)          109.53 -0.000014    0.01    109.54   
    47. A(C   2,C   3,C   4)          109.52 -0.000051    0.01    109.54   
    48. A(C   2,C   3,C   8)          109.43 -0.000022    0.07    109.50   
    49. A(C   3,C   4,H  15)          109.90  0.000023   -0.03    109.87   
    50. A(C   3,C   4,C   5)          109.43  0.000096   -0.07    109.36   
    51. A(H  15,C   4,H  16)          107.64 -0.000148    0.11    107.75   
    52. A(C   5,C   4,H  16)          109.97  0.000060    0.01    109.98   
    53. A(C   3,C   4,H  16)          109.97 -0.000033    0.01    109.98   
    54. A(C   5,C   4,H  15)          109.91 -0.000002   -0.03    109.88   
    55. A(C   6,C   5,C  10)          109.45 -0.000035    0.06    109.52   
    56. A(C   4,C   5,C  10)          109.50 -0.000000    0.02    109.52   
    57. A(C   4,C   5,C   6)          109.51 -0.000062    0.00    109.51   
    58. A(C  10,C   5,H  17)          109.35  0.000116   -0.10    109.25   
    59. A(C   6,C   5,H  17)          109.54 -0.000008    0.01    109.55   
    60. A(C   4,C   5,H  17)          109.48 -0.000010    0.01    109.49   
    61. A(C   5,C   6,C   7)          109.37 -0.000003   -0.02    109.35   
    62. A(H  18,C   6,H  19)          107.72 -0.000187    0.13    107.85   
    63. A(C   7,C   6,H  19)          109.93  0.000111   -0.02    109.91   
    64. A(C   5,C   6,H  19)          109.93 -0.000018   -0.02    109.91   
    65. A(C   7,C   6,H  18)          109.97 -0.000022   -0.03    109.94   
    66. A(C   5,C   6,H  18)          109.90  0.000119   -0.04    109.86   
    67. A(C   8,C   7,C   9)          109.57 -0.000032   -0.00    109.57   
    68. A(C   6,C   7,C   9)          109.57 -0.000053   -0.00    109.56   
    69. A(C   9,C   7,H  20)          109.20  0.000086   -0.06    109.14   
    70. A(C   8,C   7,H  20)          109.50  0.000017    0.01    109.51   
    71. A(C   6,C   7,H  20)          109.51 -0.000069    0.01    109.53   
    72. A(C   6,C   7,C   8)          109.48  0.000051    0.04    109.52   
    73. A(C   7,C   8,H  22)          109.92  0.000131   -0.01    109.91   
    74. A(C   3,C   8,H  22)          109.91  0.000140   -0.01    109.90   
    75. A(C   7,C   8,H  21)          109.97 -0.000002   -0.03    109.94   
    76. A(H  21,C   8,H  22)          107.72 -0.000303    0.13    107.85   
    77. A(C   3,C   8,H  21)          109.92  0.000077   -0.05    109.87   
    78. A(C   3,C   8,C   7)          109.38 -0.000045   -0.03    109.36   
    79. A(H  23,C   9,H  24)          107.60 -0.000268    0.12    107.72   
    80. A(C   1,C   9,C   7)          109.87  0.000315   -0.12    109.75   
    81. A(C   7,C   9,H  24)          110.41 -0.000742    0.26    110.67   
    82. A(C   1,C   9,H  24)          109.23  0.000858   -0.25    108.98   
    83. A(C   7,C   9,H  23)          110.41 -0.000520    0.26    110.67   
    84. A(C   1,C   9,H  23)          109.28  0.000370   -0.26    109.02   
    85. A(H  25,C  10,H  26)          107.74 -0.000254    0.12    107.86   
    86. A(C   5,C  10,H  26)          109.89 -0.000299    0.12    110.02   
    87. A(C   1,C  10,H  26)          109.74  0.000378   -0.10    109.64   
    88. A(C   5,C  10,H  25)          110.23 -0.000220    0.16    110.39   
    89. A(C   1,C  10,H  25)          109.33  0.000241   -0.17    109.16   
    90. A(C   1,C  10,C   5)          109.87  0.000153   -0.13    109.74   
    91. D(C   9,C   1,O   0,H  11)   -179.99 -0.000023   -0.00   -180.00   
    92. D(C   2,C   1,O   0,H  11)     60.71 -0.000023    0.02     60.73   
    93. D(C  10,C   1,O   0,H  11)    -60.71  0.000046   -0.02    -60.73   
    94. D(C   3,C   2,C   1,C   9)     59.49 -0.000198    0.00     59.49   
    95. D(H  12,C   2,C   1,C   9)    -61.58 -0.000182   -0.01    -61.59   
    96. D(C   3,C   2,C   1,C  10)    -59.53  0.000206   -0.27    -59.80   
    97. D(H  12,C   2,C   1,C  10)    179.40  0.000221   -0.28    179.12   
    98. D(C   3,C   2,C   1,O   0)    177.78  0.000230   -0.33    177.45   
    99. D(H  12,C   2,C   1,O   0)     56.71  0.000245   -0.34     56.37   
   100. D(C   8,C   3,C   2,H  12)     60.56  0.000291   -0.11     60.44   
   101. D(C   4,C   3,C   2,H  13)    -60.82 -0.000236    0.27    -60.55   
   102. D(C   4,C   3,C   2,C   1)     60.08 -0.000093    0.13     60.20   
   103. D(C   8,C   3,C   2,H  13)    179.14 -0.000167    0.21    179.35   
   104. D(C   4,C   3,C   2,H  12)   -179.40  0.000221   -0.06   -179.46   
   105. D(C   8,C   3,C   2,C   1)    -59.97 -0.000024    0.07    -59.90   
   106. D(H  15,C   4,C   3,H  14)     59.30 -0.000115    0.21     59.52   
   107. D(H  15,C   4,C   3,C   8)    -60.79 -0.000087    0.20    -60.60   
   108. D(H  15,C   4,C   3,C   2)    179.21 -0.000016    0.10    179.31   
   109. D(C   5,C   4,C   3,C   8)     59.99 -0.000014    0.10     60.09   
   110. D(C   5,C   4,C   3,H  14)   -179.92 -0.000042    0.12   -179.80   
   111. D(C   5,C   4,C   3,C   2)    -60.01  0.000057    0.01    -60.01   
   112. D(C  10,C   5,C   4,H  16)    -60.88 -0.000113    0.02    -60.86   
   113. D(C  10,C   5,C   4,H  15)   -179.21  0.000032   -0.10   -179.31   
   114. D(C   6,C   5,C   4,H  16)    179.11 -0.000033   -0.07    179.03   
   115. D(C   6,C   5,C   4,H  15)     60.78  0.000113   -0.19     60.58   
   116. D(C   6,C   5,C   4,C   3)    -59.99  0.000025   -0.10    -60.10   
   117. D(C  10,C   5,C   4,C   3)     60.02 -0.000055   -0.01     60.01   
   118. D(C   7,C   6,C   5,H  17)   -179.86 -0.000100    0.04   -179.82   
   119. D(C   7,C   6,C   5,C   4)     60.06 -0.000044    0.03     60.09   
   120. D(C   7,C   6,C   5,C  10)    -59.98  0.000015   -0.03    -60.01   
   121. D(H  18,C   6,C   5,C   4)    -60.76 -0.000089    0.11    -60.65   
   122. D(H  18,C   6,C   5,H  17)     59.31 -0.000145    0.12     59.44   
   123. D(H  18,C   6,C   5,C  10)    179.20 -0.000030    0.05    179.24   
   124. D(C   9,C   7,C   6,H  18)   -179.17  0.000021   -0.03   -179.20   
   125. D(C   8,C   7,C   6,H  19)    179.08 -0.000113    0.09    179.17   
   126. D(C   8,C   7,C   6,H  18)     60.64  0.000062   -0.04     60.59   
   127. D(C   8,C   7,C   6,C   5)    -60.14 -0.000069    0.04    -60.10   
   128. D(C   9,C   7,C   6,H  19)    -60.74 -0.000154    0.11    -60.63   
   129. D(C   9,C   7,C   6,C   5)     60.05 -0.000109    0.06     60.10   
   130. D(H  21,C   8,C   7,H  20)     59.41 -0.000079    0.10     59.51   
   131. D(H  21,C   8,C   7,C   9)    179.15  0.000016    0.04    179.19   
   132. D(H  21,C   8,C   7,C   6)    -60.66 -0.000037    0.05    -60.61   
   133. D(C   3,C   8,C   7,H  20)   -179.78 -0.000013    0.00   -179.78   
   134. D(C   3,C   8,C   7,C   9)    -60.04  0.000083   -0.06    -60.10   
   135. D(C   3,C   8,C   7,C   6)     60.14  0.000029   -0.04     60.10   
   136. D(H  21,C   8,C   3,H  14)    -59.28  0.000093   -0.14    -59.41   
   137. D(H  21,C   8,C   3,C   4)     60.79  0.000075   -0.12     60.67   
   138. D(H  21,C   8,C   3,C   2)   -179.15 -0.000013   -0.06   -179.21   
   139. D(C   7,C   8,C   3,H  14)    179.88  0.000075   -0.05    179.83   
   140. D(C   7,C   8,C   3,C   4)    -60.05  0.000057   -0.04    -60.09   
   141. D(C   7,C   8,C   3,C   2)     60.01 -0.000031    0.03     60.03   
   142. D(H  23,C   9,C   7,C   8)    -60.56 -0.000291    0.27    -60.29   
   143. D(H  23,C   9,C   7,C   6)    179.31 -0.000301    0.23    179.53   
   144. D(C   1,C   9,C   7,H  20)    179.97  0.000094    0.01    179.98   
   145. D(C   1,C   9,C   7,C   8)     60.04  0.000040    0.03     60.07   
   146. D(C   1,C   9,C   7,C   6)    -60.09  0.000030   -0.01    -60.10   
   147. D(H  23,C   9,C   1,C  10)   -179.25 -0.000365    0.15   -179.10   
   148. D(H  23,C   9,C   1,C   2)     61.85 -0.000047   -0.02     61.83   
   149. D(H  23,C   9,C   1,O   0)    -58.71 -0.000173    0.07    -58.64   
   150. D(C   7,C   9,C   1,C  10)     59.47 -0.000156    0.08     59.55   
   151. D(C   7,C   9,C   1,C   2)    -59.44  0.000163   -0.09    -59.53   
   152. D(H  23,C   9,C   7,H  20)     59.37 -0.000237    0.25     59.61   
   153. D(C   7,C   9,C   1,O   0)   -180.00  0.000036   -0.00   -180.00   
   154. D(H  25,C  10,C   5,C   6)    -60.62 -0.000220    0.13    -60.48   
   155. D(H  25,C  10,C   5,C   4)    179.34 -0.000123    0.08    179.42   
   156. D(C   1,C  10,C   5,H  17)    179.94  0.000076   -0.08    179.86   
   157. D(C   1,C  10,C   5,C   6)     59.94  0.000037   -0.06     59.88   
   158. D(C   1,C  10,C   5,C   4)    -60.11  0.000134   -0.11    -60.22   
   159. D(H  25,C  10,C   1,C   9)     61.62  0.000149   -0.01     61.62   
   160. D(H  25,C  10,C   1,C   2)   -179.34 -0.000279    0.26   -179.08   
   161. D(H  25,C  10,C   1,O   0)    -56.66 -0.000324    0.32    -56.33   
   162. D(C   5,C  10,C   1,C   9)    -59.47  0.000172   -0.01    -59.48   
   163. D(C   5,C  10,C   1,C   2)     59.56 -0.000255    0.26     59.82   
   164. D(H  25,C  10,C   5,H  17)     59.38 -0.000180    0.12     59.50   
   165. D(C   5,C  10,C   1,O   0)   -177.75 -0.000301    0.32   -177.43   
    ----------------------------------------------------------------------------

Geometry step timings:
Preparation and reading OPT file:      0.008 s (36.364 %)
Internal coordinates            :      0.000 s ( 0.000 %)
B/P matrices and projection     :      0.004 s (18.182 %)
Hessian update/contruction      :      0.004 s (18.182 %)
Making the step                 :      0.002 s ( 9.091 %)
Converting the step to Cartesian:      0.001 s ( 4.545 %)
Storing new data                :      0.000 s ( 0.000 %)
Checking convergence            :      0.000 s ( 0.000 %)
Final printing                  :      0.003 s (13.636 %)
Total time                      :      0.022 s

Time for energy+gradient        :      0.128 s
Time for complete geometry iter :      0.177 s

         *************************************************************
         *                GEOMETRY OPTIMIZATION CYCLE   4            *
         *************************************************************
---------------------------------
CARTESIAN COORDINATES (ANGSTROEM)
---------------------------------
  O     2.555141    1.115900    0.417481
  C     1.275446    0.545685    0.193690
  C     1.327582   -0.983792    0.288341
  C    -0.075679   -1.560175    0.105533
  C    -0.617277   -1.161165   -1.266791
  C    -0.675308    0.362901   -1.365054
  C    -1.597396    0.909735   -0.276002
  C    -1.054818    0.508823    1.095276
  C    -0.997167   -1.015023    1.195967
  C     0.346571    1.086977    1.279712
  C     0.727800    0.939983   -1.183161
  H     3.158259    0.787564   -0.257579
  H     1.731954   -1.268989    1.261835
  H     1.997753   -1.377831   -0.481793
  H    -0.029845   -2.652639    0.176889
  H    -1.615486   -1.580713   -1.408181
  H     0.026816   -1.561695   -2.053174
  H    -1.059711    0.651373   -2.349784
  H    -2.605471    0.511167   -0.408816
  H    -1.655221    1.997659   -0.349543
  H    -1.711650    0.902615    1.878284
  H    -1.998848   -1.434188    1.079245
  H    -0.623819   -1.308855    2.179141
  H     0.748352    0.818126    2.257642
  H     0.325003    2.175931    1.217680
  H     0.704307    2.028952   -1.261184
  H     1.392711    0.561674   -1.965654

----------------------------
CARTESIAN COORDINATES (A.U.)
----------------------------
  NO LB    ZA    FRAG    MASS        X           Y           Z
   0 O   8.0000    0    15.999    4.828517    2.108744    0.788925
   1 C   6.0000    0    12.011    2.410244    1.031194    0.366021
   2 C   6.0000    0    12.011    2.508766   -1.859098    0.544885
   3 C   6.0000    0    12.011   -0.143013   -2.948304    0.199428
   4 C   6.0000    0    12.011   -1.166484   -2.194284   -2.393887
   5 C   6.0000    0    12.011   -1.276148    0.685783   -2.579579
   6 C   6.0000    0    12.011   -3.018641    1.719150   -0.521569
   7 C   6.0000    0    12.011   -1.993317    0.961537    2.069771
   8 C   6.0000    0    12.011   -1.884372   -1.918115    2.260050
   9 C   6.0000    0    12.011    0.654924    2.054089    2.418305
  10 C   6.0000    0    12.011    1.375342    1.776311   -2.235850
  11 H   1.0000    0     1.008    5.968244    1.488279   -0.486754
  12 H   1.0000    0     1.008    3.272918   -2.398042    2.384523
  13 H   1.0000    0     1.008    3.775205   -2.603724   -0.910457
  14 H   1.0000    0     1.008   -0.056399   -5.012760    0.334271
  15 H   1.0000    0     1.008   -3.052826   -2.987116   -2.661077
  16 H   1.0000    0     1.008    0.050675   -2.951175   -3.879936
  17 H   1.0000    0     1.008   -2.002563    1.230916   -4.440448
  18 H   1.0000    0     1.008   -4.923626    0.965966   -0.772551
  19 H   1.0000    0     1.008   -3.127914    3.775028   -0.660540
  20 H   1.0000    0     1.008   -3.234550    1.705695    3.549442
  21 H   1.0000    0     1.008   -3.777275   -2.710222    2.039478
  22 H   1.0000    0     1.008   -1.178847   -2.473377    4.117979
  23 H   1.0000    0     1.008    1.414180    1.546034    4.266325
  24 H   1.0000    0     1.008    0.614167    4.111914    2.301081
  25 H   1.0000    0     1.008    1.330948    3.834163   -2.383291
  26 H   1.0000    0     1.008    2.631843    1.061411   -3.714548

      -----------------------------------------------------------      
     |                   =====================                   |     
     |                           x T B                           |     
     |                   =====================                   |     
     |                         S. Grimme                         |     
     |          Mulliken Center for Theoretical Chemistry        |     
     |                    University of Bonn                     |     
      -----------------------------------------------------------      

   * xtb version 6.7.1pre (5071a88) compiled by 'Marcel@Raven' on 2024-07-23

   xtb is free software: you can redistribute it and/or modify it under
   the terms of the GNU Lesser General Public License as published by
   the Free Software Foundation, either version 3 of the License, or
   (at your option) any later version.
   
   xtb is distributed in the hope that it will be useful,
   but WITHOUT ANY WARRANTY; without even the implied warranty of
   MERCHANTABILITY or FITNESS FOR A PARTICULAR PURPOSE.  See the
   GNU Lesser General Public License for more details.
   
   Cite this work as:
   * C. Bannwarth, E. Caldeweyher, S. Ehlert, A. Hansen, P. Pracht,
     J. Seibert, S. Spicher, S. Grimme, WIREs Comput. Mol. Sci., 2020, 11,
     e01493. DOI: 10.1002/wcms.1493
   
   for GFN2-xTB:
   * C. Bannwarth, S. Ehlert and S. Grimme., J. Chem. Theory Comput., 2019,
     15, 1652-1671. DOI: 10.1021/acs.jctc.8b01176
   for GFN1-xTB:
   * S. Grimme, C. Bannwarth, P. Shushkov, J. Chem. Theory Comput., 2017,
     13, 1989-2009. DOI: 10.1021/acs.jctc.7b00118
   for GFN0-xTB:
   * P. Pracht, E. Caldeweyher, S. Ehlert, S. Grimme, ChemRxiv, 2019, preprint.
     DOI: 10.26434/chemrxiv.8326202.v1
   for GFN-FF:
   * S. Spicher and S. Grimme, Angew. Chem. Int. Ed., 2020, 59, 15665-15673.
     DOI: 10.1002/anie.202004239
   
   for ALPB and GBSA implicit solvation:
   * S. Ehlert, M. Stahn, S. Spicher, S. Grimme, J. Chem. Theory Comput.,
     2021, 17, 4250-4261. DOI: 10.1021/acs.jctc.1c00471
   
   for ddCOSMO and CPCM-X implicit solvation:
   * M. Stahn, S. Ehlert, S. Grimme, J. Phys. Chem. A,
     2023, XX, XXXX-XXXX. DOI: 10.1021/acs.jpca.3c04382
   
   for DFT-D4:
   * E. Caldeweyher, C. Bannwarth and S. Grimme, J. Chem. Phys., 2017,
     147, 034112. DOI: 10.1063/1.4993215
   * E. Caldeweyher, S. Ehlert, A. Hansen, H. Neugebauer, S. Spicher,
     C. Bannwarth and S. Grimme, J. Chem. Phys., 2019, 150, 154122.
     DOI: 10.1063/1.5090222
   * E. Caldeweyher, J.-M. Mewes, S. Ehlert and S. Grimme, Phys. Chem. Chem. Phys.
     2020, 22, 8499-8512. DOI: 10.1039/D0CP00502A
   
   for sTDA-xTB:
   * S. Grimme and C. Bannwarth, J. Chem. Phys., 2016, 145, 054103.
     DOI: 10.1063/1.4959605
   
   in the mass-spec context:
   * V. Asgeirsson, C. Bauer and S. Grimme, Chem. Sci., 2017, 8, 4879.
     DOI: 10.1039/c7sc00601b
   * J. Koopman and S. Grimme, ACS Omega 2019, 4, 12, 15120-15133.
     DOI: 10.1021/acsomega.9b02011
   
   for metadynamics refer to:
   * S. Grimme, J. Chem. Theory Comput., 2019, 155, 2847-2862
     DOI: 10.1021/acs.jctc.9b00143
   
   for SPH calculations refer to:
   * S. Spicher and S. Grimme, J. Chem. Theory Comput., 2021, 17, 1701-1714
     DOI: 10.1021/acs.jctc.0c01306
   
   for ONIOM refer to:
   * C. Plett, A. Katbashev, S. Ehlert, S. Grimme, M. Bursch,
     Phys. Chem. Chem. Phys., 2023, 25, 17860-17868. DOI: 10.1039/D3CP02178E
   
   for DIPRO refer to:
   * J. Kohn, N. Gildemeister, S. Grimme, D. Fazzi, A. Hansen,
     J. Chem. Phys., 2023, just accepted.
   
   for PTB refer to:
   * S. Grimme, M. Mueller, A. Hansen, J. Chem. Phys., 2023, 158, 124111.
     DOI: 10.1063/5.0137838
   
   with help from (in alphabetical order)
   P. Atkinson, C. Bannwarth, F. Bohle, G. Brandenburg, E. Caldeweyher
   M. Checinski, S. Dohm, S. Ehlert, S. Ehrlich, I. Gerasimov, C. Hﾃｶlzer
   A. Katbashev, J. Kohn, J. Koopman, C. Lavigne, S. Lehtola, F. Mﾃ､rz, M. Mﾃｼller,
   F. Musil, H. Neugebauer, J. Pisarek, C. Plett, P. Pracht, F. Pultar,
   J. Seibert, P. Shushkov, S. Spicher, M. Stahn, M. Steiner, T. Strunk,
   J. Stﾃｼckrath, T. Rose, and J. Unsleber
   
 * started run on 2026/09/06 at 20:56:19.249     
   ID    Z sym.   atoms
    1    8 O      1
    2    6 C      2-11
    3    1 H      12-27

           -------------------------------------------------
          |                Calculation Setup                |
           -------------------------------------------------

          program call               : C:\ORCA_6.1.1\xtb-6.7.1pre\xtb.exe  Admantan-1-ol_XTB2_XTB.xyz --grad -c 0 -u 0 -P 4 --namespace Admantan-1-ol_XTB2 --input Admantan-1-ol_XTB2_XTB.input.tmp --acc 0.200000      
          calculation namespace      : Admantan-1-ol_XTB2
          coordinate file            : Admantan-1-ol_XTB2_XTB.xyz
          omp threads                :                     4


           -------------------------------------------------
          |                 G F N 2 - x T B                 |
           -------------------------------------------------

        Reference                      10.1021/acs.jctc.8b01176
      * Hamiltonian:
        H0-scaling (s, p, d)           1.850000    2.230000    2.230000
        zeta-weighting                 0.500000
      * Dispersion:
        s8                             2.700000
        a1                             0.520000
        a2                             5.000000
        s9                             5.000000
      * Repulsion:
        kExp                           1.500000    1.000000
        rExp                           1.000000
      * Coulomb:
        alpha                          2.000000
        third order                    shell-resolved
        anisotropic                    true
        a3                             3.000000
        a5                             4.000000
        cn-shift                       1.200000
        cn-exp                         4.000000
        max-rad                        5.000000

q/qsh data taken from xtbrestart
CAMM data taken from xtbrestart

          ...................................................
          :                      SETUP                      :
          :.................................................:
          :  # basis functions                  60          :
          :  # atomic orbitals                  60          :
          :  # shells                           38          :
          :  # electrons                        62          :
          :  max. iterations                   250          :
          :  Hamiltonian                  GFN2-xTB          :
          :  restarted?                       true          :
          :  GBSA solvation                  false          :
          :  PC potential                    false          :
          :  electronic temp.          300.0000000     K    :
          :  accuracy                    0.2000000          :
          :  -> integral cutoff          0.3198970E+02      :
          :  -> integral neglect         0.2000000E-08      :
          :  -> SCF convergence          0.2000000E-06 Eh   :
          :  -> wf. convergence          0.2000000E-04 e    :
          :  Broyden damping             0.4000000          :
          :  net charge                          0          :
          :  unpaired electrons                  0          :
          ...................................................

 iter      E             dE          RMSdq      gap      omega  full diag
   1    -34.1367247 -0.341367E+02  0.203E-02   11.25       0.0  T
   2    -34.1367255 -0.825054E-06  0.122E-02   11.25       1.6  T
   3    -34.1367255  0.291074E-07  0.420E-03   11.25       4.6  T
   4    -34.1367257 -0.159544E-06  0.788E-04   11.25      24.4  T
   5    -34.1367257 -0.299900E-08  0.320E-04   11.25      60.2  T
   6    -34.1367257 -0.196792E-09  0.158E-04   11.25     122.0  T
   7    -34.1367257 -0.555431E-10  0.199E-05   11.25     964.7  T

   *** convergence criteria satisfied after 7 iterations ***

         #    Occupation            Energy/Eh            Energy/eV
      -------------------------------------------------------------
         1        2.0000           -0.6795391             -18.4912
       ...           ...                  ...                  ...
        25        2.0000           -0.4359589             -11.8630
        26        2.0000           -0.4313820             -11.7385
        27        2.0000           -0.4292377             -11.6802
        28        2.0000           -0.4163973             -11.3307
        29        2.0000           -0.4148787             -11.2894
        30        2.0000           -0.3999433             -10.8830
        31        2.0000           -0.3895878             -10.6012 (HOMO)
        32                          0.0238165               0.6481 (LUMO)
        33                          0.0582248               1.5844
        34                          0.0633106               1.7228
        35                          0.0787846               2.1438
        36                          0.1007018               2.7402
       ...                                ...                  ...
        60                          0.3065721               8.3423
      -------------------------------------------------------------
                  HL-Gap            0.4134043 Eh           11.2493 eV
             Fermi-level           -0.1828856 Eh           -4.9766 eV

 SCC (total)                   0 d,  0 h,  0 min,  0.015 sec
 SCC setup                      ...        0 min,  0.000 sec (  0.000%)
 Dispersion                     ...        0 min,  0.000 sec (  0.000%)
 classical contributions        ...        0 min,  0.000 sec (  0.000%)
 integral evaluation            ...        0 min,  0.002 sec ( 13.332%)
 iterations                     ...        0 min,  0.008 sec ( 53.335%)
 molecular gradient             ...        0 min,  0.004 sec ( 26.667%)
 printout                       ...        0 min,  0.001 sec (  6.666%)

         :::::::::::::::::::::::::::::::::::::::::::::::::::::
         ::                     SUMMARY                     ::
         :::::::::::::::::::::::::::::::::::::::::::::::::::::
         :: total energy             -33.704606576279 Eh    ::
         :: gradient norm              0.001478215766 Eh/a0 ::
         :: HOMO-LUMO gap             11.249302230255 eV    ::
         ::.................................................::
         :: SCC energy               -34.136492038469 Eh    ::
         :: -> isotropic ES            0.028978111491 Eh    ::
         :: -> anisotropic ES          0.005555299304 Eh    ::
         :: -> anisotropic XC          0.011531792082 Eh    ::
         :: -> dispersion             -0.025475471525 Eh    ::
         :: repulsion energy           0.431885462190 Eh    ::
         :: add. restraining           0.000000000000 Eh    ::
         :: total charge              -0.000000000000 e     ::
         :::::::::::::::::::::::::::::::::::::::::::::::::::::


Property printout bound to 'properties.out'

           -------------------------------------------------
          | TOTAL ENERGY              -33.704606576279 Eh   |
          | GRADIENT NORM               0.001478215766 Eh/ﾎｱ |
          | HOMO-LUMO GAP              11.249302230255 eV   |
           -------------------------------------------------

------------------------------------------------------------------------
 * finished run on 2026/09/06 at 20:56:19.323     
------------------------------------------------------------------------
 total:
 * wall-time:     0 d,  0 h,  0 min,  0.071 sec
 *  cpu-time:     0 d,  0 h,  0 min,  0.234 sec
 * ratio c/w:     3.301 speedup
 SCF:
 * wall-time:     0 d,  0 h,  0 min,  0.015 sec
 *  cpu-time:     0 d,  0 h,  0 min,  0.062 sec
 * ratio c/w:     4.167 speedup


-------------------------   --------------------
FINAL SINGLE POINT ENERGY       -33.704606576280
-------------------------   --------------------


-------------
DIPOLE MOMENT
-------------
                                X             Y             Z
Total Dipole Moment    :     -0.22800      -0.46400      -0.51300
                        -----------------------------------------
Magnitude (a.u.)       :      0.72832
Magnitude (Debye)      :      1.85124


------------------
CARTESIAN GRADIENT
------------------

   1   O   :    0.000463106   -0.000143335   -0.000381963
   2   C   :    0.000168687    0.000184002    0.000171061
   3   C   :   -0.000141803    0.000294573   -0.000046169
   4   C   :    0.000107958   -0.000205228   -0.000045976
   5   C   :   -0.000070024   -0.000001163    0.000006712
   6   C   :   -0.000010592    0.000043407   -0.000204992
   7   C   :   -0.000060497   -0.000004078    0.000011257
   8   C   :   -0.000088631    0.000028361    0.000056194
   9   C   :   -0.000079549   -0.000016694    0.000001041
  10   C   :    0.000645056   -0.000181988   -0.000418220
  11   C   :   -0.000027664   -0.000104025    0.000273857
  12   H   :   -0.000423073    0.000168447    0.000392638
  13   H   :   -0.000074999   -0.000021268   -0.000109445
  14   H   :   -0.000060117   -0.000027071    0.000076270
  15   H   :   -0.000023567    0.000147584   -0.000026480
  16   H   :    0.000145831   -0.000004795   -0.000049054
  17   H   :   -0.000104545    0.000009092    0.000057241
  18   H   :    0.000061675   -0.000056453    0.000125191
  19   H   :    0.000083110    0.000139568    0.000020423
  20   H   :   -0.000082136   -0.000122289   -0.000005181
  21   H   :    0.000136988   -0.000018892   -0.000056614
  22   H   :    0.000118648    0.000028369    0.000119955
  23   H   :   -0.000103573   -0.000012554   -0.000090784
  24   H   :   -0.000277747    0.000093529    0.000007817
  25   H   :   -0.000186568   -0.000110026    0.000114937
  26   H   :   -0.000041686   -0.000128767   -0.000036987
  27   H   :   -0.000074287    0.000021694    0.000037271

Difference to translation invariance:
           :   -0.0000000000    0.0000000000   -0.0000000000

Difference to rotation invariance:
           :    0.0000000524   -0.0000001652    0.0000001263

Norm of the Cartesian gradient     ...    0.0014782158
RMS gradient                       ...    0.0001642462
MAX gradient                       ...    0.0006450563
------------------------------------------------------------------------------
                         ORCA GEOMETRY RELAXATION STEP
------------------------------------------------------------------------------

Reading the OPT-File                    .... done
Getting information on internals        .... done
Copying old internal coords+grads       .... done
Making the new internal coordinates     .... (2022 redundants) done
Validating the new internal coordinates .... (2022 redundants) done
Calculating the B-matrix                .... done
Calculating the G,G- and P matrices     .... done
Transforming gradient to internals      .... done
Projecting the internal gradient        .... done
Number of atoms                         ....  27
Number of internal coordinates          .... 165
Current Energy                          ....   -33.704606576 Eh
Current gradient norm                   ....     0.001478216 Eh/bohr
Maximum allowed component of the step   ....  0.300
Current trust radius                    ....  0.450
Updating the Hessian (BFGS)             .... done
Forming the augmented Hessian           .... done
Diagonalizing the augmented Hessian     .... done
Last element of RFO vector              ....  0.999968294
Lowest eigenvalues of augmented Hessian:
 -0.000006098  0.022046157  0.025455944  0.026663369  0.027158230
Length of the computed step             ....  0.007963356
The final length of the internal step   ....  0.007963356
Converting the step to Cartesian space:
 Initial RMS(Int)=    0.0006199464
Transforming coordinates:
 Iter   0:  RMS(Cart)=    0.0008992261 RMS(Int)=    0.0006200031
done
Storing new coordinates                 .... done
The predicted energy change is          ....    -0.000003049
Previously predicted energy change      ....    -0.000032479
Actually observed energy change         ....    -0.000038292
Ratio of predicted to observed change   ....     1.178981727
New trust radius                        ....     0.675000000

                                .--------------------.
          ----------------------|Geometry convergence|-------------------------
          Item                value                   Tolerance       Converged
          ---------------------------------------------------------------------
          Energy change      -0.0000382919            0.0000050000      NO
          RMS gradient        0.0000865293            0.0001000000      YES
          MAX gradient        0.0005976682            0.0003000000      NO
          RMS step            0.0006199464            0.0020000000      YES
          MAX step            0.0017765598            0.0040000000      YES
          -------------------------------------------------------------------------
          ........................................................
          Max(Bonds)      0.0006      Max(Angles)    0.10
          Max(Dihed)        0.10      Max(Improp)    0.00
          ---------------------------------------------------------------------

The optimization has not yet converged - more geometry cycles are needed


    ---------------------------------------------------------------------------
                         Redundant Internal Coordinates
                            (Angstroem and degrees)

        Definition                    Value    dE/dq     Step     New-Value
    ----------------------------------------------------------------------------
     1. B(C   1,O   0)                1.4187  0.000048  0.0004    1.4191   
     2. B(C   2,C   1)                1.5333 -0.000134  0.0001    1.5334   
     3. B(C   3,C   2)                1.5280 -0.000022 -0.0000    1.5280   
     4. B(C   4,C   3)                1.5283 -0.000063  0.0001    1.5285   
     5. B(C   5,C   4)                1.5283 -0.000053  0.0001    1.5285   
     6. B(C   6,C   5)                1.5282 -0.000020  0.0000    1.5282   
     7. B(C   7,C   6)                1.5282 -0.000002  0.0001    1.5283   
     8. B(C   8,C   7)                1.5283 -0.000021  0.0001    1.5283   
     9. B(C   8,C   3)                1.5282  0.000018  0.0000    1.5282   
    10. B(C   9,C   7)                1.5271  0.000026 -0.0002    1.5270   
    11. B(C   9,C   1)                1.5282 -0.000295  0.0005    1.5287   
    12. B(C  10,C   5)                1.5280 -0.000005 -0.0000    1.5280   
    13. B(C  10,C   1)                1.5333 -0.000136  0.0001    1.5334   
    14. B(H  11,O   0)                0.9629 -0.000598  0.0006    0.9635   
    15. B(H  12,C   2)                1.0920 -0.000120  0.0001    1.0922   
    16. B(H  13,C   2)                1.0943 -0.000081  0.0001    1.0944   
    17. B(H  14,C   3)                1.0958 -0.000150  0.0002    1.0960   
    18. B(H  15,C   4)                1.0920 -0.000125  0.0001    1.0921   
    19. B(H  16,C   4)                1.0926 -0.000106  0.0001    1.0927   
    20. B(H  17,C   5)                1.0958 -0.000149  0.0002    1.0960   
    21. B(H  18,C   6)                1.0921 -0.000130  0.0001    1.0923   
    22. B(H  19,C   6)                1.0919 -0.000117  0.0001    1.0921   
    23. B(H  20,C   7)                1.0953 -0.000129  0.0002    1.0955   
    24. B(H  21,C   8)                1.0921 -0.000133  0.0001    1.0922   
    25. B(H  22,C   8)                1.0920 -0.000114  0.0001    1.0921   
    26. B(H  23,C   9)                1.0909 -0.000118  0.0001    1.0910   
    27. B(H  24,C   9)                1.0909 -0.000113  0.0001    1.0910   
    28. B(H  25,C  10)                1.0920 -0.000125  0.0002    1.0922   
    29. B(H  26,C  10)                1.0943 -0.000079  0.0001    1.0944   
    30. A(C   1,O   0,H  11)          108.50 -0.000120    0.05    108.55   
    31. A(O   0,C   1,C  10)          111.13  0.000074   -0.02    111.11   
    32. A(C   2,C   1,C   9)          109.28 -0.000041    0.04    109.32   
    33. A(C   9,C   1,C  10)          109.27 -0.000031    0.04    109.31   
    34. A(O   0,C   1,C   9)          107.09  0.000051   -0.09    107.00   
    35. A(C   2,C   1,C  10)          108.91 -0.000112    0.04    108.95   
    36. A(O   0,C   1,C   2)          111.13  0.000060   -0.02    111.11   
    37. A(C   3,C   2,H  13)          110.02 -0.000062    0.03    110.05   
    38. A(C   1,C   2,H  12)          109.16 -0.000009   -0.02    109.13   
    39. A(C   1,C   2,H  13)          109.67  0.000007   -0.02    109.65   
    40. A(H  12,C   2,H  13)          107.85 -0.000006    0.03    107.88   
    41. A(C   1,C   2,C   3)          109.73  0.000139   -0.06    109.67   
    42. A(C   3,C   2,H  12)          110.38 -0.000071    0.05    110.42   
    43. A(C   2,C   3,H  14)          109.26  0.000041   -0.02    109.24   
    44. A(C   4,C   3,H  14)          109.49 -0.000026    0.00    109.49   
    45. A(C   4,C   3,C   8)          109.51  0.000054   -0.00    109.50   
    46. A(C   8,C   3,H  14)          109.54  0.000005   -0.00    109.53   
    47. A(C   2,C   3,C   4)          109.54 -0.000018   -0.00    109.53   
    48. A(C   2,C   3,C   8)          109.50 -0.000056    0.03    109.53   
    49. A(C   3,C   4,H  15)          109.87  0.000033   -0.02    109.85   
    50. A(C   3,C   4,C   5)          109.36 -0.000038    0.00    109.36   
    51. A(H  15,C   4,H  16)          107.75 -0.000063    0.04    107.79   
    52. A(C   5,C   4,H  16)          109.98  0.000028   -0.00    109.98   
    53. A(C   3,C   4,H  16)          109.98 -0.000000    0.00    109.98   
    54. A(C   5,C   4,H  15)          109.88  0.000041   -0.02    109.86   
    55. A(C   6,C   5,C  10)          109.52 -0.000050    0.02    109.53   
    56. A(C   4,C   5,C  10)          109.52 -0.000005    0.01    109.52   
    57. A(C   4,C   5,C   6)          109.51  0.000042   -0.00    109.50   
    58. A(C  10,C   5,H  17)          109.25  0.000014   -0.01    109.23   
    59. A(C   6,C   5,H  17)          109.55  0.000031   -0.01    109.54   
    60. A(C   4,C   5,H  17)          109.49 -0.000031    0.00    109.49   
    61. A(C   5,C   6,C   7)          109.35 -0.000059    0.01    109.36   
    62. A(H  18,C   6,H  19)          107.85 -0.000089    0.05    107.90   
    63. A(C   7,C   6,H  19)          109.91  0.000052   -0.01    109.90   
    64. A(C   5,C   6,H  19)          109.91  0.000009   -0.01    109.89   
    65. A(C   7,C   6,H  18)          109.94  0.000031   -0.01    109.93   
    66. A(C   5,C   6,H  18)          109.86  0.000057   -0.02    109.84   
    67. A(C   8,C   7,C   9)          109.57  0.000005   -0.01    109.55   
    68. A(C   6,C   7,C   9)          109.56  0.000000   -0.01    109.55   
    69. A(C   9,C   7,H  20)          109.14 -0.000070    0.02    109.16   
    70. A(C   8,C   7,H  20)          109.51  0.000042   -0.00    109.51   
    71. A(C   6,C   7,H  20)          109.53 -0.000009   -0.00    109.52   
    72. A(C   6,C   7,C   8)          109.52  0.000031    0.01    109.52   
    73. A(C   7,C   8,H  22)          109.91  0.000057   -0.01    109.90   
    74. A(C   3,C   8,H  22)          109.90  0.000043   -0.01    109.89   
    75. A(C   7,C   8,H  21)          109.94  0.000026   -0.01    109.93   
    76. A(H  21,C   8,H  22)          107.85 -0.000112    0.05    107.90   
    77. A(C   3,C   8,H  21)          109.87  0.000060   -0.03    109.84   
    78. A(C   3,C   8,C   7)          109.36 -0.000073    0.01    109.37   
    79. A(H  23,C   9,H  24)          107.71 -0.000062    0.04    107.75   
    80. A(C   1,C   9,C   7)          109.75  0.000090   -0.04    109.71   
    81. A(C   7,C   9,H  24)          110.66 -0.000248    0.09    110.76   
    82. A(C   1,C   9,H  24)          108.98  0.000264   -0.08    108.90   
    83. A(C   7,C   9,H  23)          110.67 -0.000176    0.09    110.76   
    84. A(C   1,C   9,H  23)          109.02  0.000142   -0.10    108.92   
    85. A(H  25,C  10,H  26)          107.86 -0.000015    0.03    107.89   
    86. A(C   5,C  10,H  26)          110.01 -0.000062    0.04    110.05   
    87. A(C   1,C  10,H  26)          109.64  0.000017   -0.01    109.63   
    88. A(C   5,C  10,H  25)          110.39 -0.000058    0.04    110.43   
    89. A(C   1,C  10,H  25)          109.16 -0.000006   -0.03    109.14   
    90. A(C   1,C  10,C   5)          109.74  0.000121   -0.06    109.67   
    91. D(C   9,C   1,O   0,H  11)   -180.00 -0.000007   -0.00   -180.00   
    92. D(C   2,C   1,O   0,H  11)     60.73 -0.000022    0.01     60.74   
    93. D(C  10,C   1,O   0,H  11)    -60.73  0.000029   -0.01    -60.74   
    94. D(C   3,C   2,C   1,C   9)     59.49 -0.000059    0.02     59.51   
    95. D(H  12,C   2,C   1,C   9)    -61.59 -0.000052    0.02    -61.57   
    96. D(C   3,C   2,C   1,C  10)    -59.80  0.000070   -0.08    -59.88   
    97. D(H  12,C   2,C   1,C  10)    179.12  0.000077   -0.08    179.04   
    98. D(C   3,C   2,C   1,O   0)    177.45  0.000014   -0.07    177.38   
    99. D(H  12,C   2,C   1,O   0)     56.37  0.000021   -0.08     56.30   
   100. D(C   8,C   3,C   2,H  12)     60.44  0.000034   -0.03     60.42   
   101. D(C   4,C   3,C   2,H  13)    -60.55 -0.000035    0.07    -60.48   
   102. D(C   4,C   3,C   2,C   1)     60.20  0.000023    0.02     60.22   
   103. D(C   8,C   3,C   2,H  13)    179.35 -0.000056    0.06    179.41   
   104. D(C   4,C   3,C   2,H  12)   -179.46  0.000055   -0.02   -179.47   
   105. D(C   8,C   3,C   2,C   1)    -59.90  0.000002    0.01    -59.88   
   106. D(H  15,C   4,C   3,H  14)     59.52 -0.000020    0.04     59.56   
   107. D(H  15,C   4,C   3,C   8)    -60.60 -0.000043    0.04    -60.55   
   108. D(H  15,C   4,C   3,C   2)    179.31  0.000004    0.02    179.32   
   109. D(C   5,C   4,C   3,C   8)     60.09  0.000004    0.01     60.10   
   110. D(C   5,C   4,C   3,H  14)   -179.80  0.000027    0.01   -179.79   
   111. D(C   5,C   4,C   3,C   2)    -60.01  0.000051   -0.02    -60.03   
   112. D(C  10,C   5,C   4,H  16)    -60.86 -0.000039    0.02    -60.84   
   113. D(C  10,C   5,C   4,H  15)   -179.31 -0.000003   -0.02   -179.33   
   114. D(C   6,C   5,C   4,H  16)    179.03 -0.000000   -0.01    179.03   
   115. D(C   6,C   5,C   4,H  15)     60.58  0.000035   -0.04     60.54   
   116. D(C   6,C   5,C   4,C   3)    -60.10 -0.000007   -0.01    -60.10   
   117. D(C  10,C   5,C   4,C   3)     60.01 -0.000046    0.02     60.03   
   118. D(C   7,C   6,C   5,H  17)   -179.82  0.000027   -0.02   -179.83   
   119. D(C   7,C   6,C   5,C   4)     60.09  0.000021   -0.01     60.08   
   120. D(C   7,C   6,C   5,C  10)    -60.01  0.000033   -0.03    -60.04   
   121. D(H  18,C   6,C   5,C   4)    -60.65 -0.000015    0.01    -60.64   
   122. D(H  18,C   6,C   5,H  17)     59.44 -0.000009    0.01     59.45   
   123. D(H  18,C   6,C   5,C  10)    179.24 -0.000004   -0.00    179.24   
   124. D(C   9,C   7,C   6,H  18)   -179.20  0.000036   -0.02   -179.22   
   125. D(C   8,C   7,C   6,H  19)    179.17 -0.000048    0.04    179.21   
   126. D(C   8,C   7,C   6,H  18)     60.59  0.000011   -0.00     60.59   
   127. D(C   8,C   7,C   6,C   5)    -60.10 -0.000042    0.03    -60.07   
   128. D(C   9,C   7,C   6,H  19)    -60.63 -0.000023    0.02    -60.60   
   129. D(C   9,C   7,C   6,C   5)     60.10 -0.000016    0.01     60.12   
   130. D(H  21,C   8,C   7,H  20)     59.51  0.000013    0.01     59.52   
   131. D(H  21,C   8,C   7,C   9)    179.19 -0.000044    0.02    179.21   
   132. D(H  21,C   8,C   7,C   6)    -60.61 -0.000022    0.01    -60.60   
   133. D(C   3,C   8,C   7,H  20)   -179.78  0.000057   -0.03   -179.81   
   134. D(C   3,C   8,C   7,C   9)    -60.10  0.000000   -0.01    -60.12   
   135. D(C   3,C   8,C   7,C   6)     60.10  0.000023   -0.03     60.07   
   136. D(H  21,C   8,C   3,H  14)    -59.41  0.000010   -0.02    -59.43   
   137. D(H  21,C   8,C   3,C   4)     60.67  0.000014   -0.02     60.65   
   138. D(H  21,C   8,C   3,C   2)   -179.21 -0.000009   -0.01   -179.23   
   139. D(C   7,C   8,C   3,H  14)    179.83 -0.000014    0.01    179.84   
   140. D(C   7,C   8,C   3,C   4)    -60.09 -0.000010    0.01    -60.08   
   141. D(C   7,C   8,C   3,C   2)     60.03 -0.000033    0.02     60.05   
   142. D(H  23,C   9,C   7,C   8)    -60.29 -0.000090    0.10    -60.20   
   143. D(H  23,C   9,C   7,C   6)    179.54 -0.000131    0.10    179.64   
   144. D(C   1,C   9,C   7,H  20)    179.98  0.000044    0.01    179.99   
   145. D(C   1,C   9,C   7,C   8)     60.07  0.000032    0.01     60.08   
   146. D(C   1,C   9,C   7,C   6)    -60.10 -0.000009    0.01    -60.09   
   147. D(H  23,C   9,C   1,C  10)   -179.10 -0.000157    0.06   -179.03   
   148. D(H  23,C   9,C   1,C   2)     61.83  0.000023   -0.03     61.80   
   149. D(H  23,C   9,C   1,O   0)    -58.64 -0.000056    0.02    -58.62   
   150. D(C   7,C   9,C   1,C  10)     59.55 -0.000086    0.04     59.59   
   151. D(C   7,C   9,C   1,C   2)    -59.53  0.000094   -0.05    -59.58   
   152. D(H  23,C   9,C   7,H  20)     59.61 -0.000078    0.10     59.72   
   153. D(C   7,C   9,C   1,O   0)   -180.00  0.000015   -0.00   -180.00   
   154. D(H  25,C  10,C   5,C   6)    -60.48 -0.000033    0.05    -60.43   
   155. D(H  25,C  10,C   5,C   4)    179.42 -0.000050    0.04    179.46   
   156. D(C   1,C  10,C   5,H  17)    179.86  0.000017   -0.01    179.85   
   157. D(C   1,C  10,C   5,C   6)     59.88  0.000001   -0.00     59.88   
   158. D(C   1,C  10,C   5,C   4)    -60.22 -0.000016   -0.01    -60.23   
   159. D(H  25,C  10,C   1,C   9)     61.62  0.000053   -0.03     61.59   
   160. D(H  25,C  10,C   1,C   2)   -179.08 -0.000082    0.06   -179.02   
   161. D(H  25,C  10,C   1,O   0)    -56.33 -0.000035    0.06    -56.28   
   162. D(C   5,C  10,C   1,C   9)    -59.48  0.000052   -0.03    -59.51   
   163. D(C   5,C  10,C   1,C   2)     59.82 -0.000083    0.07     59.89   
   164. D(H  25,C  10,C   5,H  17)     59.50 -0.000017    0.04     59.54   
   165. D(C   5,C  10,C   1,O   0)   -177.43 -0.000036    0.06   -177.37   
    ----------------------------------------------------------------------------

Geometry step timings:
Preparation and reading OPT file:      0.006 s (30.000 %)
Internal coordinates            :      0.000 s ( 0.000 %)
B/P matrices and projection     :      0.004 s (20.000 %)
Hessian update/contruction      :      0.003 s (15.000 %)
Making the step                 :      0.002 s (10.000 %)
Converting the step to Cartesian:      0.000 s ( 0.000 %)
Storing new data                :      0.001 s ( 5.000 %)
Checking convergence            :      0.000 s ( 0.000 %)
Final printing                  :      0.004 s (20.000 %)
Total time                      :      0.020 s

Time for energy+gradient        :      0.165 s
Time for complete geometry iter :      0.209 s

         *************************************************************
         *                GEOMETRY OPTIMIZATION CYCLE   5            *
         *************************************************************
---------------------------------
CARTESIAN COORDINATES (ANGSTROEM)
---------------------------------
  O     2.553981    1.116203    0.418324
  C     1.274449    0.545168    0.193364
  C     1.327775   -0.984362    0.288083
  C    -0.075728   -1.560238    0.105731
  C    -0.617461   -1.161274   -1.266686
  C    -0.675351    0.362909   -1.365102
  C    -1.597432    0.909850   -0.276057
  C    -1.055299    0.508863    1.095449
  C    -0.997245   -1.015030    1.196147
  C     0.345874    1.087025    1.280120
  C     0.727810    0.939975   -1.183835
  H     3.158790    0.788668   -0.256399
  H     1.732929   -1.268817    1.261632
  H     1.997817   -1.377577   -0.482670
  H    -0.029870   -2.652921    0.177229
  H    -1.616096   -1.580387   -1.407420
  H     0.026578   -1.561971   -2.053171
  H    -1.059968    0.651448   -2.349982
  H    -2.605470    0.510879   -0.409110
  H    -1.654722    1.997925   -0.349546
  H    -1.712701    0.902513    1.878332
  H    -1.998970   -1.434292    1.078788
  H    -0.623602   -1.308629    2.179402
  H     0.749654    0.817523    2.257171
  H     0.326122    2.176069    1.217269
  H     0.704998    2.029161   -1.261173
  H     1.393138    0.561319   -1.965888

----------------------------
CARTESIAN COORDINATES (A.U.)
----------------------------
  NO LB    ZA    FRAG    MASS        X           Y           Z
   0 O   8.0000    0    15.999    4.826325    2.109318    0.790517
   1 C   6.0000    0    12.011    2.408360    1.030218    0.365406
   2 C   6.0000    0    12.011    2.509131   -1.860175    0.544398
   3 C   6.0000    0    12.011   -0.143106   -2.948423    0.199802
   4 C   6.0000    0    12.011   -1.166832   -2.194490   -2.393690
   5 C   6.0000    0    12.011   -1.276228    0.685798   -2.579670
   6 C   6.0000    0    12.011   -3.018710    1.719368   -0.521673
   7 C   6.0000    0    12.011   -1.994227    0.961612    2.070099
   8 C   6.0000    0    12.011   -1.884520   -1.918130    2.260389
   9 C   6.0000    0    12.011    0.653607    2.054180    2.419076
  10 C   6.0000    0    12.011    1.375362    1.776296   -2.237125
  11 H   1.0000    0     1.008    5.969248    1.490366   -0.484525
  12 H   1.0000    0     1.008    3.274762   -2.397716    2.384138
  13 H   1.0000    0     1.008    3.775327   -2.603243   -0.912115
  14 H   1.0000    0     1.008   -0.056446   -5.013295    0.334915
  15 H   1.0000    0     1.008   -3.053978   -2.986499   -2.659638
  16 H   1.0000    0     1.008    0.050224   -2.951697   -3.879931
  17 H   1.0000    0     1.008   -2.003049    1.231059   -4.440822
  18 H   1.0000    0     1.008   -4.923624    0.965422   -0.773105
  19 H   1.0000    0     1.008   -3.126972    3.775530   -0.660546
  20 H   1.0000    0     1.008   -3.236536    1.705502    3.549533
  21 H   1.0000    0     1.008   -3.777506   -2.710418    2.038614
  22 H   1.0000    0     1.008   -1.178436   -2.472951    4.118474
  23 H   1.0000    0     1.008    1.416642    1.544895    4.265435
  24 H   1.0000    0     1.008    0.616282    4.112175    2.300305
  25 H   1.0000    0     1.008    1.332253    3.834558   -2.383272
  26 H   1.0000    0     1.008    2.632648    1.060740   -3.714991

      -----------------------------------------------------------      
     |                   =====================                   |     
     |                           x T B                           |     
     |                   =====================                   |     
     |                         S. Grimme                         |     
     |          Mulliken Center for Theoretical Chemistry        |     
     |                    University of Bonn                     |     
      -----------------------------------------------------------      

   * xtb version 6.7.1pre (5071a88) compiled by 'Marcel@Raven' on 2024-07-23

   xtb is free software: you can redistribute it and/or modify it under
   the terms of the GNU Lesser General Public License as published by
   the Free Software Foundation, either version 3 of the License, or
   (at your option) any later version.
   
   xtb is distributed in the hope that it will be useful,
   but WITHOUT ANY WARRANTY; without even the implied warranty of
   MERCHANTABILITY or FITNESS FOR A PARTICULAR PURPOSE.  See the
   GNU Lesser General Public License for more details.
   
   Cite this work as:
   * C. Bannwarth, E. Caldeweyher, S. Ehlert, A. Hansen, P. Pracht,
     J. Seibert, S. Spicher, S. Grimme, WIREs Comput. Mol. Sci., 2020, 11,
     e01493. DOI: 10.1002/wcms.1493
   
   for GFN2-xTB:
   * C. Bannwarth, S. Ehlert and S. Grimme., J. Chem. Theory Comput., 2019,
     15, 1652-1671. DOI: 10.1021/acs.jctc.8b01176
   for GFN1-xTB:
   * S. Grimme, C. Bannwarth, P. Shushkov, J. Chem. Theory Comput., 2017,
     13, 1989-2009. DOI: 10.1021/acs.jctc.7b00118
   for GFN0-xTB:
   * P. Pracht, E. Caldeweyher, S. Ehlert, S. Grimme, ChemRxiv, 2019, preprint.
     DOI: 10.26434/chemrxiv.8326202.v1
   for GFN-FF:
   * S. Spicher and S. Grimme, Angew. Chem. Int. Ed., 2020, 59, 15665-15673.
     DOI: 10.1002/anie.202004239
   
   for ALPB and GBSA implicit solvation:
   * S. Ehlert, M. Stahn, S. Spicher, S. Grimme, J. Chem. Theory Comput.,
     2021, 17, 4250-4261. DOI: 10.1021/acs.jctc.1c00471
   
   for ddCOSMO and CPCM-X implicit solvation:
   * M. Stahn, S. Ehlert, S. Grimme, J. Phys. Chem. A,
     2023, XX, XXXX-XXXX. DOI: 10.1021/acs.jpca.3c04382
   
   for DFT-D4:
   * E. Caldeweyher, C. Bannwarth and S. Grimme, J. Chem. Phys., 2017,
     147, 034112. DOI: 10.1063/1.4993215
   * E. Caldeweyher, S. Ehlert, A. Hansen, H. Neugebauer, S. Spicher,
     C. Bannwarth and S. Grimme, J. Chem. Phys., 2019, 150, 154122.
     DOI: 10.1063/1.5090222
   * E. Caldeweyher, J.-M. Mewes, S. Ehlert and S. Grimme, Phys. Chem. Chem. Phys.
     2020, 22, 8499-8512. DOI: 10.1039/D0CP00502A
   
   for sTDA-xTB:
   * S. Grimme and C. Bannwarth, J. Chem. Phys., 2016, 145, 054103.
     DOI: 10.1063/1.4959605
   
   in the mass-spec context:
   * V. Asgeirsson, C. Bauer and S. Grimme, Chem. Sci., 2017, 8, 4879.
     DOI: 10.1039/c7sc00601b
   * J. Koopman and S. Grimme, ACS Omega 2019, 4, 12, 15120-15133.
     DOI: 10.1021/acsomega.9b02011
   
   for metadynamics refer to:
   * S. Grimme, J. Chem. Theory Comput., 2019, 155, 2847-2862
     DOI: 10.1021/acs.jctc.9b00143
   
   for SPH calculations refer to:
   * S. Spicher and S. Grimme, J. Chem. Theory Comput., 2021, 17, 1701-1714
     DOI: 10.1021/acs.jctc.0c01306
   
   for ONIOM refer to:
   * C. Plett, A. Katbashev, S. Ehlert, S. Grimme, M. Bursch,
     Phys. Chem. Chem. Phys., 2023, 25, 17860-17868. DOI: 10.1039/D3CP02178E
   
   for DIPRO refer to:
   * J. Kohn, N. Gildemeister, S. Grimme, D. Fazzi, A. Hansen,
     J. Chem. Phys., 2023, just accepted.
   
   for PTB refer to:
   * S. Grimme, M. Mueller, A. Hansen, J. Chem. Phys., 2023, 158, 124111.
     DOI: 10.1063/5.0137838
   
   with help from (in alphabetical order)
   P. Atkinson, C. Bannwarth, F. Bohle, G. Brandenburg, E. Caldeweyher
   M. Checinski, S. Dohm, S. Ehlert, S. Ehrlich, I. Gerasimov, C. Hﾃｶlzer
   A. Katbashev, J. Kohn, J. Koopman, C. Lavigne, S. Lehtola, F. Mﾃ､rz, M. Mﾃｼller,
   F. Musil, H. Neugebauer, J. Pisarek, C. Plett, P. Pracht, F. Pultar,
   J. Seibert, P. Shushkov, S. Spicher, M. Stahn, M. Steiner, T. Strunk,
   J. Stﾃｼckrath, T. Rose, and J. Unsleber
   
 * started run on 2026/09/06 at 20:56:19.461     
   ID    Z sym.   atoms
    1    8 O      1
    2    6 C      2-11
    3    1 H      12-27

           -------------------------------------------------
          |                Calculation Setup                |
           -------------------------------------------------

          program call               : C:\ORCA_6.1.1\xtb-6.7.1pre\xtb.exe  Admantan-1-ol_XTB2_XTB.xyz --grad -c 0 -u 0 -P 4 --namespace Admantan-1-ol_XTB2 --input Admantan-1-ol_XTB2_XTB.input.tmp --acc 0.200000      
          calculation namespace      : Admantan-1-ol_XTB2
          coordinate file            : Admantan-1-ol_XTB2_XTB.xyz
          omp threads                :                     4


           -------------------------------------------------
          |                 G F N 2 - x T B                 |
           -------------------------------------------------

        Reference                      10.1021/acs.jctc.8b01176
      * Hamiltonian:
        H0-scaling (s, p, d)           1.850000    2.230000    2.230000
        zeta-weighting                 0.500000
      * Dispersion:
        s8                             2.700000
        a1                             0.520000
        a2                             5.000000
        s9                             5.000000
      * Repulsion:
        kExp                           1.500000    1.000000
        rExp                           1.000000
      * Coulomb:
        alpha                          2.000000
        third order                    shell-resolved
        anisotropic                    true
        a3                             3.000000
        a5                             4.000000
        cn-shift                       1.200000
        cn-exp                         4.000000
        max-rad                        5.000000

q/qsh data taken from xtbrestart
CAMM data taken from xtbrestart

          ...................................................
          :                      SETUP                      :
          :.................................................:
          :  # basis functions                  60          :
          :  # atomic orbitals                  60          :
          :  # shells                           38          :
          :  # electrons                        62          :
          :  max. iterations                   250          :
          :  Hamiltonian                  GFN2-xTB          :
          :  restarted?                       true          :
          :  GBSA solvation                  false          :
          :  PC potential                    false          :
          :  electronic temp.          300.0000000     K    :
          :  accuracy                    0.2000000          :
          :  -> integral cutoff          0.3198970E+02      :
          :  -> integral neglect         0.2000000E-08      :
          :  -> SCF convergence          0.2000000E-06 Eh   :
          :  -> wf. convergence          0.2000000E-04 e    :
          :  Broyden damping             0.4000000          :
          :  net charge                          0          :
          :  unpaired electrons                  0          :
          ...................................................

 iter      E             dE          RMSdq      gap      omega  full diag
   1    -34.1362808 -0.341363E+02  0.555E-03   11.24       0.0  T
   2    -34.1362808 -0.373709E-07  0.328E-03   11.24       5.9  T
   3    -34.1362808  0.377187E-08  0.843E-04   11.24      22.8  T
   4    -34.1362808 -0.784616E-08  0.121E-04   11.24     159.2  T
   5    -34.1362808 -0.816982E-10  0.594E-05   11.24     323.8  T

   *** convergence criteria satisfied after 5 iterations ***

         #    Occupation            Energy/Eh            Energy/eV
      -------------------------------------------------------------
         1        2.0000           -0.6794276             -18.4882
       ...           ...                  ...                  ...
        25        2.0000           -0.4359468             -11.8627
        26        2.0000           -0.4313988             -11.7390
        27        2.0000           -0.4292323             -11.6800
        28        2.0000           -0.4163876             -11.3305
        29        2.0000           -0.4148801             -11.2895
        30        2.0000           -0.3999278             -10.8826
        31        2.0000           -0.3895852             -10.6012 (HOMO)
        32                          0.0236431               0.6434 (LUMO)
        33                          0.0580049               1.5784
        34                          0.0631606               1.7187
        35                          0.0784153               2.1338
        36                          0.1003422               2.7305
       ...                                ...                  ...
        60                          0.3063726               8.3368
      -------------------------------------------------------------
                  HL-Gap            0.4132283 Eh           11.2445 eV
             Fermi-level           -0.1829710 Eh           -4.9789 eV

 SCC (total)                   0 d,  0 h,  0 min,  0.013 sec
 SCC setup                      ...        0 min,  0.001 sec (  7.692%)
 Dispersion                     ...        0 min,  0.000 sec (  0.000%)
 classical contributions        ...        0 min,  0.000 sec (  0.000%)
 integral evaluation            ...        0 min,  0.002 sec ( 15.385%)
 iterations                     ...        0 min,  0.006 sec ( 46.154%)
 molecular gradient             ...        0 min,  0.004 sec ( 30.769%)
 printout                       ...        0 min,  0.000 sec (  0.000%)

         :::::::::::::::::::::::::::::::::::::::::::::::::::::
         ::                     SUMMARY                     ::
         :::::::::::::::::::::::::::::::::::::::::::::::::::::
         :: total energy             -33.704610222583 Eh    ::
         :: gradient norm              0.000503961586 Eh/a0 ::
         :: HOMO-LUMO gap             11.244514155628 eV    ::
         ::.................................................::
         :: SCC energy               -34.136047197371 Eh    ::
         :: -> isotropic ES            0.028995006414 Eh    ::
         :: -> anisotropic ES          0.005552607523 Eh    ::
         :: -> anisotropic XC          0.011555458834 Eh    ::
         :: -> dispersion             -0.025474188281 Eh    ::
         :: repulsion energy           0.431436974788 Eh    ::
         :: add. restraining           0.000000000000 Eh    ::
         :: total charge               0.000000000000 e     ::
         :::::::::::::::::::::::::::::::::::::::::::::::::::::


Property printout bound to 'properties.out'

           -------------------------------------------------
          | TOTAL ENERGY              -33.704610222583 Eh   |
          | GRADIENT NORM               0.000503961586 Eh/ﾎｱ |
          | HOMO-LUMO GAP              11.244514155628 eV   |
           -------------------------------------------------

------------------------------------------------------------------------
 * finished run on 2026/09/06 at 20:56:19.557     
------------------------------------------------------------------------
 total:
 * wall-time:     0 d,  0 h,  0 min,  0.093 sec
 *  cpu-time:     0 d,  0 h,  0 min,  0.219 sec
 * ratio c/w:     2.352 speedup
 SCF:
 * wall-time:     0 d,  0 h,  0 min,  0.014 sec
 *  cpu-time:     0 d,  0 h,  0 min,  0.062 sec
 * ratio c/w:     4.464 speedup


-------------------------   --------------------
FINAL SINGLE POINT ENERGY       -33.704610222580
-------------------------   --------------------


-------------
DIPOLE MOMENT
-------------
                                X             Y             Z
Total Dipole Moment    :     -0.22700      -0.46300      -0.51300
                        -----------------------------------------
Magnitude (a.u.)       :      0.72737
Magnitude (Debye)      :      1.84883


------------------
CARTESIAN GRADIENT
------------------

   1   O   :    0.000237742    0.000038959   -0.000048936
   2   C   :   -0.000171335   -0.000033125    0.000027241
   3   C   :   -0.000057456    0.000024229   -0.000062748
   4   C   :    0.000050388   -0.000005997   -0.000008876
   5   C   :   -0.000057505   -0.000032791   -0.000028854
   6   C   :    0.000023275    0.000012088   -0.000010274
   7   C   :   -0.000059930    0.000008169    0.000002024
   8   C   :   -0.000034378   -0.000039329   -0.000054751
   9   C   :   -0.000065435   -0.000022250    0.000020312
  10   C   :    0.000271253   -0.000014890   -0.000076016
  11   C   :   -0.000041380   -0.000056753    0.000009266
  12   H   :   -0.000062121    0.000050718    0.000091470
  13   H   :   -0.000012493    0.000012131    0.000003657
  14   H   :   -0.000011143    0.000008908    0.000005436
  15   H   :    0.000025302    0.000030948   -0.000005511
  16   H   :    0.000034810   -0.000005453   -0.000009930
  17   H   :   -0.000020854    0.000000718    0.000009816
  18   H   :    0.000044194    0.000002756    0.000016804
  19   H   :    0.000018370    0.000031429    0.000010429
  20   H   :   -0.000018309   -0.000026494   -0.000005254
  21   H   :    0.000064301    0.000023004    0.000021876
  22   H   :    0.000024111    0.000014923    0.000032671
  23   H   :   -0.000018316   -0.000007751   -0.000021175
  24   H   :   -0.000091974    0.000023699    0.000021275
  25   H   :   -0.000062894   -0.000013997    0.000024564
  26   H   :   -0.000004764   -0.000008486    0.000013398
  27   H   :   -0.000003460   -0.000015363    0.000022085

Difference to translation invariance:
           :    0.0000000000   -0.0000000000   -0.0000000000

Difference to rotation invariance:
           :    0.0000000559   -0.0000001916    0.0000001449

Norm of the Cartesian gradient     ...    0.0005039616
RMS gradient                       ...    0.0000559957
MAX gradient                       ...    0.0002712527
------------------------------------------------------------------------------
                         ORCA GEOMETRY RELAXATION STEP
------------------------------------------------------------------------------

Reading the OPT-File                    .... done
Getting information on internals        .... done
Copying old internal coords+grads       .... done
Making the new internal coordinates     .... (2022 redundants) done
Validating the new internal coordinates .... (2022 redundants) done
Calculating the B-matrix                .... done
Calculating the G,G- and P matrices     .... done
Transforming gradient to internals      .... done
Projecting the internal gradient        .... done
Number of atoms                         ....  27
Number of internal coordinates          .... 165
Current Energy                          ....   -33.704610223 Eh
Current gradient norm                   ....     0.000503962 Eh/bohr
Maximum allowed component of the step   ....  0.300
Current trust radius                    ....  0.675
Updating the Hessian (BFGS)             .... done
Forming the augmented Hessian           .... done
Diagonalizing the augmented Hessian     .... done
Last element of RFO vector              ....  0.999996683
Lowest eigenvalues of augmented Hessian:
 -0.000000707  0.022046157  0.025423167  0.026628531  0.027055587
Length of the computed step             ....  0.002575714
The final length of the internal step   ....  0.002575714
Converting the step to Cartesian space:
 Initial RMS(Int)=    0.0002005191
Transforming coordinates:
 Iter   0:  RMS(Cart)=    0.0003191771 RMS(Int)=    0.4891433833
done
Storing new coordinates                 .... done
The predicted energy change is          ....    -0.000000354
Previously predicted energy change      ....    -0.000003049
Actually observed energy change         ....    -0.000003646
Ratio of predicted to observed change   ....     1.195796988
New trust radius                        ....     0.700000000

                                .--------------------.
          ----------------------|Geometry convergence|-------------------------
          Item                value                   Tolerance       Converged
          ---------------------------------------------------------------------
          Energy change      -0.0000036463            0.0000050000      YES
          RMS gradient        0.0000296513            0.0001000000      YES
          MAX gradient        0.0002011728            0.0003000000      YES
          RMS step            0.0002005191            0.0020000000      YES
          MAX step            0.0007251681            0.0040000000      YES
          -------------------------------------------------------------------------
          ........................................................
          Max(Bonds)      0.0002      Max(Angles)    0.04
          Max(Dihed)        0.04      Max(Improp)    0.00
          ---------------------------------------------------------------------

                    ***********************HURRAY********************
                    ***        THE OPTIMIZATION HAS CONVERGED     ***
                    *************************************************


    ---------------------------------------------------------------------------
                         Redundant Internal Coordinates

                          --- Optimized Parameters ---  
                            (Angstroem and degrees)

        Definition                    OldVal   dE/dq     Step     FinalVal
    ----------------------------------------------------------------------------
     1. B(C   1,O   0)                1.4191  0.000201 -0.0002    1.4189   
     2. B(C   2,C   1)                1.5334 -0.000037  0.0001    1.5335   
     3. B(C   3,C   2)                1.5280 -0.000025  0.0000    1.5280   
     4. B(C   4,C   3)                1.5285 -0.000003 -0.0000    1.5285   
     5. B(C   5,C   4)                1.5285  0.000003 -0.0000    1.5284   
     6. B(C   6,C   5)                1.5282  0.000015 -0.0000    1.5282   
     7. B(C   7,C   6)                1.5283  0.000016 -0.0000    1.5283   
     8. B(C   8,C   7)                1.5283  0.000009 -0.0000    1.5283   
     9. B(C   8,C   3)                1.5282  0.000038 -0.0001    1.5282   
    10. B(C   9,C   7)                1.5270  0.000042 -0.0001    1.5269   
    11. B(C   9,C   1)                1.5287 -0.000096  0.0002    1.5289   
    12. B(C  10,C   5)                1.5280 -0.000016  0.0000    1.5280   
    13. B(C  10,C   1)                1.5334 -0.000032  0.0001    1.5335   
    14. B(H  11,O   0)                0.9635 -0.000120  0.0002    0.9637   
    15. B(H  12,C   2)                1.0922 -0.000005  0.0000    1.0922   
    16. B(H  13,C   2)                1.0944 -0.000014  0.0000    1.0944   
    17. B(H  14,C   3)                1.0960 -0.000030  0.0001    1.0960   
    18. B(H  15,C   4)                1.0921 -0.000028  0.0001    1.0922   
    19. B(H  16,C   4)                1.0927 -0.000020  0.0000    1.0927   
    20. B(H  17,C   5)                1.0960 -0.000030  0.0001    1.0960   
    21. B(H  18,C   6)                1.0923 -0.000030  0.0001    1.0923   
    22. B(H  19,C   6)                1.0921 -0.000025  0.0000    1.0921   
    23. B(H  20,C   7)                1.0955 -0.000015  0.0000    1.0955   
    24. B(H  21,C   8)                1.0922 -0.000031  0.0001    1.0923   
    25. B(H  22,C   8)                1.0921 -0.000023  0.0000    1.0921   
    26. B(H  23,C   9)                1.0910 -0.000021  0.0000    1.0910   
    27. B(H  24,C   9)                1.0910 -0.000014  0.0000    1.0911   
    28. B(H  25,C  10)                1.0922 -0.000009  0.0000    1.0922   
    29. B(H  26,C  10)                1.0944 -0.000013  0.0000    1.0944   
    30. A(C   1,O   0,H  11)          108.55  0.000033    0.00    108.55   
    31. A(O   0,C   1,C  10)          111.11  0.000030   -0.01    111.10   
    32. A(C   2,C   1,C   9)          109.32  0.000007    0.00    109.32   
    33. A(C   9,C   1,C  10)          109.31  0.000009    0.01    109.32   
    34. A(O   0,C   1,C   9)          107.00 -0.000022   -0.01    106.99   
    35. A(C   2,C   1,C  10)          108.95 -0.000047    0.02    108.97   
    36. A(O   0,C   1,C   2)          111.11  0.000024   -0.01    111.10   
    37. A(C   3,C   2,H  13)          110.05 -0.000004    0.00    110.06   
    38. A(C   1,C   2,H  12)          109.13 -0.000026    0.00    109.14   
    39. A(C   1,C   2,H  13)          109.65 -0.000009   -0.00    109.64   
    40. A(H  12,C   2,H  13)          107.88  0.000008    0.00    107.89   
    41. A(C   1,C   2,C   3)          109.67  0.000044   -0.02    109.65   
    42. A(C   3,C   2,H  12)          110.42 -0.000013    0.01    110.43   
    43. A(C   2,C   3,H  14)          109.24 -0.000001    0.01    109.25   
    44. A(C   4,C   3,H  14)          109.49 -0.000009   -0.00    109.49   
    45. A(C   4,C   3,C   8)          109.50  0.000023    0.00    109.50   
    46. A(C   8,C   3,H  14)          109.53  0.000006   -0.00    109.53   
    47. A(C   2,C   3,C   4)          109.53 -0.000000   -0.01    109.53   
    48. A(C   2,C   3,C   8)          109.53 -0.000019    0.01    109.53   
    49. A(C   3,C   4,H  15)          109.85  0.000013   -0.01    109.85   
    50. A(C   3,C   4,C   5)          109.36 -0.000027    0.01    109.37   
    51. A(H  15,C   4,H  16)          107.79 -0.000017    0.01    107.80   
    52. A(C   5,C   4,H  16)          109.98  0.000005   -0.00    109.98   
    53. A(C   3,C   4,H  16)          109.98  0.000002   -0.00    109.98   
    54. A(C   5,C   4,H  15)          109.86  0.000025   -0.01    109.85   
    55. A(C   6,C   5,C  10)          109.53 -0.000013    0.00    109.54   
    56. A(C   4,C   5,C  10)          109.52  0.000002   -0.00    109.52   
    57. A(C   4,C   5,C   6)          109.50  0.000018   -0.00    109.50   
    58. A(C  10,C   5,H  17)          109.24 -0.000022    0.01    109.24   
    59. A(C   6,C   5,H  17)          109.54  0.000025   -0.01    109.53   
    60. A(C   4,C   5,H  17)          109.49 -0.000010   -0.00    109.49   
    61. A(C   5,C   6,C   7)          109.36 -0.000025    0.01    109.38   
    62. A(H  18,C   6,H  19)          107.90 -0.000026    0.01    107.91   
    63. A(C   7,C   6,H  19)          109.90  0.000016   -0.01    109.90   
    64. A(C   5,C   6,H  19)          109.89  0.000001   -0.00    109.89   
    65. A(C   7,C   6,H  18)          109.93  0.000016   -0.00    109.92   
    66. A(C   5,C   6,H  18)          109.84  0.000018   -0.01    109.83   
    67. A(C   8,C   7,C   9)          109.55  0.000008   -0.01    109.55   
    68. A(C   6,C   7,C   9)          109.55  0.000006   -0.01    109.55   
    69. A(C   9,C   7,H  20)          109.16 -0.000064    0.03    109.18   
    70. A(C   8,C   7,H  20)          109.51  0.000030   -0.00    109.51   
    71. A(C   6,C   7,H  20)          109.52  0.000007   -0.01    109.52   
    72. A(C   6,C   7,C   8)          109.52  0.000012    0.00    109.53   
    73. A(C   7,C   8,H  22)          109.90  0.000018   -0.00    109.90   
    74. A(C   3,C   8,H  22)          109.89 -0.000000    0.00    109.89   
    75. A(C   7,C   8,H  21)          109.93  0.000010   -0.00    109.92   
    76. A(H  21,C   8,H  22)          107.90 -0.000023    0.01    107.91   
    77. A(C   3,C   8,H  21)          109.84  0.000029   -0.01    109.83   
    78. A(C   3,C   8,C   7)          109.37 -0.000033    0.01    109.38   
    79. A(H  23,C   9,H  24)          107.75 -0.000001    0.01    107.76   
    80. A(C   1,C   9,C   7)          109.71  0.000000   -0.00    109.70   
    81. A(C   7,C   9,H  24)          110.75 -0.000082    0.03    110.78   
    82. A(C   1,C   9,H  24)          108.90  0.000078   -0.02    108.87   
    83. A(C   7,C   9,H  23)          110.76 -0.000053    0.03    110.78   
    84. A(C   1,C   9,H  23)          108.92  0.000063   -0.04    108.88   
    85. A(H  25,C  10,H  26)          107.89  0.000027   -0.00    107.89   
    86. A(C   5,C  10,H  26)          110.05 -0.000007    0.01    110.06   
    87. A(C   1,C  10,H  26)          109.63 -0.000031    0.01    109.64   
    88. A(C   5,C  10,H  25)          110.43 -0.000006    0.01    110.44   
    89. A(C   1,C  10,H  25)          109.14 -0.000019    0.00    109.14   
    90. A(C   1,C  10,C   5)          109.67  0.000036   -0.02    109.65   
    91. D(C   9,C   1,O   0,H  11)   -180.00 -0.000002   -0.00   -180.00   
    92. D(C   2,C   1,O   0,H  11)     60.74 -0.000011    0.01     60.75   
    93. D(C  10,C   1,O   0,H  11)    -60.74  0.000012   -0.01    -60.75   
    94. D(C   3,C   2,C   1,C   9)     59.51 -0.000004    0.01     59.52   
    95. D(H  12,C   2,C   1,C   9)    -61.57  0.000001    0.00    -61.57   
    96. D(C   3,C   2,C   1,C  10)    -59.88  0.000009   -0.01    -59.89   
    97. D(H  12,C   2,C   1,C  10)    179.04  0.000014   -0.02    179.02   
    98. D(C   3,C   2,C   1,O   0)    177.38 -0.000012   -0.01    177.37   
    99. D(H  12,C   2,C   1,O   0)     56.30 -0.000007   -0.01     56.29   
   100. D(C   8,C   3,C   2,H  12)     60.42 -0.000008   -0.00     60.41   
   101. D(C   4,C   3,C   2,H  13)    -60.48  0.000007    0.01    -60.47   
   102. D(C   4,C   3,C   2,C   1)     60.22  0.000021   -0.00     60.22   
   103. D(C   8,C   3,C   2,H  13)    179.41 -0.000009    0.01    179.42   
   104. D(C   4,C   3,C   2,H  12)   -179.47  0.000008   -0.00   -179.48   
   105. D(C   8,C   3,C   2,C   1)    -59.88  0.000005   -0.00    -59.89   
   106. D(H  15,C   4,C   3,H  14)     59.56  0.000005   -0.00     59.55   
   107. D(H  15,C   4,C   3,C   8)    -60.55 -0.000011    0.00    -60.55   
   108. D(H  15,C   4,C   3,C   2)    179.32 -0.000002   -0.00    179.32   
   109. D(C   5,C   4,C   3,C   8)     60.10  0.000010   -0.01     60.09   
   110. D(C   5,C   4,C   3,H  14)   -179.79  0.000026   -0.02   -179.81   
   111. D(C   5,C   4,C   3,C   2)    -60.03  0.000019   -0.01    -60.04   
   112. D(C  10,C   5,C   4,H  16)    -60.84 -0.000004    0.01    -60.84   
   113. D(C  10,C   5,C   4,H  15)   -179.33 -0.000002    0.00   -179.32   
   114. D(C   6,C   5,C   4,H  16)    179.03 -0.000000    0.01    179.04   
   115. D(C   6,C   5,C   4,H  15)     60.54  0.000003    0.00     60.55   
   116. D(C   6,C   5,C   4,C   3)    -60.10 -0.000012    0.01    -60.09   
   117. D(C  10,C   5,C   4,C   3)     60.03 -0.000016    0.01     60.04   
   118. D(C   7,C   6,C   5,H  17)   -179.83  0.000032   -0.02   -179.85   
   119. D(C   7,C   6,C   5,C   4)     60.08  0.000018   -0.01     60.07   
   120. D(C   7,C   6,C   5,C  10)    -60.04  0.000013   -0.01    -60.06   
   121. D(H  18,C   6,C   5,C   4)    -60.64  0.000002   -0.01    -60.65   
   122. D(H  18,C   6,C   5,H  17)     59.45  0.000016   -0.02     59.43   
   123. D(H  18,C   6,C   5,C  10)    179.24 -0.000003   -0.01    179.23   
   124. D(C   9,C   7,C   6,H  18)   -179.22  0.000019   -0.01   -179.23   
   125. D(C   8,C   7,C   6,H  19)    179.21 -0.000015    0.01    179.22   
   126. D(C   8,C   7,C   6,H  18)     60.59 -0.000002    0.01     60.60   
   127. D(C   8,C   7,C   6,C   5)    -60.07 -0.000019    0.01    -60.06   
   128. D(C   9,C   7,C   6,H  19)    -60.60  0.000007    0.00    -60.60   
   129. D(C   9,C   7,C   6,C   5)     60.12  0.000002    0.00     60.12   
   130. D(H  21,C   8,C   7,H  20)     59.52  0.000023   -0.01     59.51   
   131. D(H  21,C   8,C   7,C   9)    179.21 -0.000032    0.01    179.22   
   132. D(H  21,C   8,C   7,C   6)    -60.60 -0.000011   -0.00    -60.60   
   133. D(C   3,C   8,C   7,H  20)   -179.81  0.000044   -0.02   -179.83   
   134. D(C   3,C   8,C   7,C   9)    -60.12 -0.000011   -0.00    -60.12   
   135. D(C   3,C   8,C   7,C   6)     60.07  0.000010   -0.01     60.06   
   136. D(H  21,C   8,C   3,H  14)    -59.43 -0.000009    0.01    -59.43   
   137. D(H  21,C   8,C   3,C   4)     60.65 -0.000002    0.00     60.65   
   138. D(H  21,C   8,C   3,C   2)   -179.23  0.000000    0.00   -179.22   
   139. D(C   7,C   8,C   3,H  14)    179.84 -0.000018    0.01    179.86   
   140. D(C   7,C   8,C   3,C   4)    -60.08 -0.000012    0.01    -60.07   
   141. D(C   7,C   8,C   3,C   2)     60.05 -0.000010    0.01     60.06   
   142. D(H  23,C   9,C   7,C   8)    -60.19 -0.000028    0.03    -60.16   
   143. D(H  23,C   9,C   7,C   6)    179.64 -0.000052    0.04    179.68   
   144. D(C   1,C   9,C   7,H  20)    179.99  0.000019    0.01    179.99   
   145. D(C   1,C   9,C   7,C   8)     60.08  0.000016    0.00     60.08   
   146. D(C   1,C   9,C   7,C   6)    -60.09 -0.000008    0.01    -60.08   
   147. D(H  23,C   9,C   1,C  10)   -179.03 -0.000047    0.02   -179.01   
   148. D(H  23,C   9,C   1,C   2)     61.80  0.000001   -0.01     61.79   
   149. D(H  23,C   9,C   1,O   0)    -58.62 -0.000019    0.01    -58.61   
   150. D(C   7,C   9,C   1,C  10)     59.59 -0.000021    0.01     59.60   
   151. D(C   7,C   9,C   1,C   2)    -59.58  0.000027   -0.02    -59.60   
   152. D(H  23,C   9,C   7,H  20)     59.72 -0.000025    0.04     59.75   
   153. D(C   7,C   9,C   1,O   0)   -180.00  0.000007   -0.00   -180.00   
   154. D(H  25,C  10,C   5,C   6)    -60.43 -0.000001    0.02    -60.42   
   155. D(H  25,C  10,C   5,C   4)    179.46 -0.000016    0.02    179.47   
   156. D(C   1,C  10,C   5,H  17)    179.85  0.000004    0.00    179.86   
   157. D(C   1,C  10,C   5,C   6)     59.88 -0.000006    0.01     59.88   
   158. D(C   1,C  10,C   5,C   4)    -60.23 -0.000021    0.01    -60.23   
   159. D(H  25,C  10,C   1,C   9)     61.59  0.000005   -0.01     61.57   
   160. D(H  25,C  10,C   1,C   2)   -179.02 -0.000009    0.00   -179.01   
   161. D(H  25,C  10,C   1,O   0)    -56.28  0.000009   -0.00    -56.28   
   162. D(C   5,C  10,C   1,C   9)    -59.51  0.000002   -0.01    -59.52   
   163. D(C   5,C  10,C   1,C   2)     59.89 -0.000012    0.01     59.90   
   164. D(H  25,C  10,C   5,H  17)     59.54  0.000008    0.01     59.55   
   165. D(C   5,C  10,C   1,O   0)   -177.37  0.000006    0.00   -177.37   
    ----------------------------------------------------------------------------

Geometry step timings:
Preparation and reading OPT file:      0.005 s (17.857 %)
Internal coordinates            :      0.000 s ( 0.000 %)
B/P matrices and projection     :      0.005 s (17.857 %)
Hessian update/contruction      :      0.005 s (17.857 %)
Making the step                 :      0.004 s (14.286 %)
Converting the step to Cartesian:      0.000 s ( 0.000 %)
Storing new data                :      0.001 s ( 3.571 %)
Checking convergence            :      0.001 s ( 3.571 %)
Final printing                  :      0.007 s (25.000 %)
Total time                      :      0.028 s
                 *******************************************************
                 *** FINAL ENERGY EVALUATION AT THE STATIONARY POINT ***
                 ***               (AFTER    5 CYCLES)               ***
                 *******************************************************
---------------------------------
CARTESIAN COORDINATES (ANGSTROEM)
---------------------------------
  O     2.553591    1.116069    0.418281
  C     1.274252    0.545056    0.193254
  C     1.327885   -0.984528    0.288178
  C    -0.075714   -1.560254    0.105879
  C    -0.617295   -1.161214   -1.266572
  C    -0.675331    0.362949   -1.365118
  C    -1.597348    0.909878   -0.276070
  C    -1.055480    0.508909    1.095536
  C    -0.997217   -1.014970    1.196194
  C     0.345627    1.087016    1.280238
  C     0.727812    0.940160   -1.184010
  H     3.158567    0.788523   -0.256529
  H     1.733172   -1.268831    1.261725
  H     1.997909   -1.377701   -0.482641
  H    -0.030077   -2.653013    0.177407
  H    -1.616018   -1.580269   -1.407272
  H     0.026837   -1.561910   -2.053028
  H    -1.060250    0.651365   -2.349992
  H    -2.605391    0.510813   -0.409255
  H    -1.654497    1.998008   -0.349525
  H    -1.713310    0.902368    1.878208
  H    -1.998937   -1.434329    1.078595
  H    -0.623566   -1.308478    2.179520
  H     0.750095    0.817236    2.256967
  H     0.326495    2.176086    1.217284
  H     0.704994    2.029379   -1.261127
  H     1.393192    0.561685   -1.966131

----------------------------
CARTESIAN COORDINATES (A.U.)
----------------------------
  NO LB    ZA    FRAG    MASS        X           Y           Z
   0 O   8.0000    0    15.999    4.825589    2.109065    0.790436
   1 C   6.0000    0    12.011    2.407987    1.030007    0.365198
   2 C   6.0000    0    12.011    2.509339   -1.860488    0.544578
   3 C   6.0000    0    12.011   -0.143078   -2.948454    0.200082
   4 C   6.0000    0    12.011   -1.166519   -2.194377   -2.393474
   5 C   6.0000    0    12.011   -1.276190    0.685875   -2.579700
   6 C   6.0000    0    12.011   -3.018550    1.719421   -0.521698
   7 C   6.0000    0    12.011   -1.994568    0.961698    2.070264
   8 C   6.0000    0    12.011   -1.884466   -1.918016    2.260479
   9 C   6.0000    0    12.011    0.653140    2.054162    2.419300
  10 C   6.0000    0    12.011    1.375365    1.776645   -2.237454
  11 H   1.0000    0     1.008    5.968826    1.490092   -0.484770
  12 H   1.0000    0     1.008    3.275221   -2.397744    2.384314
  13 H   1.0000    0     1.008    3.775502   -2.603477   -0.912059
  14 H   1.0000    0     1.008   -0.056837   -5.013469    0.335251
  15 H   1.0000    0     1.008   -3.053831   -2.986276   -2.659358
  16 H   1.0000    0     1.008    0.050715   -2.951582   -3.879660
  17 H   1.0000    0     1.008   -2.003582    1.230901   -4.440841
  18 H   1.0000    0     1.008   -4.923475    0.965297   -0.773379
  19 H   1.0000    0     1.008   -3.126545    3.775687   -0.660506
  20 H   1.0000    0     1.008   -3.237686    1.705229    3.549300
  21 H   1.0000    0     1.008   -3.777443   -2.710490    2.038249
  22 H   1.0000    0     1.008   -1.178370   -2.472666    4.118696
  23 H   1.0000    0     1.008    1.417474    1.544351    4.265050
  24 H   1.0000    0     1.008    0.616987    4.112207    2.300333
  25 H   1.0000    0     1.008    1.332246    3.834971   -2.383185
  26 H   1.0000    0     1.008    2.632752    1.061431   -3.715449

      -----------------------------------------------------------      
     |                   =====================                   |     
     |                           x T B                           |     
     |                   =====================                   |     
     |                         S. Grimme                         |     
     |          Mulliken Center for Theoretical Chemistry        |     
     |                    University of Bonn                     |     
      -----------------------------------------------------------      

   * xtb version 6.7.1pre (5071a88) compiled by 'Marcel@Raven' on 2024-07-23

   xtb is free software: you can redistribute it and/or modify it under
   the terms of the GNU Lesser General Public License as published by
   the Free Software Foundation, either version 3 of the License, or
   (at your option) any later version.
   
   xtb is distributed in the hope that it will be useful,
   but WITHOUT ANY WARRANTY; without even the implied warranty of
   MERCHANTABILITY or FITNESS FOR A PARTICULAR PURPOSE.  See the
   GNU Lesser General Public License for more details.
   
   Cite this work as:
   * C. Bannwarth, E. Caldeweyher, S. Ehlert, A. Hansen, P. Pracht,
     J. Seibert, S. Spicher, S. Grimme, WIREs Comput. Mol. Sci., 2020, 11,
     e01493. DOI: 10.1002/wcms.1493
   
   for GFN2-xTB:
   * C. Bannwarth, S. Ehlert and S. Grimme., J. Chem. Theory Comput., 2019,
     15, 1652-1671. DOI: 10.1021/acs.jctc.8b01176
   for GFN1-xTB:
   * S. Grimme, C. Bannwarth, P. Shushkov, J. Chem. Theory Comput., 2017,
     13, 1989-2009. DOI: 10.1021/acs.jctc.7b00118
   for GFN0-xTB:
   * P. Pracht, E. Caldeweyher, S. Ehlert, S. Grimme, ChemRxiv, 2019, preprint.
     DOI: 10.26434/chemrxiv.8326202.v1
   for GFN-FF:
   * S. Spicher and S. Grimme, Angew. Chem. Int. Ed., 2020, 59, 15665-15673.
     DOI: 10.1002/anie.202004239
   
   for ALPB and GBSA implicit solvation:
   * S. Ehlert, M. Stahn, S. Spicher, S. Grimme, J. Chem. Theory Comput.,
     2021, 17, 4250-4261. DOI: 10.1021/acs.jctc.1c00471
   
   for ddCOSMO and CPCM-X implicit solvation:
   * M. Stahn, S. Ehlert, S. Grimme, J. Phys. Chem. A,
     2023, XX, XXXX-XXXX. DOI: 10.1021/acs.jpca.3c04382
   
   for DFT-D4:
   * E. Caldeweyher, C. Bannwarth and S. Grimme, J. Chem. Phys., 2017,
     147, 034112. DOI: 10.1063/1.4993215
   * E. Caldeweyher, S. Ehlert, A. Hansen, H. Neugebauer, S. Spicher,
     C. Bannwarth and S. Grimme, J. Chem. Phys., 2019, 150, 154122.
     DOI: 10.1063/1.5090222
   * E. Caldeweyher, J.-M. Mewes, S. Ehlert and S. Grimme, Phys. Chem. Chem. Phys.
     2020, 22, 8499-8512. DOI: 10.1039/D0CP00502A
   
   for sTDA-xTB:
   * S. Grimme and C. Bannwarth, J. Chem. Phys., 2016, 145, 054103.
     DOI: 10.1063/1.4959605
   
   in the mass-spec context:
   * V. Asgeirsson, C. Bauer and S. Grimme, Chem. Sci., 2017, 8, 4879.
     DOI: 10.1039/c7sc00601b
   * J. Koopman and S. Grimme, ACS Omega 2019, 4, 12, 15120-15133.
     DOI: 10.1021/acsomega.9b02011
   
   for metadynamics refer to:
   * S. Grimme, J. Chem. Theory Comput., 2019, 155, 2847-2862
     DOI: 10.1021/acs.jctc.9b00143
   
   for SPH calculations refer to:
   * S. Spicher and S. Grimme, J. Chem. Theory Comput., 2021, 17, 1701-1714
     DOI: 10.1021/acs.jctc.0c01306
   
   for ONIOM refer to:
   * C. Plett, A. Katbashev, S. Ehlert, S. Grimme, M. Bursch,
     Phys. Chem. Chem. Phys., 2023, 25, 17860-17868. DOI: 10.1039/D3CP02178E
   
   for DIPRO refer to:
   * J. Kohn, N. Gildemeister, S. Grimme, D. Fazzi, A. Hansen,
     J. Chem. Phys., 2023, just accepted.
   
   for PTB refer to:
   * S. Grimme, M. Mueller, A. Hansen, J. Chem. Phys., 2023, 158, 124111.
     DOI: 10.1063/5.0137838
   
   with help from (in alphabetical order)
   P. Atkinson, C. Bannwarth, F. Bohle, G. Brandenburg, E. Caldeweyher
   M. Checinski, S. Dohm, S. Ehlert, S. Ehrlich, I. Gerasimov, C. Hﾃｶlzer
   A. Katbashev, J. Kohn, J. Koopman, C. Lavigne, S. Lehtola, F. Mﾃ､rz, M. Mﾃｼller,
   F. Musil, H. Neugebauer, J. Pisarek, C. Plett, P. Pracht, F. Pultar,
   J. Seibert, P. Shushkov, S. Spicher, M. Stahn, M. Steiner, T. Strunk,
   J. Stﾃｼckrath, T. Rose, and J. Unsleber
   
 * started run on 2026/09/06 at 20:56:19.719     
   ID    Z sym.   atoms
    1    8 O      1
    2    6 C      2-11
    3    1 H      12-27

           -------------------------------------------------
          |                Calculation Setup                |
           -------------------------------------------------

          program call               : C:\ORCA_6.1.1\xtb-6.7.1pre\xtb.exe  Admantan-1-ol_XTB2_XTB.xyz --grad -c 0 -u 0 -P 4 --namespace Admantan-1-ol_XTB2 --input Admantan-1-ol_XTB2_XTB.input.tmp --acc 0.200000      
          calculation namespace      : Admantan-1-ol_XTB2
          coordinate file            : Admantan-1-ol_XTB2_XTB.xyz
          omp threads                :                     4


           -------------------------------------------------
          |                 G F N 2 - x T B                 |
           -------------------------------------------------

        Reference                      10.1021/acs.jctc.8b01176
      * Hamiltonian:
        H0-scaling (s, p, d)           1.850000    2.230000    2.230000
        zeta-weighting                 0.500000
      * Dispersion:
        s8                             2.700000
        a1                             0.520000
        a2                             5.000000
        s9                             5.000000
      * Repulsion:
        kExp                           1.500000    1.000000
        rExp                           1.000000
      * Coulomb:
        alpha                          2.000000
        third order                    shell-resolved
        anisotropic                    true
        a3                             3.000000
        a5                             4.000000
        cn-shift                       1.200000
        cn-exp                         4.000000
        max-rad                        5.000000

q/qsh data taken from xtbrestart
CAMM data taken from xtbrestart

          ...................................................
          :                      SETUP                      :
          :.................................................:
          :  # basis functions                  60          :
          :  # atomic orbitals                  60          :
          :  # shells                           38          :
          :  # electrons                        62          :
          :  max. iterations                   250          :
          :  Hamiltonian                  GFN2-xTB          :
          :  restarted?                       true          :
          :  GBSA solvation                  false          :
          :  PC potential                    false          :
          :  electronic temp.          300.0000000     K    :
          :  accuracy                    0.2000000          :
          :  -> integral cutoff          0.3198970E+02      :
          :  -> integral neglect         0.2000000E-08      :
          :  -> SCF convergence          0.2000000E-06 Eh   :
          :  -> wf. convergence          0.2000000E-04 e    :
          :  Broyden damping             0.4000000          :
          :  net charge                          0          :
          :  unpaired electrons                  0          :
          ...................................................

 iter      E             dE          RMSdq      gap      omega  full diag
   1    -34.1361723 -0.341362E+02  0.182E-03   11.25       0.0  T
   2    -34.1361723 -0.161496E-08  0.107E-03   11.25      18.0  T
   3    -34.1361723 -0.175980E-09  0.106E-04   11.25     180.7  T
   4    -34.1361723 -0.117403E-09  0.439E-05   11.25     438.7  T

   *** convergence criteria satisfied after 4 iterations ***

         #    Occupation            Energy/Eh            Energy/eV
      -------------------------------------------------------------
         1        2.0000           -0.6794409             -18.4885
       ...           ...                  ...                  ...
        25        2.0000           -0.4359299             -11.8623
        26        2.0000           -0.4314041             -11.7391
        27        2.0000           -0.4292235             -11.6798
        28        2.0000           -0.4163805             -11.3303
        29        2.0000           -0.4148738             -11.2893
        30        2.0000           -0.3999191             -10.8824
        31        2.0000           -0.3895825             -10.6011 (HOMO)
        32                          0.0237480               0.6462 (LUMO)
        33                          0.0579416               1.5767
        34                          0.0631466               1.7183
        35                          0.0783480               2.1320
        36                          0.1002069               2.7268
       ...                                ...                  ...
        60                          0.3063269               8.3356
      -------------------------------------------------------------
                  HL-Gap            0.4133305 Eh           11.2473 eV
             Fermi-level           -0.1829173 Eh           -4.9774 eV

 SCC (total)                   0 d,  0 h,  0 min,  0.013 sec
 SCC setup                      ...        0 min,  0.000 sec (  0.000%)
 Dispersion                     ...        0 min,  0.000 sec (  0.000%)
 classical contributions        ...        0 min,  0.000 sec (  0.000%)
 integral evaluation            ...        0 min,  0.002 sec ( 15.385%)
 iterations                     ...        0 min,  0.005 sec ( 38.461%)
 molecular gradient             ...        0 min,  0.005 sec ( 38.462%)
 printout                       ...        0 min,  0.001 sec (  7.692%)

         :::::::::::::::::::::::::::::::::::::::::::::::::::::
         ::                     SUMMARY                     ::
         :::::::::::::::::::::::::::::::::::::::::::::::::::::
         :: total energy             -33.704610658429 Eh    ::
         :: gradient norm              0.000220032522 Eh/a0 ::
         :: HOMO-LUMO gap             11.247296741401 eV    ::
         ::.................................................::
         :: SCC energy               -34.135938683362 Eh    ::
         :: -> isotropic ES            0.028992784027 Eh    ::
         :: -> anisotropic ES          0.005551928869 Eh    ::
         :: -> anisotropic XC          0.011558941078 Eh    ::
         :: -> dispersion             -0.025474347931 Eh    ::
         :: repulsion energy           0.431328024932 Eh    ::
         :: add. restraining           0.000000000000 Eh    ::
         :: total charge              -0.000000000000 e     ::
         :::::::::::::::::::::::::::::::::::::::::::::::::::::


Property printout bound to 'properties.out'

           -------------------------------------------------
          | TOTAL ENERGY              -33.704610658429 Eh   |
          | GRADIENT NORM               0.000220032522 Eh/ﾎｱ |
          | HOMO-LUMO GAP              11.247296741401 eV   |
           -------------------------------------------------

------------------------------------------------------------------------
 * finished run on 2026/09/06 at 20:56:19.774     
------------------------------------------------------------------------
 total:
 * wall-time:     0 d,  0 h,  0 min,  0.052 sec
 *  cpu-time:     0 d,  0 h,  0 min,  0.188 sec
 * ratio c/w:     3.606 speedup
 SCF:
 * wall-time:     0 d,  0 h,  0 min,  0.014 sec
 *  cpu-time:     0 d,  0 h,  0 min,  0.062 sec
 * ratio c/w:     4.464 speedup


-------------------------   --------------------
FINAL SINGLE POINT ENERGY       -33.704610658430
-------------------------   --------------------


-------------
DIPOLE MOMENT
-------------
                                X             Y             Z
Total Dipole Moment    :     -0.22700      -0.46300      -0.51300
                        -----------------------------------------
Magnitude (a.u.)       :      0.72737
Magnitude (Debye)      :      1.84883

                                *** OPTIMIZATION RUN DONE ***


--------------------------------
SUGGESTED CITATIONS FOR THIS RUN
--------------------------------

Below you find a list of papers that are relevant to this ORCA run
We neither can nor want to force you to cite these papers, but we appreciate if you do
You receive ORCA, which is the product of decades of hard work by many enthusiastic individuals, for free
The only thing we kindly ask in return is that you cite our papers,
We deeply appreciate it, if you show your appreciation for ORCA by not just citing the generic ORCA reference.

Please note that relegating all ORCA citations to the supporting information does *not* help us.
SI sections are not indexed - citations you put there will not count into any citation statistics
But we need these citations in order to attract the funding resources that allow us to do what we are doing

Therefore, if you are a happy ORCA user, please consider citing a few of the papers listed below in the main body of your paper

In addition to the list printed below, the program has created the file Admantan-1-ol_XTB2.bibtex that contains the list in bibtex format
You can import this file easily into all common literature databanks and citation aid programs

It goes without saying that in many instances, there are alternative algorithms to achieve similar
results as the ones you have gotten from ORCA. It is, of course, also the case that in some instances
ORCA just re-implements algorithms worked out by others. We are fully aware of that and we are also
fully appreciative of our colleagues work. Hence this citation list should not be read as indicating
that the listed papers, which are focused on our own work, are the only ones worth citing. It simply
meant to make it easier for users to cite ORCA specific papers. It is not a substitute for doing your
own literature research and citing the relevant literature in a scientifically appropriate manner.

List of essential papers. We consider these as the minimum necessary citations

  1. Bannwarth, C.; Ehlert, S.; Grimme, S.
     GFN2-xTB窶尿n Accurate and Broadly Parametrized Self-Consistent Tight-Binding Quantum Chemical Method with Multipole Electrostatics and Density-Dependent Dispersion Contributions
     J. Chem. Theory Comput. 2019 15(3), 1652-1671
     doi.org/10.1021/acs.jctc.8b01176
  2. Neese, F.
     Software update: the ORCA program system, version 6.0
     WIRES Comput. Molec. Sci. 2025 15(1), e70019
     doi.org/10.1002/wcms.70019

List of papers to cite with high priority. The work reported in these papers was absolutely
necessary for this run to complete.
Our perspective: the developers of density functionals and basis sets usually get cited in chemistry papers
Good! But without the algorithms to do something with them, the functionals or basis sets would not do anything.
Hence, in our opinion, the algorithm design and method developments papers are equally worthy of getting cited

  1. Bannwarth, C.; Caldeweyher, E.; Ehlert, S.; Hansen, A.; Pracht, P.; Seibert, J.; Spicher, S.; Grimme, S.
     Extended tight-binding quantum chemistry methods
     WIRES Comput. Molec. Sci. 2020 11(2), e1493
     doi.org/10.1002/wcms.1493

List of suggested additional citations. These are papers that are important in the 'surrounding' of 
of this run, or papers that preceded the highly important papers. If you like your results we are grateful for a citation.

  1. Neese, F.
     The ORCA program system
     WIRES Comput. Molec. Sci. 2012 2(1), 73-78
     doi.org/10.1002/wcms.81
  2. Neese, F.
     Software update: the ORCA program system, version 4.0
     WIRES Comput. Molec. Sci. 2018 8(1), 1-6
     doi.org/10.1002/wcms.1327
  3. Neese, F.; Wennmohs, F.; Becker, U.; Riplinger, C.
     The ORCA quantum chemistry program package
     J. Chem. Phys. 2020 152(22), 224108
     doi.org/10.1063/5.0004608
  4. Neese, F.
     Software update: The ORCA program system窶之ersion 5.0
     WIRES Comput. Molec. Sci. 2022 12(1), e1606
     doi.org/10.1002/wcms.1606

List of optional additional citations

  1. Neese, F.
     Approximate second-order SCF convergence for spin unrestricted wavefunctions
     Chem. Phys. Lett. 2000 325(1-3), 93-98
     doi.org/10.1016/s0009-2614(00)00662-x

Timings for individual modules:

Sum of individual times          ...        1.037 sec (=   0.017 min)
Geometry relaxation              ...        0.150 sec (=   0.003 min)  14.5 %
XTB module                       ...        0.887 sec (=   0.015 min)  85.5 %
                             ****ORCA TERMINATED NORMALLY****
TOTAL RUN TIME: 0 days 0 hours 0 minutes 1 seconds 801 msec
