27
Coordinates from ORCA-job Admantan-1-ol_XTB2 E -33.697885125520
  O       2.577255      1.104751      0.393833
  C       1.296837      0.556671      0.199188
  C       1.348361     -0.991413      0.302129
  C      -0.069177     -1.575513      0.110635
  C      -0.610495     -1.168041     -1.278216
  C      -0.676514      0.372532     -1.379426
  C      -1.610863      0.920430     -0.278303
  C      -1.067438      0.516147      1.109868
  C      -1.004661     -1.023986      1.208980
  C       0.350315      1.101262      1.296965
  C       0.739422      0.961767     -1.191856
  H       3.170538      0.745887     -0.317133
  H       1.751338     -1.294928      1.293604
  H       2.029549     -1.406245     -0.473429
  H      -0.026595     -2.684096      0.181813
  H      -1.622816     -1.601994     -1.432937
  H       0.048929     -1.573377     -2.076907
  H      -1.069933      0.662413     -2.377938
  H      -2.638127      0.517037     -0.416393
  H      -1.677217      2.028198     -0.352609
  H      -1.740132      0.911934      1.901488
  H      -2.023585     -1.454133      1.091351
  H      -0.631691     -1.325371      2.212539
  H       0.738527      0.830733      2.303915
  H       0.307913      2.211932      1.247428
  H       0.702243      2.070071     -1.280274
  H       1.408013      0.587332     -1.998313
27
Coordinates from ORCA-job Admantan-1-ol_XTB2 E -33.704414733580
  O       2.559836      1.108271      0.405568
  C       1.281853      0.549239      0.195802
  C       1.329151     -0.982055      0.294210
  C      -0.073741     -1.559989      0.106767
  C      -0.611619     -1.158524     -1.265814
  C      -0.673889      0.364836     -1.364988
  C      -1.595761      0.909071     -0.275672
  C      -1.053924      0.509291      1.095571
  C      -0.995942     -1.014089      1.194888
  C       0.349164      1.087816      1.279624
  C       0.728247      0.945450     -1.180205
  H       3.151150      0.767357     -0.281055
  H       1.727520     -1.274286      1.269601
  H       2.000996     -1.385138     -0.471947
  H      -0.031133     -2.653523      0.177427
  H      -1.608804     -1.582628     -1.413691
  H       0.036157     -1.557739     -2.052116
  H      -1.061293      0.651764     -2.349983
  H      -2.606029      0.511357     -0.409097
  H      -1.657268      1.998545     -0.349137
  H      -1.713307      0.901772      1.877996
  H      -1.999058     -1.434897      1.079562
  H      -0.624996     -1.309497      2.180418
  H       0.739723      0.820878      2.264730
  H       0.316388      2.178723      1.224183
  H       0.696459      2.035260     -1.262590
  H       1.390119      0.572734     -1.970050
27
Coordinates from ORCA-job Admantan-1-ol_XTB2 E -33.704568284360
  O       2.557656      1.112976      0.412618
  C       1.278511      0.547303      0.194612
  C       1.327761     -0.982566      0.290597
  C      -0.075063     -1.559906      0.105789
  C      -0.615087     -1.160026     -1.266354
  C      -0.674789      0.363453     -1.364842
  C      -1.596593      0.909245     -0.275813
  C      -1.053927      0.508895      1.095061
  C      -0.996587     -1.014537      1.195257
  C       0.348156      1.087009      1.279029
  C       0.727811      0.941789     -1.181388
  H       3.154682      0.779887     -0.266136
  H       1.729217     -1.270650      1.264342
  H       1.998529     -1.380406     -0.477307
  H      -0.030560     -2.652345      0.176769
  H      -1.612270     -1.581412     -1.410563
  H       0.030179     -1.559842     -2.052378
  H      -1.060160      0.651173     -2.349299
  H      -2.605181      0.511454     -0.408565
  H      -1.656121      1.997267     -0.349361
  H      -1.711099      0.902224      1.877721
  H      -1.998446     -1.434044      1.079579
  H      -0.624476     -1.309025      2.178914
  H       0.744451      0.819401      2.259708
  H       0.321436      2.176168      1.220061
  H       0.700809      2.030446     -1.261365
  H       1.391162      0.566068     -1.966687
27
Coordinates from ORCA-job Admantan-1-ol_XTB2 E -33.704606576280
  O       2.555141      1.115900      0.417481
  C       1.275446      0.545685      0.193690
  C       1.327582     -0.983792      0.288341
  C      -0.075679     -1.560175      0.105533
  C      -0.617277     -1.161165     -1.266791
  C      -0.675308      0.362901     -1.365054
  C      -1.597396      0.909735     -0.276002
  C      -1.054818      0.508823      1.095276
  C      -0.997167     -1.015023      1.195967
  C       0.346571      1.086977      1.279712
  C       0.727800      0.939983     -1.183161
  H       3.158259      0.787564     -0.257579
  H       1.731954     -1.268989      1.261835
  H       1.997753     -1.377831     -0.481793
  H      -0.029845     -2.652639      0.176889
  H      -1.615486     -1.580713     -1.408181
  H       0.026816     -1.561695     -2.053174
  H      -1.059711      0.651373     -2.349784
  H      -2.605471      0.511167     -0.408816
  H      -1.655221      1.997659     -0.349543
  H      -1.711650      0.902615      1.878284
  H      -1.998848     -1.434188      1.079245
  H      -0.623819     -1.308855      2.179141
  H       0.748352      0.818126      2.257642
  H       0.325003      2.175931      1.217680
  H       0.704307      2.028952     -1.261184
  H       1.392711      0.561674     -1.965654
27
Coordinates from ORCA-job Admantan-1-ol_XTB2 E -33.704610222580
  O       2.553981      1.116203      0.418324
  C       1.274449      0.545168      0.193364
  C       1.327775     -0.984362      0.288083
  C      -0.075728     -1.560238      0.105731
  C      -0.617461     -1.161274     -1.266686
  C      -0.675351      0.362909     -1.365102
  C      -1.597432      0.909850     -0.276057
  C      -1.055299      0.508863      1.095449
  C      -0.997245     -1.015030      1.196147
  C       0.345874      1.087025      1.280120
  C       0.727810      0.939975     -1.183835
  H       3.158790      0.788668     -0.256399
  H       1.732929     -1.268817      1.261632
  H       1.997817     -1.377577     -0.482670
  H      -0.029870     -2.652921      0.177229
  H      -1.616096     -1.580387     -1.407420
  H       0.026578     -1.561971     -2.053171
  H      -1.059968      0.651448     -2.349982
  H      -2.605470      0.510879     -0.409110
  H      -1.654722      1.997925     -0.349546
  H      -1.712701      0.902513      1.878332
  H      -1.998970     -1.434292      1.078788
  H      -0.623602     -1.308629      2.179402
  H       0.749654      0.817523      2.257171
  H       0.326122      2.176069      1.217269
  H       0.704998      2.029161     -1.261173
  H       1.393138      0.561319     -1.965888
27
Coordinates from ORCA-job Admantan-1-ol_XTB2 E -33.704610658430
  O       2.553591      1.116069      0.418281
  C       1.274252      0.545056      0.193254
  C       1.327885     -0.984528      0.288178
  C      -0.075714     -1.560254      0.105879
  C      -0.617295     -1.161214     -1.266572
  C      -0.675331      0.362949     -1.365118
  C      -1.597348      0.909878     -0.276070
  C      -1.055480      0.508909      1.095536
  C      -0.997217     -1.014970      1.196194
  C       0.345627      1.087016      1.280238
  C       0.727812      0.940160     -1.184010
  H       3.158567      0.788523     -0.256529
  H       1.733172     -1.268831      1.261725
  H       1.997909     -1.377701     -0.482641
  H      -0.030077     -2.653013      0.177407
  H      -1.616018     -1.580269     -1.407272
  H       0.026837     -1.561910     -2.053028
  H      -1.060250      0.651365     -2.349992
  H      -2.605391      0.510813     -0.409255
  H      -1.654497      1.998008     -0.349525
  H      -1.713310      0.902368      1.878208
  H      -1.998937     -1.434329      1.078595
  H      -0.623566     -1.308478      2.179520
  H       0.750095      0.817236      2.256967
  H       0.326495      2.176086      1.217284
  H       0.704994      2.029379     -1.261127
  H       1.393192      0.561685     -1.966131
