6
Coordinates from ORCA-job Monomer_XTB2_ALPB E  -8.696517673980
  N           0.00043346446615      0.00000000000001      1.12907324370952
  C          -0.00025275853895      0.00000000000004     -0.01569501727811
  C          -0.00014600267792     -0.00000000000003     -1.44931294611773
  H           1.02752320053564     -0.00000000000001     -1.81052096023816
  H          -0.51377895189246      0.88974916229367     -1.81127216003771
  H          -0.51377895189245     -0.88974916229368     -1.81127216003781
