83
Coordinates from ORCA-job Apixaban_Explicit4MeOH_SMD_methanol_Opt_KeepDens E -2004.999677531500
  C      23.934182    -17.496641     -0.163722
  C      24.124327    -18.705588      0.746211
  C      25.443402    -19.427179      0.593949
  N      26.468469    -18.783372     -0.018404
  C      26.367421    -17.452540     -0.662429
  C      25.197223    -16.648809     -0.129075
  C      27.724940    -19.455087     -0.172550
  C      28.529889    -19.696645      0.939921
  C      29.756951    -20.324885      0.787221
  C      30.196659    -20.698277     -0.485495
  C      29.393786    -20.449828     -1.598346
  C      28.156053    -19.835333     -1.439446
  N      31.448270    -21.362290     -0.639731
  C      31.525338    -22.480603     -1.615375
  C      32.519537    -23.555173     -1.186128
  C      33.797775    -22.888939     -0.814769
  C      33.788835    -21.584985     -0.354229
  C      32.588604    -20.767876     -0.156751
  O      25.577958    -20.577198      1.051161
  O      32.600210    -19.669883      0.412107
  C      35.152673    -23.259222     -0.795338
  N      35.921665    -22.241696     -0.361112
  N      35.086753    -21.238125     -0.087790
  C      35.614652    -20.001149      0.405510
  C      35.744200    -24.558661     -1.173083
  N      37.085879    -24.625861     -1.173032
  O      35.014459    -25.519753     -1.468241
  C      35.424825    -19.650883      1.740727
  C      35.960616    -18.467724      2.215085
  C      36.693244    -17.634712      1.358067
  C      36.889895    -17.996315      0.022626
  C      36.344135    -19.187831     -0.448276
  O      37.175778    -16.494477      1.922421
  C      37.945662    -15.609908      1.092700
  H      23.741452    -17.828344     -1.192906
  H      23.060735    -16.921166      0.161646
  H      24.075357    -18.396670      1.800552
  H      23.338395    -19.455355      0.606406
  H      27.314927    -16.932891     -0.479916
  H      26.267606    -17.590375     -1.748497
  H      25.402512    -16.326637      0.900703
  H      25.094057    -15.747719     -0.743736
  H      28.186975    -19.403458      1.928030
  H      30.372378    -20.533760      1.656306
  H      29.727442    -20.731441     -2.592380
  H      27.528447    -19.652249     -2.306959
  H      30.523834    -22.908149     -1.698107
  H      31.814666    -22.083304     -2.598300
  H      32.130805    -24.125727     -0.331224
  H      32.652354    -24.257244     -2.013605
  H      37.649641    -23.827097     -0.922462
  H      37.538763    -25.497381     -1.407139
  H      34.859362    -20.302903      2.399845
  H      35.825956    -18.173711      3.251940
  H      37.453955    -17.369051     -0.657551
  H      36.484195    -19.477534     -1.485927
  H      37.346881    -15.238005      0.252825
  H      38.228226    -14.775618      1.736973
  H      38.848814    -16.107763      0.720106
  O      24.045571    -22.301295     -0.214988
  H      24.583956    -21.682174      0.293502
  C      22.968860    -22.734418      0.629719
  H      23.341003    -23.255814      1.522106
  H      22.338412    -21.891488      0.943754
  H      22.360163    -23.429646      0.045021
  O      33.879529    -17.057085      0.496831
  H      33.455272    -17.923360      0.460723
  C      33.045588    -16.135825     -0.221679
  H      32.942322    -16.423738     -1.276734
  H      32.046605    -16.060302      0.228813
  H      33.528954    -15.156297     -0.170614
  O      32.651113    -26.967058     -2.329973
  H      33.438974    -26.479228     -2.059739
  C      32.121284    -27.614888     -1.163769
  H      32.838698    -28.329896     -0.738590
  H      31.839697    -26.886935     -0.390849
  H      31.226019    -28.159439     -1.476324
  O      38.708037    -21.591805     -0.934281
  H      37.783183    -21.803423     -0.756537
  C      39.396229    -21.564914      0.325125
  H      38.989027    -20.791784      0.990824
  H      39.346460    -22.537734      0.832822
  H      40.443655    -21.331429      0.115106
83
Coordinates from ORCA-job Apixaban_Explicit4MeOH_SMD_methanol_Opt_KeepDens E -2005.002590106790
  C      23.885033    -17.535043     -0.173860
  C      24.110587    -18.726942      0.749577
  C      25.443032    -19.418136      0.592825
  N      26.446076    -18.765084     -0.036944
  C      26.311117    -17.445263     -0.697261
  C      25.129397    -16.659451     -0.163054
  C      27.713320    -19.416591     -0.194366
  C      28.529218    -19.634471      0.914752
  C      29.760598    -20.253547      0.760422
  C      30.192857    -20.639743     -0.510872
  C      29.380872    -20.410215     -1.621153
  C      28.138620    -19.806052     -1.460313
  N      31.443001    -21.307041     -0.664719
  C      31.509086    -22.431337     -1.632196
  C      32.496938    -23.507150     -1.202199
  C      33.779273    -22.847774     -0.836102
  C      33.784697    -21.538886     -0.376626
  C      32.584075    -20.708366     -0.194866
  O      25.610957    -20.561963      1.065909
  O      32.577896    -19.592075      0.341666
  C      35.127358    -23.237524     -0.820913
  N      35.904432    -22.230216     -0.382658
  N      35.088019    -21.217156     -0.097327
  C      35.658621    -20.017137      0.434488
  C      35.706509    -24.544654     -1.194294
  N      37.045786    -24.630846     -1.182219
  O      34.969088    -25.500149     -1.490450
  C      35.539203    -19.744137      1.795812
  C      36.143497    -18.616196      2.315561
  C      36.855986    -17.753420      1.473207
  C      36.994383    -18.044965      0.114198
  C      36.393704    -19.189402     -0.400078
  O      37.347247    -16.632968      2.064354
  C      37.985400    -15.670646      1.213083
  H      23.688960    -17.884603     -1.196342
  H      23.003110    -16.974892      0.153703
  H      24.065609    -18.406498      1.800715
  H      23.340865    -19.496979      0.627038
  H      27.248882    -16.904206     -0.531128
  H      26.203887    -17.601370     -1.779799
  H      25.337862    -16.318892      0.860084
  H      25.000868    -15.769626     -0.789007
  H      28.189762    -19.334641      1.902068
  H      30.383096    -20.448934      1.627609
  H      29.708445    -20.703495     -2.613777
  H      27.501578    -19.641820     -2.324663
  H      30.505076    -22.854014     -1.707283
  H      31.795938    -22.041216     -2.618458
  H      32.108131    -24.072280     -0.343804
  H      32.620774    -24.211335     -2.029087
  H      37.620423    -23.839474     -0.926896
  H      37.488350    -25.509612     -1.410386
  H      34.978732    -20.415784      2.439548
  H      36.054116    -18.373757      3.370504
  H      37.541715    -17.390463     -0.553894
  H      36.484559    -19.424413     -1.456801
  H      37.271413    -15.275672      0.476845
  H      38.314013    -14.865557      1.872509
  H      38.852837    -16.109929      0.705180
  O      24.048732    -22.401645     -0.167161
  H      24.595663    -21.746295      0.324110
  C      23.014752    -22.849034      0.718470
  H      23.431633    -23.341441      1.608489
  H      22.369462    -22.019446      1.040501
  H      22.404136    -23.574215      0.172021
  O      33.792946    -16.924282      0.363469
  H      33.388451    -17.807748      0.346956
  C      33.003757    -16.042907     -0.444143
  H      32.955481    -16.384425     -1.487743
  H      31.982490    -15.936731     -0.053252
  H      33.498299    -15.065529     -0.417515
  O      32.593297    -26.934086     -2.327241
  H      33.391945    -26.438732     -2.086708
  C      32.113037    -27.569916     -1.134915
  H      32.851131    -28.275464     -0.729131
  H      31.858519    -26.834252     -0.359413
  H      31.208776    -28.123860     -1.403011
  O      38.724330    -21.612548     -0.923590
  H      37.781511    -21.802596     -0.762597
  C      39.378207    -21.590836      0.353003
  H      38.970527    -20.800811      1.000873
  H      39.291848    -22.556948      0.869147
  H      40.436797    -21.383220      0.172794
83
Coordinates from ORCA-job Apixaban_Explicit4MeOH_SMD_methanol_Opt_KeepDens E -2005.003724972294
  C      23.885607    -17.522565     -0.143617
  C      24.109652    -18.732625      0.756190
  C      25.442978    -19.417076      0.589804
  N      26.446144    -18.755043     -0.025558
  C      26.313320    -17.421797     -0.659183
  C      25.129816    -16.647042     -0.112719
  C      27.713257    -19.405160     -0.193147
  C      28.527363    -19.643632      0.912920
  C      29.758259    -20.260755      0.748638
  C      30.190328    -20.626028     -0.528822
  C      29.379449    -20.376671     -1.635543
  C      28.138572    -19.772444     -1.465397
  N      31.439617    -21.293442     -0.693548
  C      31.502067    -22.408914     -1.673009
  C      32.486587    -23.492381     -1.251361
  C      33.769496    -22.840335     -0.877029
  C      33.777849    -21.535310     -0.409233
  C      32.582446    -20.706281     -0.214707
  O      25.612013    -20.570850      1.044228
  O      32.583536    -19.604400      0.351810
  C      35.114030    -23.239727     -0.843948
  N      35.890805    -22.234772     -0.395281
  N      35.078814    -21.211171     -0.135016
  C      35.649644    -20.004401      0.385017
  C      35.688721    -24.555086     -1.198007
  N      37.024657    -24.658379     -1.146011
  O      34.949693    -25.504446     -1.510838
  C      35.511926    -19.707208      1.739366
  C      36.115598    -18.572762      2.248059
  C      36.854775    -17.733393      1.403934
  C      37.012972    -18.052159      0.052338
  C      36.401314    -19.195043     -0.453350
  O      37.361265    -16.615761      1.991056
  C      38.035997    -15.667486      1.149301
  H      23.691730    -17.851893     -1.173139
  H      23.002737    -16.969557      0.193537
  H      24.060746    -18.434622      1.813761
  H      23.341979    -19.501751      0.615172
  H      27.250884    -16.884872     -0.479254
  H      26.209444    -17.557221     -1.744714
  H      25.335652    -16.326293      0.917292
  H      25.002640    -15.745413     -0.721729
  H      28.187789    -19.359922      1.904897
  H      30.380450    -20.470680      1.612618
  H      29.707471    -20.652489     -2.632918
  H      27.502679    -19.591486     -2.327229
  H      30.496900    -22.827762     -1.752715
  H      31.790613    -22.009559     -2.655089
  H      32.095198    -24.062694     -0.397550
  H      32.610495    -24.190432     -2.082849
  H      37.600318    -23.871074     -0.883065
  H      37.462864    -25.545230     -1.350376
  H      34.935056    -20.362663      2.385550
  H      36.013151    -18.312040      3.297367
  H      37.580426    -17.418316     -0.618105
  H      36.504165    -19.447985     -1.504746
  H      37.352091    -15.278307      0.383756
  H      38.345711    -14.855705      1.809637
  H      38.919345    -16.114543      0.678629
  O      24.000939    -22.427203     -0.213686
  H      24.559349    -21.777641      0.276781
  C      23.003703    -22.904676      0.695801
  H      23.455536    -23.410591      1.561287
  H      22.359692    -22.090745      1.058994
  H      22.380669    -23.626195      0.157965
  O      33.786309    -16.949128      0.449044
  H      33.386631    -17.834052      0.408659
  C      33.021333    -16.068516     -0.381217
  H      33.003608    -16.410378     -1.425626
  H      31.988503    -15.964716     -0.021244
  H      33.510401    -15.089804     -0.341794
  O      32.575870    -26.931393     -2.326585
  H      33.382395    -26.420381     -2.148332
  C      32.189545    -27.545296     -1.090373
  H      32.965663    -28.229665     -0.720332
  H      31.977632    -26.795547     -0.315182
  H      31.277951    -28.119507     -1.280129
  O      38.745890    -21.651006     -0.850437
  H      37.787131    -21.812572     -0.740572
  C      39.315656    -21.618435      0.465022
  H      38.886890    -20.805771      1.069963
  H      39.171155    -22.570589      0.994250
  H      40.389058    -21.440114      0.352942
83
Coordinates from ORCA-job Apixaban_Explicit4MeOH_SMD_methanol_Opt_KeepDens E -2005.004517537739
  C      23.889101    -17.499682     -0.105976
  C      24.113399    -18.728301      0.768900
  C      25.446014    -19.408686      0.587675
  N      26.448316    -18.740420     -0.019444
  C      26.317197    -17.393616     -0.625371
  C      25.135775    -16.627860     -0.061028
  C      27.714984    -19.388985     -0.202498
  C      28.534107    -19.644415      0.895975
  C      29.763702    -20.260015      0.716187
  C      30.188831    -20.606522     -0.568869
  C      29.373216    -20.339046     -1.667667
  C      28.133796    -19.735724     -1.482412
  N      31.435946    -21.275472     -0.750521
  C      31.490185    -22.385204     -1.738562
  C      32.473324    -23.476446     -1.327024
  C      33.758114    -22.832507     -0.945429
  C      33.771202    -21.530022     -0.476425
  C      32.583765    -20.700564     -0.271176
  O      25.613938    -20.571409      1.023854
  O      32.601427    -19.609141      0.315359
  C      35.100089    -23.239873     -0.897719
  N      35.877544    -22.237623     -0.439008
  N      35.067204    -21.210157     -0.188437
  C      35.632071    -20.003610      0.343172
  C      35.669729    -24.563570     -1.229551
  N      37.000656    -24.683633     -1.129373
  O      34.929343    -25.505878     -1.562482
  C      35.493596    -19.718876      1.700153
  C      36.097767    -18.588367      2.219622
  C      36.841687    -17.743124      1.384631
  C      36.995445    -18.047355      0.028867
  C      36.380718    -19.184147     -0.488357
  O      37.371283    -16.645490      1.989386
  C      38.060839    -15.688818      1.166904
  H      23.691745    -17.808210     -1.141224
  H      23.007768    -16.951553      0.244855
  H      24.064816    -18.453122      1.832646
  H      23.345970    -19.494559      0.612160
  H      27.256692    -16.862826     -0.435602
  H      26.211632    -17.507795     -1.713184
  H      25.344653    -16.327635      0.974518
  H      25.009186    -15.714247     -0.652000
  H      28.199787    -19.375232      1.893684
  H      30.390079    -20.482999      1.573769
  H      29.696414    -20.599074     -2.670857
  H      27.494361    -19.539850     -2.338296
  H      30.483062    -22.799210     -1.818019
  H      31.777035    -21.979283     -2.718389
  H      32.081010    -24.054289     -0.478606
  H      32.597656    -24.165957     -2.165287
  H      37.572543    -23.899087     -0.853036
  H      37.435996    -25.577284     -1.308125
  H      34.917126    -20.380807      2.339901
  H      35.999160    -18.339998      3.272258
  H      37.568602    -17.410993     -0.634748
  H      36.483086    -19.426840     -1.542217
  H      37.393402    -15.293108      0.392197
  H      38.357572    -14.883231      1.840589
  H      38.954472    -16.127575      0.709095
  O      23.918894    -22.426535     -0.215919
  H      24.499874    -21.792300      0.253013
  C      22.990475    -22.937190      0.745144
  H      23.502651    -23.458750      1.566745
  H      22.362346    -22.141846      1.172264
  H      22.339026    -23.653396      0.234504
  O      33.787264    -16.973187      0.443888
  H      33.397493    -17.860875      0.397611
  C      33.046037    -16.122453     -0.437178
  H      33.063722    -16.496130     -1.470563
  H      32.000452    -16.017285     -0.115441
  H      33.521634    -15.137767     -0.414388
  O      32.570744    -26.928985     -2.314000
  H      33.375946    -26.390495     -2.249333
  C      32.364396    -27.503497     -1.018153
  H      33.205050    -28.147578     -0.723824
  H      32.224609    -26.730761     -0.248749
  H      31.457820    -28.113814     -1.067487
  O      38.757043    -21.688821     -0.757336
  H      37.787253    -21.811966     -0.729517
  C      39.193334    -21.641512      0.607192
  H      38.731940    -20.803713      1.150291
  H      38.966673    -22.575535      1.140320
  H      40.277799    -21.497265      0.602755
83
Coordinates from ORCA-job Apixaban_Explicit4MeOH_SMD_methanol_Opt_KeepDens E -2005.004938979821
  C      23.881131    -17.498119     -0.106917
  C      24.105450    -18.737143      0.753664
  C      25.441400    -19.410791      0.570651
  N      26.443707    -18.734415     -0.027147
  C      26.311379    -17.379808     -0.616303
  C      25.125791    -16.624372     -0.046703
  C      27.713424    -19.376462     -0.213486
  C      28.531146    -19.640396      0.884068
  C      29.762265    -20.252319      0.700544
  C      30.190108    -20.584987     -0.587175
  C      29.377115    -20.306408     -1.684960
  C      28.135664    -19.708127     -1.496163
  N      31.436652    -21.253835     -0.774085
  C      31.490768    -22.355846     -1.770661
  C      32.465630    -23.456050     -1.361872
  C      33.753007    -22.822061     -0.969628
  C      33.770311    -21.521012     -0.497268
  C      32.584595    -20.691436     -0.283208
  O      25.610251    -20.577069      0.996745
  O      32.604909    -19.611044      0.324327
  C      35.093566    -23.235543     -0.916593
  N      35.874277    -22.236716     -0.455746
  N      35.066791    -21.207823     -0.203124
  C      35.639928    -20.004723      0.328938
  C      35.660338    -24.561506     -1.243394
  N      36.989067    -24.689101     -1.125339
  O      34.918291    -25.498743     -1.587148
  C      35.518953    -19.726448      1.688822
  C      36.134733    -18.601040      2.206400
  C      36.876712    -17.757796      1.367350
  C      37.012333    -18.055820      0.008594
  C      36.384646    -19.186345     -0.506964
  O      37.423607    -16.668516      1.970316
  C      38.100796    -15.709451      1.140364
  H      23.688278    -17.794479     -1.146549
  H      22.997265    -16.956177      0.247350
  H      24.049868    -18.476132      1.820571
  H      23.341733    -19.503984      0.582810
  H      27.248614    -16.849207     -0.415511
  H      26.210775    -17.480594     -1.705925
  H      25.330357    -16.336660      0.993238
  H      24.999231    -15.703622     -0.626568
  H      28.194068    -19.382432      1.883790
  H      30.387216    -20.483351      1.557104
  H      29.703101    -20.555543     -2.690088
  H      27.497573    -19.504686     -2.351254
  H      30.481739    -22.763268     -1.858825
  H      31.785455    -21.943633     -2.745399
  H      32.066053    -24.038124     -0.519845
  H      32.588419    -24.140281     -2.205003
  H      37.558509    -23.906006     -0.839587
  H      37.423243    -25.584358     -1.298262
  H      34.945069    -20.387575      2.331635
  H      36.048824    -18.356598      3.261081
  H      37.583712    -17.420474     -0.657903
  H      36.474748    -19.425382     -1.562856
  H      37.426490    -15.319024      0.368977
  H      38.397965    -14.901262      1.810765
  H      38.994074    -16.143712      0.676857
  O      23.848580    -22.432062     -0.206133
  H      24.450320    -21.805843      0.237126
  C      22.987574    -22.968480      0.802032
  H      23.554629    -23.497285      1.581757
  H      22.378411    -22.188122      1.281067
  H      22.312841    -23.683915      0.321657
  O      33.746503    -16.974442      0.505592
  H      33.377597    -17.870489      0.448111
  C      33.045177    -16.161359     -0.441104
  H      33.125358    -16.566060     -1.459819
  H      31.981465    -16.063144     -0.182101
  H      33.502700    -15.168006     -0.424279
  O      32.558960    -26.919967     -2.318471
  H      33.356665    -26.365992     -2.301280
  C      32.434985    -27.478097     -1.005303
  H      33.301838    -28.103088     -0.747746
  H      32.322771    -26.697645     -0.239262
  H      31.538744    -28.105539     -0.994954
  O      38.761361    -21.701245     -0.688973
  H      37.789543    -21.797119     -0.717397
  C      39.107049    -21.646759      0.701077
  H      38.631428    -20.791925      1.204171
  H      38.822438    -22.568077      1.228878
  H      40.192554    -21.528485      0.769129
83
Coordinates from ORCA-job Apixaban_Explicit4MeOH_SMD_methanol_Opt_KeepDens E -2005.005407239199
  C      23.882746    -17.491928     -0.123719
  C      24.100233    -18.741100      0.724893
  C      25.438592    -19.414638      0.546574
  N      26.445466    -18.733967     -0.041044
  C      26.318233    -17.371676     -0.615089
  C      25.129064    -16.621557     -0.044733
  C      27.717721    -19.371862     -0.226779
  C      28.530545    -19.647619      0.871695
  C      29.763512    -20.256965      0.687313
  C      30.198310    -20.573528     -0.602254
  C      29.391006    -20.281626     -1.700728
  C      28.147232    -19.687714     -1.511242
  N      31.445751    -21.240376     -0.793288
  C      31.508851    -22.332517     -1.799937
  C      32.475557    -23.440672     -1.391347
  C      33.763565    -22.813585     -0.983911
  C      33.777930    -21.514029     -0.507221
  C      32.589358    -20.691122     -0.283590
  O      25.602362    -20.582381      0.966392
  O      32.605300    -19.621026      0.342724
  C      35.106723    -23.221990     -0.932746
  N      35.884682    -22.223145     -0.468471
  N      35.072538    -21.201224     -0.203440
  C      35.644587    -19.998846      0.332105
  C      35.682229    -24.541907     -1.266752
  N      37.012018    -24.664036     -1.143611
  O      34.944218    -25.479153     -1.618837
  C      35.559271    -19.744124      1.699086
  C      36.183099    -18.624368      2.218575
  C      36.898892    -17.764198      1.374262
  C      36.992274    -18.034265      0.006463
  C      36.358253    -19.160596     -0.510568
  O      37.470789    -16.691056      1.980822
  C      38.125475    -15.721902      1.145807
  H      23.697020    -17.776632     -1.167914
  H      22.996240    -16.951816      0.229928
  H      24.034074    -18.492351      1.794009
  H      23.338048    -19.505594      0.537816
  H      27.254888    -16.844296     -0.400406
  H      26.225831    -17.459078     -1.706612
  H      25.327161    -16.346814      0.999977
  H      25.008209    -15.693387     -0.614043
  H      28.188059    -19.402069      1.872715
  H      30.383972    -20.497993      1.544332
  H      29.723081    -20.517787     -2.707079
  H      27.513533    -19.474532     -2.367177
  H      30.499346    -22.734908     -1.904029
  H      31.817025    -21.912100     -2.766811
  H      32.065840    -24.029822     -0.559302
  H      32.599955    -24.117631     -2.240697
  H      37.573430    -23.880407     -0.841225
  H      37.453020    -25.553762     -1.326692
  H      35.008345    -20.420110      2.346425
  H      36.127497    -18.400003      3.279764
  H      37.544636    -17.385627     -0.663408
  H      36.422074    -19.382405     -1.572226
  H      37.436596    -15.327964      0.389202
  H      38.432332    -14.918265      1.817403
  H      39.011642    -16.150010      0.661933
  O      23.722762    -22.424950     -0.135308
  H      24.364818    -21.808142      0.253113
  C      22.956289    -22.959384      0.947978
  H      23.590899    -23.489197      1.672708
  H      22.395196    -22.177510      1.480049
  H      22.239160    -23.672985      0.530943
  O      33.657108    -16.974729      0.555099
  H      33.331276    -17.888082      0.507341
  C      33.056839    -16.271206     -0.538507
  H      33.275799    -16.757305     -1.499790
  H      31.965519    -16.195652     -0.422021
  H      33.475856    -15.260739     -0.556551
  O      32.575873    -26.918650     -2.378840
  H      33.358385    -26.343257     -2.353793
  C      32.462748    -27.488703     -1.069686
  H      33.341560    -28.097422     -0.814038
  H      32.330758    -26.718416     -0.296918
  H      31.580595    -28.136167     -1.065648
  O      38.781327    -21.676756     -0.588098
  H      37.813167    -21.738180     -0.694106
  C      39.006622    -21.623872      0.827140
  H      38.517483    -20.751021      1.284771
  H      38.647090    -22.531954      1.331947
  H      40.085247    -21.540635      0.990198
83
Coordinates from ORCA-job Apixaban_Explicit4MeOH_SMD_methanol_Opt_KeepDens E -2005.005699828668
  C      23.890470    -17.490254     -0.143365
  C      24.094657    -18.747871      0.695582
  C      25.433326    -19.424441      0.526771
  N      26.447709    -18.740017     -0.045161
  C      26.329913    -17.372350     -0.607913
  C      25.137805    -16.624243     -0.042546
  C      27.718777    -19.379947     -0.225186
  C      28.521349    -19.668139      0.877547
  C      29.755319    -20.276660      0.698188
  C      30.200525    -20.581201     -0.590556
  C      29.402324    -20.279881     -1.693057
  C      28.158378    -19.685502     -1.508803
  N      31.449983    -21.243150     -0.779604
  C      31.518286    -22.330253     -1.790904
  C      32.483387    -23.440035     -1.384301
  C      33.771538    -22.813921     -0.976627
  C      33.783099    -21.515666     -0.495635
  C      32.591759    -20.697715     -0.261732
  O      25.589355    -20.595219      0.936776
  O      32.608761    -19.633979      0.375881
  C      35.116459    -23.216848     -0.933774
  N      35.893807    -22.217402     -0.472321
  N      35.078657    -21.199904     -0.196014
  C      35.647517    -19.994660      0.335837
  C      35.696312    -24.531463     -1.278875
  N      37.028669    -24.646050     -1.172619
  O      34.960367    -25.470599     -1.629684
  C      35.574329    -19.744218      1.704188
  C      36.196837    -18.622883      2.220961
  C      36.899475    -17.756087      1.372614
  C      36.977307    -18.019106      0.002355
  C      36.344585    -19.147599     -0.511959
  O      37.473387    -16.683033      1.977890
  C      38.122454    -15.711476      1.141979
  H      23.715452    -17.764377     -1.192250
  H      23.002546    -16.951126      0.205187
  H      24.016370    -18.508785      1.766025
  H      23.332449    -19.508223      0.492088
  H      27.265096    -16.849453     -0.379010
  H      26.248192    -17.448765     -1.701085
  H      25.325929    -16.360744      1.006913
  H      25.025725    -15.689966     -0.603665
  H      28.170739    -19.431275      1.877873
  H      30.368142    -20.526183      1.558189
  H      29.743035    -20.507284     -2.698574
  H      27.532288    -19.463546     -2.368095
  H      30.509384    -22.732729     -1.901245
  H      31.830622    -21.905335     -2.754473
  H      32.072280    -24.031694     -0.554794
  H      32.606643    -24.114232     -2.235871
  H      37.591398    -23.864327     -0.865933
  H      37.471778    -25.531048     -1.372798
  H      35.035159    -20.426035      2.355389
  H      36.151347    -18.402958      3.283582
  H      37.518287    -17.364387     -0.670768
  H      36.398362    -19.365321     -1.575057
  H      37.427579    -15.307574      0.396168
  H      38.442515    -14.914311      1.815127
  H      38.999298    -16.143241      0.644193
  O      23.655510    -22.406649     -0.122214
  H      24.320631    -21.797153      0.242771
  C      22.909975    -22.917454      0.988019
  H      23.556177    -23.450189      1.700100
  H      22.377448    -22.119805      1.525746
  H      22.170423    -23.622668      0.596950
  O      33.623000    -16.978233      0.585757
  H      33.319706    -17.901090      0.554531
  C      33.050044    -16.329623     -0.556267
  H      33.317316    -16.845473     -1.489488
  H      31.954038    -16.276133     -0.483718
  H      33.445779    -15.310224     -0.596716
  O      32.587209    -26.921791     -2.392904
  H      33.360830    -26.336706     -2.357195
  C      32.466458    -27.504312     -1.089587
  H      33.347918    -28.107560     -0.830505
  H      32.319111    -26.741932     -0.311894
  H      31.590165    -28.159576     -1.101069
  O      38.803604    -21.659185     -0.577252
  H      37.837638    -21.705989     -0.697289
  C      39.012901    -21.613800      0.841158
  H      38.535642    -20.732736      1.294320
  H      38.630499    -22.516292      1.339070
  H      40.091089    -21.551715      1.015899
83
Coordinates from ORCA-job Apixaban_Explicit4MeOH_SMD_methanol_Opt_KeepDens E -2005.006289398216
  C      23.933033    -17.460371     -0.151026
  C      24.100410    -18.745131      0.653991
  C      25.433337    -19.439692      0.495860
  N      26.469935    -18.750817     -0.034213
  C      26.383584    -17.366538     -0.559591
  C      25.190780    -16.616768      0.003063
  C      27.734919    -19.402682     -0.210877
  C      28.519478    -19.727050      0.894880
  C      29.750847    -20.342561      0.717979
  C      30.210227    -20.621762     -0.571345
  C      29.428604    -20.288528     -1.677023
  C      28.189428    -19.684409     -1.495446
  N      31.461507    -21.278468     -0.762951
  C      31.544592    -22.354983     -1.784507
  C      32.514352    -23.462792     -1.383352
  C      33.797879    -22.830370     -0.971554
  C      33.795170    -21.537358     -0.476500
  C      32.595159    -20.736000     -0.228390
  O      25.564590    -20.622585      0.871437
  O      32.598988    -19.683988      0.428560
  C      35.148180    -23.213558     -0.941510
  N      35.915436    -22.210824     -0.474064
  N      35.087671    -21.207452     -0.180206
  C      35.632572    -19.991706      0.348690
  C      35.745288    -24.510880     -1.316933
  N      37.082213    -24.600142     -1.241922
  O      35.021673    -25.457890     -1.672547
  C      35.548492    -19.741108      1.716413
  C      36.139394    -18.604208      2.234076
  C      36.822924    -17.721430      1.387323
  C      36.910074    -17.982175      0.016987
  C      36.307455    -19.126362     -0.498507
  O      37.367464    -16.633710      1.993673
  C      38.027818    -15.667817      1.162091
  H      23.777477    -17.700133     -1.211403
  H      23.044297    -16.918014      0.193747
  H      24.000955    -18.535747      1.728928
  H      23.331296    -19.486823      0.410672
  H      27.322229    -16.864244     -0.296582
  H      26.323073    -17.408876     -1.655983
  H      25.360273    -16.388907      1.064026
  H      25.105238    -15.663880     -0.530775
  H      28.158133    -19.509761      1.895914
  H      30.350275    -20.616427      1.580111
  H      29.781250    -20.496018     -2.682721
  H      27.577363    -19.436289     -2.357722
  H      30.539062    -22.762421     -1.907900
  H      31.863548    -21.919301     -2.741201
  H      32.103159    -24.064742     -0.561381
  H      32.644718    -24.127102     -2.241385
  H      37.643483    -23.823564     -0.918405
  H      37.534557    -25.470016     -1.484079
  H      35.024453    -20.435308      2.367076
  H      36.083909    -18.384289      3.296243
  H      37.433191    -17.312088     -0.654920
  H      36.367622    -19.342111     -1.561696
  H      37.338929    -15.252938      0.416018
  H      38.356814    -14.875520      1.836527
  H      38.897898    -16.113073      0.664097
  O      23.505658    -22.320664     -0.084393
  H      24.228600    -21.738952      0.225890
  C      22.778705    -22.735939      1.079279
  H      23.423403    -23.278094      1.785242
  H      22.323172    -21.881355      1.599415
  H      21.981097    -23.407393      0.747773
  O      33.500275    -16.994346      0.590780
  H      33.258864    -17.935510      0.630807
  C      33.041071    -16.531371     -0.687179
  H      33.468991    -17.124473     -1.507883
  H      31.943252    -16.565591     -0.758270
  H      33.365249    -15.492169     -0.801999
  O      32.661456    -26.945190     -2.440399
  H      33.409944    -26.332289     -2.388201
  C      32.541963    -27.558895     -1.150884
  H      33.437621    -28.141600     -0.894221
  H      32.361988    -26.816358     -0.361083
  H      31.685230    -28.238248     -1.190219
  O      38.851303    -21.608551     -0.544631
  H      37.890505    -21.631848     -0.687105
  C      39.044165    -21.583826      0.877180
  H      38.597059    -20.687287      1.329505
  H      38.621999    -22.475695      1.361258
  H      40.122365    -21.565627      1.060845
83
Coordinates from ORCA-job Apixaban_Explicit4MeOH_SMD_methanol_Opt_KeepDens E -2005.006667687441
  C      23.975562    -17.429250     -0.173820
  C      24.111850    -18.730990      0.607867
  C      25.434547    -19.443590      0.451558
  N      26.487401    -18.758428     -0.049967
  C      26.429216    -17.364858     -0.551591
  C      25.242702    -16.606880      0.011136
  C      27.743150    -19.427701     -0.218446
  C      28.506993    -19.776205      0.893838
  C      29.733900    -20.401988      0.727072
  C      30.210452    -20.665085     -0.558584
  C      29.447872    -20.312260     -1.671595
  C      28.212113    -19.699632     -1.500125
  N      31.464509    -21.317024     -0.740670
  C      31.557288    -22.382906     -1.772590
  C      32.536018    -23.487132     -1.382797
  C      33.814318    -22.847587     -0.969334
  C      33.799103    -21.562687     -0.454201
  C      32.593201    -20.774918     -0.192992
  O      25.547830    -20.634724      0.806679
  O      32.597386    -19.735043      0.482772
  C      35.169269    -23.213628     -0.954850
  N      35.927776    -22.207341     -0.481319
  N      35.089976    -21.219195     -0.166083
  C      35.617772    -19.997998      0.366092
  C      35.780524    -24.494752     -1.362047
  N      37.119428    -24.562345     -1.309657
  O      35.068664    -25.448705     -1.723092
  C      35.535880    -19.756381      1.735928
  C      36.097465    -18.606004      2.256248
  C      36.749023    -17.698865      1.409822
  C      36.836037    -17.950878      0.037535
  C      36.263749    -19.109748     -0.480203
  O      37.262437    -16.597326      2.019756
  C      37.930263    -15.627274      1.198702
  H      23.829396    -17.645983     -1.240455
  H      23.092318    -16.881189      0.170318
  H      24.003329    -18.540383      1.685508
  H      23.333357    -19.454770      0.341406
  H      27.371892    -16.882321     -0.270523
  H      26.379522    -17.386715     -1.649163
  H      25.402992    -16.401953      1.078164
  H      25.177908    -15.643040     -0.505622
  H      28.133609    -19.567374      1.892358
  H      30.318861    -20.691419      1.594089
  H      29.814606    -20.509548     -2.674387
  H      27.615216    -19.433310     -2.367703
  H      30.555174    -22.797074     -1.902135
  H      31.874299    -21.934709     -2.724257
  H      32.130306    -24.100259     -0.566509
  H      32.672313    -24.140724     -2.248199
  H      37.676397    -23.789258     -0.972867
  H      37.580272    -25.418658     -1.582989
  H      35.035023    -20.467810      2.386207
  H      36.042250    -18.393229      3.319867
  H      37.331872    -17.260998     -0.634740
  H      36.320711    -19.316612     -1.545339
  H      37.246252    -15.204451      0.452674
  H      38.257835    -14.840216      1.879807
  H      38.800736    -16.072023      0.701732
  O      23.398906    -22.244432     -0.020155
  H      24.166263    -21.685282      0.228097
  C      22.708907    -22.562835      1.195937
  H      23.360276    -23.102337      1.897725
  H      22.323465    -21.659794      1.690251
  H      21.863857    -23.207019      0.935208
  O      33.457275    -17.030443      0.572798
  H      33.250151    -17.974129      0.685117
  C      33.029417    -16.696814     -0.755727
  H      33.520374    -17.329925     -1.508380
  H      31.939343    -16.793316     -0.862761
  H      33.307146    -15.654679     -0.941432
  O      32.726011    -26.965678     -2.483832
  H      33.454724    -26.329698     -2.425282
  C      32.626632    -27.604172     -1.204809
  H      33.538779    -28.166500     -0.961291
  H      32.429480    -26.878559     -0.403437
  H      31.787967    -28.304821     -1.254983
  O      38.873356    -21.561538     -0.535231
  H      37.915300    -21.572622     -0.694053
  C      39.053117    -21.546822      0.888256
  H      38.629010    -20.637367      1.337276
  H      38.600662    -22.427425      1.364833
  H      40.130075    -21.561414      1.078865
83
Coordinates from ORCA-job Apixaban_Explicit4MeOH_SMD_methanol_Opt_KeepDens E -2005.006795986884
  C      24.060785    -17.336480     -0.197642
  C      24.130811    -18.668105      0.542676
  C      25.427503    -19.428631      0.387001
  N      26.517383    -18.770101     -0.068663
  C      26.525605    -17.360553     -0.526930
  C      25.357539    -16.572266      0.038199
  C      27.756594    -19.474889     -0.226923
  C      28.490168    -19.867779      0.891554
  C      29.708933    -20.514222      0.734035
  C      30.207908    -20.751553     -0.548078
  C      29.472422    -20.359496     -1.666635
  C      28.245220    -19.727879     -1.504941
  N      31.464231    -21.402988     -0.727989
  C      31.579179    -22.446076     -1.780491
  C      32.576861    -23.540131     -1.406869
  C      33.842856    -22.882312     -0.980042
  C      33.800730    -21.611100     -0.433103
  C      32.577905    -20.859149     -0.154416
  O      25.490698    -20.635107      0.706465
  O      32.543404    -19.845762      0.559637
  C      35.206580    -23.215816     -0.980446
  N      35.943723    -22.198817     -0.493785
  N      35.084832    -21.238693     -0.153094
  C      35.583758    -20.005851      0.379654
  C      35.847989    -24.470260     -1.425185
  N      37.188589    -24.501353     -1.386716
  O      35.160659    -25.435673     -1.804058
  C      35.515217    -19.772281      1.751948
  C      36.038416    -18.601603      2.267803
  C      36.637700    -17.665239      1.413890
  C      36.711976    -17.909214      0.039492
  C      36.180093    -19.089324     -0.472841
  O      37.114627    -16.544900      2.019167
  C      37.777894    -15.570353      1.198831
  H      23.927291    -17.512022     -1.273449
  H      23.189561    -16.764129      0.148500
  H      24.009864    -18.509117      1.624183
  H      23.328347    -19.349513      0.238605
  H      27.484809    -16.927477     -0.214217
  H      26.495964    -17.346161     -1.625475
  H      25.504503    -16.408984      1.114275
  H      25.341979    -15.590399     -0.447421
  H      28.101717    -19.673605      1.887348
  H      30.272180    -20.833279      1.605026
  H      29.857194    -20.537338     -2.666347
  H      27.672336    -19.426532     -2.377335
  H      30.584231    -22.872693     -1.924444
  H      31.895584    -21.974666     -2.721197
  H      32.180407    -24.175507     -0.603320
  H      32.730300    -24.173738     -2.284187
  H      37.728009    -23.726378     -1.027924
  H      37.669881    -25.335710     -1.691322
  H      35.054770    -20.505805      2.407469
  H      35.994681    -18.395784      3.333297
  H      37.166256    -17.197033     -0.638914
  H      36.226134    -19.289163     -1.539887
  H      37.092897    -15.153250      0.450828
  H      38.096859    -14.779657      1.879760
  H      38.653192    -16.008343      0.704953
  O      23.200529    -22.088234      0.077795
  H      24.027095    -21.579123      0.227027
  C      22.611237    -22.291097      1.368725
  H      23.286874    -22.845401      2.035354
  H      22.344075    -21.337275      1.846181
  H      21.699298    -22.878627      1.225614
  O      33.243751    -17.106290      0.619030
  H      33.097491    -18.044006      0.828467
  C      32.997332    -16.991286     -0.790314
  H      33.654515    -17.652904     -1.372317
  H      31.947050    -17.222021     -1.032087
  H      33.202320    -15.955791     -1.077508
  O      32.862617    -27.006765     -2.565210
  H      33.556135    -26.331671     -2.507701
  C      32.822709    -27.671604     -1.296691
  H      33.767614    -28.190108     -1.082393
  H      32.606354    -26.970085     -0.478931
  H      32.019787    -28.413110     -1.343107
  O      38.886338    -21.477267     -0.489523
  H      37.935679    -21.474009     -0.691098
  C      39.007209    -21.465984      0.939711
  H      38.601054    -20.538693      1.369097
  H      38.501490    -22.327020      1.397704
  H      40.074326    -21.522366      1.173135
83
Coordinates from ORCA-job Apixaban_Explicit4MeOH_SMD_methanol_Opt_KeepDens E -2005.007222310431
  C      24.042364    -17.358938     -0.172794
  C      24.130031    -18.694405      0.556507
  C      25.429089    -19.439049      0.378252
  N      26.506867    -18.769328     -0.083439
  C      26.497943    -17.356757     -0.531734
  C      25.331950    -16.583536      0.052216
  C      27.747935    -19.468576     -0.247917
  C      28.483242    -19.853868      0.870614
  C      29.703508    -20.493820      0.713018
  C      30.202440    -20.732679     -0.568372
  C      29.466530    -20.346425     -1.688443
  C      28.236050    -19.719662     -1.526634
  N      31.459778    -21.385320     -0.733929
  C      31.570630    -22.430810     -1.784963
  C      32.566482    -23.526529     -1.410352
  C      33.832337    -22.874206     -0.978305
  C      33.794923    -21.603960     -0.431038
  C      32.576447    -20.840815     -0.161710
  O      25.508079    -20.649419      0.689141
  O      32.558848    -19.824924      0.547382
  C      35.193892    -23.218391     -0.972785
  N      35.934941    -22.206765     -0.479746
  N      35.080966    -21.240384     -0.145947
  C      35.590825    -20.012462      0.391065
  C      35.827892    -24.478868     -1.410838
  N      37.166621    -24.524719     -1.354121
  O      35.136045    -25.438164     -1.796593
  C      35.512620    -19.772699      1.761767
  C      36.042075    -18.603801      2.277071
  C      36.655301    -17.674923      1.424066
  C      36.742885    -17.927642      0.052265
  C      36.205882    -19.105937     -0.459206
  O      37.129404    -16.552326      2.027796
  C      37.799266    -15.579138      1.209163
  H      23.897370    -17.528028     -1.248117
  H      23.174558    -16.798654      0.188150
  H      24.022324    -18.545207      1.640829
  H      23.328634    -19.379185      0.258047
  H      27.453576    -16.917071     -0.227426
  H      26.455269    -17.336019     -1.629821
  H      25.489975    -16.424722      1.127380
  H      25.300254    -15.599494     -0.428087
  H      28.093943    -19.660102      1.866097
  H      30.268210    -20.810153      1.583986
  H      29.851138    -20.525825     -2.687845
  H      27.660215    -19.422568     -2.398536
  H      30.575108    -22.857604     -1.923639
  H      31.882046    -21.960652     -2.728012
  H      32.167906    -24.159601     -0.606003
  H      32.720606    -24.161253     -2.286698
  H      37.708384    -23.751060     -0.995087
  H      37.643521    -25.367146     -1.642578
  H      35.039356    -20.499211      2.415950
  H      35.991344    -18.392903      3.341226
  H      37.210715    -17.223629     -0.625795
  H      36.260706    -19.311315     -1.524753
  H      37.119478    -15.166835      0.454306
  H      38.109236    -14.785505      1.890927
  H      38.681698    -16.012867      0.724727
  O      23.244151    -22.141684      0.077984
  H      24.061359    -21.619086      0.223323
  C      22.654778    -22.329194      1.369324
  H      23.333247    -22.865957      2.047832
  H      22.376190    -21.371732      1.833634
  H      21.748361    -22.928062      1.237396
  O      33.362630    -17.082720      0.551616
  H      33.194524    -18.014589      0.766042
  C      33.020975    -16.924157     -0.832278
  H      33.605486    -17.597294     -1.474927
  H      31.951221    -17.105336     -1.006156
  H      33.249925    -15.891509     -1.110815
  O      32.837120    -26.988355     -2.565913
  H      33.541568    -26.322861     -2.512698
  C      32.801354    -27.648590     -1.295022
  H      33.742871    -28.175952     -1.086836
  H      32.600663    -26.942572     -0.477038
  H      31.990573    -28.382217     -1.329966
  O      38.870293    -21.503729     -0.479208
  H      37.919273    -21.511030     -0.679252
  C      38.988285    -21.477373      0.949492
  H      38.580341    -20.547102      1.370385
  H      38.481206    -22.333380      1.415640
  H      40.054566    -21.530640      1.188029
83
Coordinates from ORCA-job Apixaban_Explicit4MeOH_SMD_methanol_Opt_KeepDens E -2005.007398312064
  C      24.065918    -17.336981     -0.157480
  C      24.135703    -18.689124      0.543236
  C      25.428577    -19.441202      0.357189
  N      26.515497    -18.774520     -0.084568
  C      26.523787    -17.352628     -0.503424
  C      25.362222    -16.579918      0.090360
  C      27.753382    -19.480184     -0.249760
  C      28.480170    -19.879198      0.869619
  C      29.699290    -20.521341      0.711962
  C      30.204625    -20.748667     -0.569292
  C      29.476167    -20.350136     -1.689468
  C      28.247039    -19.719990     -1.528032
  N      31.461957    -21.402988     -0.732290
  C      31.575378    -22.443223     -1.788551
  C      32.577253    -23.536197     -1.419980
  C      33.840215    -22.880278     -0.983374
  C      33.797498    -21.613197     -0.431485
  C      32.577095    -20.855644     -0.159115
  O      25.493759    -20.659390      0.644356
  O      32.558736    -19.841278      0.551939
  C      35.203914    -23.218584     -0.979729
  N      35.939981    -22.206049     -0.479665
  N      35.080607    -21.246441     -0.141131
  C      35.582072    -20.017306      0.401436
  C      35.844172    -24.474818     -1.419777
  N      37.182697    -24.518390     -1.353296
  O      35.156866    -25.433690     -1.815077
  C      35.492919    -19.776123      1.770969
  C      36.012229    -18.603076      2.287527
  C      36.626126    -17.672407      1.436847
  C      36.727466    -17.928431      0.066926
  C      36.198828    -19.109426     -0.446054
  O      37.085099    -16.543464      2.039076
  C      37.744057    -15.565646      1.217098
  H      23.924874    -17.481586     -1.236879
  H      23.201787    -16.775461      0.211518
  H      24.023214    -18.562980      1.630055
  H      23.328685    -19.358254      0.225583
  H      27.482655    -16.929748     -0.184612
  H      26.487888    -17.309159     -1.601104
  H      25.515855    -16.444542      1.169360
  H      25.342604    -15.586057     -0.369971
  H      28.085446    -19.694055      1.864593
  H      30.258285    -20.848897      1.582420
  H      29.865440    -20.521187     -2.688558
  H      27.676809    -19.411808     -2.399745
  H      30.581349    -22.874181     -1.925575
  H      31.881411    -21.968004     -2.730781
  H      32.182230    -24.174478     -0.617955
  H      32.735172    -24.166314     -2.298875
  H      37.719002    -23.743286     -0.988466
  H      37.664082    -25.359781     -1.637037
  H      35.018529    -20.503965      2.422845
  H      35.952810    -18.390127      3.350824
  H      37.198302    -17.224375     -0.609126
  H      36.263063    -19.316976     -1.510679
  H      37.059409    -15.166064      0.459409
  H      38.042318    -14.765412      1.896441
  H      38.633551    -15.988900      0.736139
  O      23.197591    -22.127681      0.099741
  H      24.025753    -21.615212      0.212767
  C      22.632226    -22.258710      1.407502
  H      23.312775    -22.785926      2.091733
  H      22.382101    -21.281337      1.846063
  H      21.710834    -22.842512      1.317594
  O      33.368397    -17.096770      0.485681
  H      33.206366    -18.017827      0.743404
  C      33.025220    -16.998596     -0.901854
  H      33.612455    -17.695234     -1.516721
  H      31.956307    -17.193234     -1.068398
  H      33.249103    -15.977152     -1.223261
  O      32.866061    -26.989880     -2.592653
  H      33.567057    -26.320201     -2.541861
  C      32.850510    -27.655509     -1.324011
  H      33.798529    -28.176057     -1.128212
  H      32.653874    -26.955223     -0.500113
  H      32.045650    -28.396032     -1.351288
  O      38.865984    -21.489629     -0.461522
  H      37.918444    -21.501853     -0.675368
  C      38.957553    -21.448208      0.968422
  H      38.553763    -20.508595      1.372339
  H      38.429988    -22.291658      1.434969
  H      40.017997    -21.512409      1.229502
83
Coordinates from ORCA-job Apixaban_Explicit4MeOH_SMD_methanol_Opt_KeepDens E -2005.007607282324
  C      24.082103    -17.314479     -0.136830
  C      24.128029    -18.694416      0.511820
  C      25.420647    -19.446497      0.326121
  N      26.520039    -18.774779     -0.071470
  C      26.547308    -17.337728     -0.436559
  C      25.379773    -16.578686      0.163668
  C      27.758118    -19.480678     -0.236756
  C      28.472362    -19.900968      0.883429
  C      29.691208    -20.543725      0.724582
  C      30.206566    -20.750281     -0.556707
  C      29.489840    -20.331171     -1.675840
  C      28.261370    -19.699146     -1.514118
  N      31.462710    -21.407860     -0.718805
  C      31.576604    -22.441334     -1.781089
  C      32.580336    -23.533462     -1.417282
  C      33.843031    -22.877099     -0.977804
  C      33.799779    -21.611295     -0.423402
  C      32.576517    -20.858254     -0.145187
  O      25.470441    -20.675355      0.569035
  O      32.551495    -19.847267      0.570525
  C      35.207211    -23.215310     -0.975983
  N      35.943319    -22.203907     -0.473383
  N      35.083094    -21.246429     -0.129348
  C      35.587699    -20.016971      0.410529
  C      35.847842    -24.472796     -1.409569
  N      37.185751    -24.523635     -1.328801
  O      35.159897    -25.427985     -1.812840
  C      35.488332    -19.761953      1.776178
  C      36.011511    -18.587068      2.284698
  C      36.639918    -17.669534      1.430468
  C      36.757885    -17.943472      0.065377
  C      36.223052    -19.124737     -0.440153
  O      37.094407    -16.533912      2.023242
  C      37.729419    -15.551027      1.188589
  H      23.960340    -17.416417     -1.223404
  H      23.215306    -16.759761      0.238116
  H      23.992306    -18.610524      1.600136
  H      23.323533    -19.344043      0.150684
  H      27.503736    -16.935426     -0.083507
  H      26.533962    -17.254092     -1.532363
  H      25.513686    -16.483838      1.249584
  H      25.375713    -15.568419     -0.260015
  H      28.067935    -19.732553      1.877460
  H      30.242523    -20.888924      1.593251
  H      29.886604    -20.486844     -2.674590
  H      27.698944    -19.374485     -2.384872
  H      30.582966    -22.874228     -1.916245
  H      31.878532    -21.961995     -2.722388
  H      32.187127    -24.172958     -0.615177
  H      32.737578    -24.163504     -2.296068
  H      37.721005    -23.747506     -0.964422
  H      37.666026    -25.370788     -1.596445
  H      35.001239    -20.478760      2.430792
  H      35.941787    -18.361331      3.344767
  H      37.243731    -17.252329     -0.613210
  H      36.297527    -19.345319     -1.501488
  H      37.033765    -15.177741      0.427148
  H      38.010035    -14.736766      1.858828
  H      38.628659    -15.957707      0.711298
  O      23.157804    -22.149012      0.063935
  H      23.986973    -21.635385      0.155404
  C      22.615753    -22.263164      1.381922
  H      23.304983    -22.784208      2.062575
  H      22.374639    -21.281584      1.816050
  H      21.690676    -22.844941      1.318711
  O      33.371473    -17.095799      0.425793
  H      33.214230    -18.002669      0.730367
  C      33.028126    -17.064226     -0.962438
  H      33.609133    -17.794983     -1.543388
  H      31.957308    -17.260025     -1.120796
  H      33.259863    -16.061539     -1.334264
  O      32.862140    -26.978794     -2.603058
  H      33.569713    -26.316572     -2.550289
  C      32.849923    -27.650257     -1.337096
  H      33.795784    -28.177041     -1.147543
  H      32.661134    -26.954290     -0.507693
  H      32.041506    -28.387109     -1.361840
  O      38.859880    -21.487131     -0.459076
  H      37.914698    -21.512281     -0.679945
  C      38.930581    -21.409941      0.970365
  H      38.538749    -20.453587      1.345502
  H      38.378646    -22.229738      1.450971
  H      39.984716    -21.487226      1.252897
83
Coordinates from ORCA-job Apixaban_Explicit4MeOH_SMD_methanol_Opt_KeepDens E -2005.007729644797
  C      24.089787    -17.300443     -0.151622
  C      24.123463    -18.687578      0.483073
  C      25.417164    -19.441525      0.307825
  N      26.522977    -18.768874     -0.069861
  C      26.559356    -17.327744     -0.418534
  C      25.385757    -16.571841      0.173720
  C      27.760232    -19.476807     -0.232678
  C      28.469062    -19.904126      0.888586
  C      29.686126    -20.550967      0.730581
  C      30.205314    -20.752243     -0.550011
  C      29.494784    -20.324717     -1.669564
  C      28.266713    -19.691321     -1.509204
  N      31.461062    -21.411281     -0.711183
  C      31.576740    -22.441196     -1.776452
  C      32.582032    -23.532285     -1.415691
  C      33.843960    -22.874923     -0.975387
  C      33.798784    -21.610927     -0.416671
  C      32.573279    -20.860793     -0.135940
  O      25.460532    -20.671604      0.540601
  O      32.543578    -19.851221      0.581634
  C      35.208561    -23.210874     -0.974963
  N      35.943348    -22.201468     -0.467260
  N      35.081633    -21.246276     -0.119417
  C      35.583937    -20.017086      0.421650
  C      35.849914    -24.467421     -1.408981
  N      37.187821    -24.520961     -1.324937
  O      35.161824    -25.420475     -1.817193
  C      35.474910    -19.759252      1.785776
  C      35.997570    -18.585048      2.295676
  C      36.633787    -17.670627      1.444451
  C      36.761348    -17.947200      0.080608
  C      36.228441    -19.128587     -0.426297
  O      37.088248    -16.535954      2.038751
  C      37.707721    -15.546020      1.201605
  H      23.981971    -17.390798     -1.240690
  H      23.219740    -16.746677      0.217824
  H      23.972365    -18.613933      1.570034
  H      23.322811    -19.331646      0.103524
  H      27.512199    -16.932144     -0.048289
  H      26.561712    -17.232701     -1.513479
  H      25.505555    -16.488090      1.262186
  H      25.389733    -15.557221     -0.239541
  H      28.061227    -19.738740      1.881742
  H      30.234679    -20.901608      1.598998
  H      29.894987    -20.476019     -2.667649
  H      27.708029    -19.360730     -2.380151
  H      30.583734    -22.875447     -1.912617
  H      31.877744    -21.959046     -2.716610
  H      32.190068    -24.173525     -0.614238
  H      32.739261    -24.161736     -2.294770
  H      37.725795    -23.747266     -0.958719
  H      37.665915    -25.370030     -1.590395
  H      34.981788    -20.473637      2.438454
  H      35.920597    -18.357102      3.354806
  H      37.254426    -17.258666     -0.595439
  H      36.310350    -19.351744     -1.486526
  H      37.005200    -15.184350      0.440655
  H      37.978828    -14.727012      1.869929
  H      38.611475    -15.941808      0.723350
  O      23.147602    -22.162550      0.085556
  H      23.974124    -21.641503      0.157106
  C      22.628266    -22.272978      1.412908
  H      23.332535    -22.783902      2.085772
  H      22.385100    -21.291014      1.844872
  H      21.707358    -22.863030      1.368073
  O      33.378020    -17.101702      0.380895
  H      33.220101    -17.998362      0.714683
  C      33.033556    -17.111326     -1.007103
  H      33.608929    -17.862987     -1.566707
  H      31.961025    -17.304471     -1.159298
  H      33.271961    -16.121904     -1.409498
  O      32.859063    -26.968082     -2.617112
  H      33.572511    -26.313474     -2.556622
  C      32.834910    -27.650519     -1.357091
  H      33.775477    -28.186439     -1.167153
  H      32.646682    -26.960506     -0.522630
  H      32.020972    -28.380824     -1.392682
  O      38.862132    -21.481682     -0.467497
  H      37.915274    -21.519011     -0.679539
  C      38.946036    -21.388763      0.960532
  H      38.568350    -20.423569      1.327878
  H      38.389117    -22.196466      1.455484
  H      40.001557    -21.474569      1.235364
83
Coordinates from ORCA-job Apixaban_Explicit4MeOH_SMD_methanol_Opt_KeepDens E -2005.007892209558
  C      24.096078    -17.284666     -0.200754
  C      24.111986    -18.676805      0.423412
  C      25.407683    -19.434066      0.270757
  N      26.522277    -18.760291     -0.079601
  C      26.570818    -17.315737     -0.411685
  C      25.386118    -16.562464      0.160308
  C      27.757228    -19.473304     -0.236578
  C      28.455679    -19.911436      0.887003
  C      29.670741    -20.563384      0.733398
  C      30.198750    -20.756734     -0.544435
  C      29.498918    -20.318476     -1.666596
  C      28.271434    -19.682652     -1.511069
  N      31.455684    -21.415204     -0.701705
  C      31.577292    -22.436010     -1.774468
  C      32.583914    -23.526596     -1.419497
  C      33.843521    -22.869276     -0.974382
  C      33.794151    -21.610446     -0.402129
  C      32.563983    -20.867208     -0.116197
  O      25.442885    -20.663998      0.496208
  O      32.524670    -19.866911      0.613483
  C      35.208404    -23.201665     -0.975950
  N      35.940278    -22.196106     -0.457632
  N      35.077078    -21.245213     -0.101680
  C      35.580573    -20.017292      0.439453
  C      35.851052    -24.455231     -1.417921
  N      37.188455    -24.512140     -1.328302
  O      35.163867    -25.404053     -1.837350
  C      35.468084    -19.759188      1.803204
  C      35.993013    -18.586985      2.314995
  C      36.635377    -17.674786      1.466611
  C      36.765896    -17.950902      0.102533
  C      36.232143    -19.131210     -0.406218
  O      37.096600    -16.544587      2.065256
  C      37.692460    -15.540380      1.228362
  H      24.012472    -17.365745     -1.292688
  H      23.220062    -16.731281      0.153467
  H      23.935723    -18.609863      1.506844
  H      23.319781    -19.317079      0.019675
  H      27.515464    -16.926732     -0.015518
  H      26.599747    -17.209837     -1.505317
  H      25.481571    -16.488545      1.251875
  H      25.401491    -15.544033     -0.243248
  H      28.041118    -19.749707      1.877977
  H      30.213076    -20.921660      1.602660
  H      29.906829    -20.463435     -2.662490
  H      27.720375    -19.343143     -2.383465
  H      30.585879    -22.871575     -1.918211
  H      31.880705    -21.945583     -2.709686
  H      32.192259    -24.173623     -0.622396
  H      32.742745    -24.151840     -2.301253
  H      37.728449    -23.744381     -0.954239
  H      37.664193    -25.362174     -1.595270
  H      34.970733    -20.471676      2.454660
  H      35.912836    -18.359027      3.373905
  H      37.263632    -17.263585     -0.571290
  H      36.316622    -19.354448     -1.466174
  H      36.980631    -15.191964      0.470284
  H      37.949949    -14.717266      1.896944
  H      38.602074    -15.917961      0.746297
  O      23.127731    -22.180997      0.162606
  H      23.949803    -21.648048      0.187642
  C      22.662975    -22.274025      1.511533
  H      23.401876    -22.760598      2.164789
  H      22.419868    -21.287510      1.933043
  H      21.751304    -22.879830      1.511727
  O      33.379877    -17.126243      0.340353
  H      33.220365    -18.006135      0.716417
  C      33.041789    -17.201688     -1.047792
  H      33.613021    -17.983682     -1.568410
  H      31.968454    -17.391658     -1.196163
  H      33.290831    -16.235131     -1.496549
  O      32.858389    -26.945845     -2.649484
  H      33.580011    -26.301691     -2.580273
  C      32.822439    -27.648223     -1.400957
  H      33.756475    -28.197417     -1.217337
  H      32.638486    -26.969077     -0.556696
  H      32.000510    -28.368546     -1.451902
  O      38.855929    -21.468612     -0.469398
  H      37.907060    -21.525795     -0.673394
  C      38.953801    -21.350077      0.956204
  H      38.600148    -20.369288      1.306734
  H      38.384290    -22.136064      1.470834
  H      40.009679    -21.453230      1.223568
83
Coordinates from ORCA-job Apixaban_Explicit4MeOH_SMD_methanol_Opt_KeepDens E -2005.008016042971
  C      24.109349    -17.264513     -0.246912
  C      24.105298    -18.662646      0.363287
  C      25.400298    -19.426226      0.228376
  N      26.524592    -18.752865     -0.093403
  C      26.588270    -17.304432     -0.403219
  C      25.394339    -16.552678      0.151083
  C      27.756429    -19.472318     -0.245576
  C      28.441741    -19.927136      0.879230
  C      29.655553    -20.582792      0.730335
  C      30.194806    -20.764228     -0.544135
  C      29.507026    -20.311675     -1.668523
  C      28.281534    -19.671341     -1.517693
  N      31.452905    -21.421674     -0.698515
  C      31.582080    -22.432271     -1.779779
  C      32.589453    -23.523485     -1.429550
  C      33.845833    -22.866829     -0.975913
  C      33.790636    -21.613803     -0.390693
  C      32.557003    -20.877985     -0.100583
  O      25.425023    -20.657615      0.440087
  O      32.510509    -19.886711      0.640891
  C      35.211543    -23.194938     -0.976126
  N      35.938242    -22.192430     -0.445228
  N      35.071404    -21.247614     -0.082889
  C      35.570653    -20.019664      0.460634
  C      35.857413    -24.443611     -1.428721
  N      37.194154    -24.501680     -1.332203
  O      35.173137    -25.387418     -1.863734
  C      35.446397    -19.759979      1.823247
  C      35.965787    -18.586573      2.338196
  C      36.615934    -17.676064      1.494254
  C      36.757996    -17.953575      0.131576
  C      36.229166    -19.134283     -0.380384
  O      37.075691    -16.546618      2.095511
  C      37.654618    -15.533760      1.257400
  H      24.049538    -17.333372     -1.341268
  H      23.228380    -16.710338      0.093580
  H      23.906110    -18.604686      1.443101
  H      23.319908    -19.296092     -0.064145
  H      27.525234    -16.926243      0.020953
  H      26.644396    -17.183086     -1.494275
  H      25.465663    -16.492576      1.245365
  H      25.423175    -15.529327     -0.239028
  H      28.018454    -19.773465      1.867820
  H      30.188522    -20.953089      1.600246
  H      29.924197    -20.447542     -2.661805
  H      27.740280    -19.319257     -2.391266
  H      30.592420    -22.868135     -1.934155
  H      31.890657    -21.932629     -2.708591
  H      32.196231    -24.177980     -0.639282
  H      32.752817    -24.141999     -2.315191
  H      37.734380    -23.740838     -0.944578
  H      37.669488    -25.350050     -1.605389
  H      34.943189    -20.471281      2.471487
  H      35.875591    -18.356986      3.395933
  H      37.261231    -17.266342     -0.538287
  H      36.322461    -19.358509     -1.439359
  H      36.938519    -15.201054      0.496268
  H      37.895499    -14.703666      1.923496
  H      38.571941    -15.897008      0.778729
  O      23.101687    -22.182068      0.263244
  H      23.920020    -21.643090      0.228069
  C      22.714113    -22.246777      1.638508
  H      23.495804    -22.707364      2.259773
  H      22.481139    -21.252294      2.046765
  H      21.812501    -22.864100      1.702092
  O      33.380251    -17.163225      0.276482
  H      33.222544    -18.020805      0.702332
  C      33.046991    -17.319758     -1.106742
  H      33.618564    -18.131113     -1.579295
  H      31.973517    -17.515023     -1.247307
  H      33.300053    -16.381156     -1.609519
  O      32.869920    -26.924561     -2.695990
  H      33.597485    -26.288619     -2.614278
  C      32.821576    -27.650928     -1.461901
  H      33.750085    -28.211573     -1.285303
  H      32.639027    -26.986044     -0.606082
  H      31.993519    -28.362492     -1.532125
  O      38.845379    -21.449928     -0.452723
  H      37.896652    -21.528176     -0.651988
  C      38.951643    -21.304248      0.969979
  H      38.622747    -20.307591      1.299709
  H      38.366174    -22.066166      1.502101
  H      40.006128    -21.426897      1.234786
83
Coordinates from ORCA-job Apixaban_Explicit4MeOH_SMD_methanol_Opt_KeepDens E -2005.008103879759
  C      24.117900    -17.254397     -0.296517
  C      24.099119    -18.655407      0.305396
  C      25.391537    -19.425388      0.178051
  N      26.522731    -18.753453     -0.124374
  C      26.598877    -17.302306     -0.415161
  C      25.399177    -16.550641      0.126676
  C      27.751384    -19.479072     -0.272679
  C      28.422029    -19.952407      0.852736
  C      29.635174    -20.610484      0.709513
  C      30.188842    -20.776174     -0.560395
  C      29.514792    -20.307035     -1.687044
  C      28.290157    -19.664517     -1.541764
  N      31.449370    -21.429908     -0.709845
  C      31.592027    -22.426029     -1.802452
  C      32.598102    -23.519321     -1.454736
  C      33.849052    -22.864923     -0.983824
  C      33.785014    -21.619053     -0.383695
  C      32.546033    -20.893990     -0.090869
  O      25.408314    -20.658278      0.378142
  O      32.487852    -19.918399      0.669997
  C      35.215708    -23.188868     -0.977205
  N      35.934870    -22.189720     -0.430093
  N      35.062599    -21.251404     -0.063812
  C      35.556769    -20.022292      0.482522
  C      35.867049    -24.430379     -1.443383
  N      37.202535    -24.489446     -1.335148
  O      35.188368    -25.367236     -1.900997
  C      35.416441    -19.758644      1.843053
  C      35.928378    -18.582999      2.361130
  C      36.588567    -17.674843      1.522377
  C      36.747153    -17.956522      0.162310
  C      36.224308    -19.138306     -0.352915
  O      37.043198    -16.544323      2.126462
  C      37.621208    -15.527433      1.291992
  H      24.074618    -17.315655     -1.392102
  H      23.234223    -16.698790      0.033711
  H      23.887786    -18.602102      1.383032
  H      23.316219    -19.283412     -0.134618
  H      27.529610    -16.933973      0.030853
  H      26.675740    -17.167616     -1.503446
  H      25.453353    -16.500824      1.222481
  H      25.438251    -15.523916     -0.253431
  H      27.988337    -19.809755      1.838512
  H      30.156711    -20.994098      1.580498
  H      29.943547    -20.431054     -2.676912
  H      27.760224    -19.298454     -2.416568
  H      30.605124    -22.861279     -1.974726
  H      31.911217    -21.913825     -2.720915
  H      32.198993    -24.183941     -0.676000
  H      32.770806    -24.127096     -2.346048
  H      37.740550    -23.738321     -0.926304
  H      37.679347    -25.333598     -1.618884
  H      34.905652    -20.468006      2.487425
  H      35.825048    -18.350500      3.416992
  H      37.258484    -17.270785     -0.502910
  H      36.331271    -19.365720     -1.409883
  H      36.911035    -15.204227      0.521542
  H      37.845291    -14.692447      1.957842
  H      38.547690    -15.882568      0.825172
  O      23.079164    -22.171109      0.419686
  H      23.891430    -21.634354      0.300899
  C      22.792686    -22.168476      1.821791
  H      23.622911    -22.591485      2.405388
  H      22.579969    -21.155182      2.193015
  H      21.904509    -22.788137      1.979788
  O      33.357668    -17.210481      0.223307
  H      33.203302    -18.043006      0.697969
  C      33.048558    -17.457090     -1.153202
  H      33.632596    -18.293383     -1.562281
  H      31.978580    -17.666712     -1.297980
  H      33.305749    -16.550849     -1.710225
  O      32.895528    -26.899127     -2.765766
  H      33.625838    -26.268394     -2.668221
  C      32.837324    -27.652638     -1.548620
  H      33.762468    -28.221416     -1.380631
  H      32.653823    -27.005312     -0.679660
  H      32.005979    -28.357884     -1.639825
  O      38.829982    -21.428912     -0.405438
  H      37.883775    -21.526099     -0.609055
  C      38.929938    -21.256561      1.014902
  H      38.624481    -20.244934      1.320218
  H      38.321383    -21.992717      1.556896
  H      39.979211    -21.401159      1.289558
83
Coordinates from ORCA-job Apixaban_Explicit4MeOH_SMD_methanol_Opt_KeepDens E -2005.008276771797
  C      24.076938    -17.308580     -0.320590
  C      24.083840    -18.697043      0.308063
  C      25.384292    -19.451781      0.175474
  N      26.503127    -18.768170     -0.148964
  C      26.557104    -17.320455     -0.457845
  C      25.350040    -16.578433      0.080665
  C      27.738414    -19.480809     -0.299473
  C      28.415639    -19.946803      0.824406
  C      29.634724    -20.592870      0.681001
  C      30.187926    -20.756164     -0.589167
  C      29.506901    -20.295244     -1.715717
  C      28.277779    -19.662783     -1.569369
  N      31.451837    -21.400614     -0.740066
  C      31.599150    -22.395321     -1.833182
  C      32.595170    -23.495306     -1.477702
  C      33.845725    -22.849784     -0.993831
  C      33.784215    -21.601875     -0.397429
  C      32.547300    -20.870707     -0.113079
  O      25.418820    -20.682090      0.388251
  O      32.492816    -19.895850      0.649062
  C      35.209516    -23.184957     -0.970327
  N      35.930131    -22.190592     -0.416083
  N      35.060936    -21.243577     -0.062440
  C      35.560869    -20.016690      0.487188
  C      35.854502    -24.431594     -1.433899
  N      37.187917    -24.503330     -1.312551
  O      35.172740    -25.359691     -1.903650
  C      35.404617    -19.748478      1.845328
  C      35.925844    -18.579472      2.370056
  C      36.613048    -17.682583      1.540523
  C      36.785524    -17.967969      0.182871
  C      36.250486    -19.141501     -0.339683
  O      37.079867    -16.560578      2.152665
  C      37.690732    -15.550286      1.332503
  H      24.026804    -17.390718     -1.414526
  H      23.187972    -16.760352      0.005563
  H      23.885895    -18.625937      1.387192
  H      23.304261    -19.344687     -0.108792
  H      27.483590    -16.933038     -0.019647
  H      26.627179    -17.197116     -1.547888
  H      25.410882    -16.511072      1.175212
  H      25.371583    -15.557321     -0.315477
  H      27.982656    -19.807590      1.811012
  H      30.159297    -20.970912      1.552437
  H      29.935092    -20.417640     -2.706022
  H      27.743354    -19.303362     -2.444184
  H      30.611809    -22.824633     -2.016721
  H      31.930827    -21.882683     -2.746952
  H      32.184358    -24.159867     -0.705165
  H      32.771701    -24.100847     -2.369859
  H      37.728205    -23.761516     -0.890629
  H      37.660128    -25.348739     -1.600344
  H      34.874916    -20.449786      2.483190
  H      35.811021    -18.344921      3.424233
  H      37.317524    -17.290853     -0.474875
  H      36.370925    -19.372066     -1.394514
  H      37.001091    -15.210107      0.551288
  H      37.916728    -14.721951      2.006024
  H      38.619193    -15.918516      0.880438
  O      23.092547    -22.199345      0.523053
  H      23.899504    -21.661061      0.379503
  C      22.829178    -22.160574      1.930395
  H      23.674944    -22.556845      2.510059
  H      22.611036    -21.138942      2.273959
  H      21.951580    -22.786228      2.119705
  O      33.396167    -17.195547      0.189259
  H      33.228197    -18.035841      0.646195
  C      33.072795    -17.408899     -1.190402
  H      33.634605    -18.252818     -1.614485
  H      31.997734    -17.589592     -1.331087
  H      33.348475    -16.500007     -1.733906
  O      32.880105    -26.869329     -2.793370
  H      33.619202    -26.250044     -2.687125
  C      32.801395    -27.628264     -1.580689
  H      33.716552    -28.212080     -1.409367
  H      32.621978    -26.982523     -0.709712
  H      31.959789    -28.319774     -1.682124
  O      38.819468    -21.447774     -0.358661
  H      37.872442    -21.553756     -0.555935
  C      38.928736    -21.271375      1.060687
  H      38.619356    -20.261480      1.365516
  H      38.328600    -22.010725      1.607637
  H      39.980752    -21.409938      1.328166
83
Coordinates from ORCA-job Apixaban_Explicit4MeOH_SMD_methanol_Opt_KeepDens E -2005.008477214035
  C      24.041738    -17.353962     -0.316644
  C      24.076382    -18.737341      0.321957
  C      25.383462    -19.475666      0.169580
  N      26.489348    -18.779449     -0.171862
  C      26.521120    -17.331761     -0.483920
  C      25.309337    -16.603537      0.064698
  C      27.733119    -19.475727     -0.329384
  C      28.416812    -19.942475      0.790163
  C      29.641966    -20.575843      0.641702
  C      30.194654    -20.728805     -0.630235
  C      29.507377    -20.266156     -1.752734
  C      28.274026    -19.643677     -1.600828
  N      31.459756    -21.368133     -0.786688
  C      31.612640    -22.360491     -1.881611
  C      32.595223    -23.470486     -1.516495
  C      33.844759    -22.836456     -1.013563
  C      33.786365    -21.586824     -0.421783
  C      32.552771    -20.847559     -0.149369
  O      25.436772    -20.707159      0.377761
  O      32.498634    -19.874088      0.614866
  C      35.204615    -23.186109     -0.965128
  N      35.926020    -22.195986     -0.403665
  N      35.060277    -21.238849     -0.068593
  C      35.562576    -20.013919      0.484567
  C      35.843893    -24.439930     -1.417794
  N      37.173442    -24.529418     -1.267420
  O      35.160286    -25.357834     -1.904267
  C      35.394273    -19.741343      1.840420
  C      35.918269    -18.574792      2.367975
  C      36.620261    -17.684844      1.542973
  C      36.802397    -17.973703      0.187754
  C      36.264708    -19.144664     -0.337563
  O      37.093794    -16.567496      2.157225
  C      37.747054    -15.577973      1.344443
  H      23.979941    -17.444855     -1.409327
  H      23.148328    -16.815855      0.015939
  H      23.898199    -18.660909      1.404253
  H      23.296650    -19.397304     -0.074290
  H      27.446284    -16.930754     -0.054147
  H      26.579022    -17.208974     -1.574579
  H      25.381653    -16.529527      1.158127
  H      25.312884    -15.584578     -0.337316
  H      27.984389    -19.814952      1.778608
  H      30.168793    -20.954884      1.511307
  H      29.934502    -20.380560     -2.744483
  H      27.735535    -19.284659     -2.473328
  H      30.624360    -22.781200     -2.078928
  H      31.960355    -21.847631     -2.789131
  H      32.168638    -24.134713     -0.752435
  H      32.778488    -24.072728     -2.409650
  H      37.712398    -23.797487     -0.826904
  H      37.642200    -25.377855     -1.551888
  H      34.854172    -20.438102      2.474452
  H      35.796469    -18.338214      3.420883
  H      37.345509    -17.301324     -0.465954
  H      36.392856    -19.377366     -1.391065
  H      37.080338    -15.219204      0.551634
  H      37.984973    -14.754757      2.020178
  H      38.672088    -15.973037      0.908335
  O      23.104689    -22.209853      0.617757
  H      23.908375    -21.675024      0.443916
  C      22.888669    -22.151322      2.033405
  H      23.755290    -22.536201      2.589390
  H      22.679203    -21.125275      2.368841
  H      22.020613    -22.776790      2.262885
  O      33.399534    -17.182631      0.144972
  H      33.227392    -18.030466      0.585677
  C      33.079991    -17.374497     -1.239325
  H      33.643921    -18.212564     -1.671983
  H      32.005183    -17.554191     -1.385070
  H      33.356211    -16.457847     -1.769088
  O      32.874463    -26.844709     -2.827922
  H      33.617150    -26.229975     -2.717515
  C      32.789254    -27.602940     -1.614938
  H      33.699927    -28.193532     -1.442568
  H      32.614751    -26.956125     -0.743741
  H      31.942571    -28.288285     -1.716130
  O      38.811192    -21.481942     -0.261668
  H      37.866931    -21.583023     -0.477917
  C      38.888173    -21.294787      1.158238
  H      38.574688    -20.281916      1.448392
  H      38.272502    -22.028187      1.696221
  H      39.932789    -21.435008      1.452612
83
Coordinates from ORCA-job Apixaban_Explicit4MeOH_SMD_methanol_Opt_KeepDens E -2005.008682847515
  C      23.994607    -17.419006     -0.310222
  C      24.063924    -18.802769      0.325466
  C      25.380816    -19.515806      0.147667
  N      26.470473    -18.798474     -0.200418
  C      26.472383    -17.348376     -0.504720
  C      25.251816    -16.644597      0.058189
  C      27.727605    -19.468559     -0.365271
  C      28.416443    -19.940106      0.749676
  C      29.650023    -20.555521      0.594920
  C      30.206753    -20.685824     -0.678329
  C      29.516729    -20.213171     -1.794660
  C      28.274916    -19.608964     -1.636926
  N      31.473523    -21.318959     -0.840875
  C      31.633374    -22.306372     -1.939553
  C      32.595882    -23.431316     -1.563245
  C      33.843632    -22.814943     -1.032789
  C      33.791555    -21.563505     -0.446014
  C      32.562805    -20.810930     -0.189199
  O      25.460204    -20.749872      0.340377
  O      32.508970    -19.841443      0.581016
  C      35.196783    -23.185706     -0.951551
  N      35.921079    -22.203145     -0.380706
  N      35.061982    -21.232606     -0.067411
  C      35.568012    -20.010648      0.488367
  C      35.825526    -24.450866     -1.384506
  N      37.146779    -24.571196     -1.186705
  O      35.138812    -25.351734     -1.897658
  C      35.382704    -19.726370      1.839286
  C      35.909225    -18.560291      2.364877
  C      36.631819    -17.683627      1.543039
  C      36.829787    -17.984346      0.192924
  C      36.288786    -19.154302     -0.330692
  O      37.104909    -16.565076      2.153656
  C      37.816624    -15.610590      1.348847
  H      23.922413    -17.510329     -1.402279
  H      23.093841    -16.898969      0.032998
  H      23.906153    -18.730242      1.411427
  H      23.286634    -19.474037     -0.055302
  H      27.393563    -16.931793     -0.080932
  H      26.517690    -17.219150     -1.595036
  H      25.334219    -16.570227      1.150823
  H      25.232077    -15.625554     -0.343026
  H      27.980919    -19.833967      1.739259
  H      30.178121    -20.940011      1.461469
  H      29.946795    -20.309506     -2.787197
  H      27.733974    -19.245604     -2.506116
  H      30.643619    -22.714376     -2.155242
  H      32.002197    -21.792415     -2.837764
  H      32.147050    -24.094733     -0.811408
  H      32.788197    -24.029048     -2.457704
  H      37.685955    -23.855291     -0.720218
  H      37.606935    -25.427827     -1.460258
  H      34.827891    -20.413795      2.470719
  H      35.775566    -18.314874      3.414313
  H      37.386925    -17.321541     -0.458652
  H      36.427526    -19.395022     -1.381094
  H      37.184548    -15.234541      0.535525
  H      38.067834    -14.790278      2.023365
  H      38.737096    -16.044789      0.941238
  O      23.147038    -22.239471      0.746599
  H      23.939260    -21.705073      0.523891
  C      22.990582    -22.137289      2.167713
  H      23.885631    -22.491413      2.698721
  H      22.780054    -21.104200      2.480116
  H      22.143356    -22.766389      2.457611
  O      33.410875    -17.170978      0.063269
  H      33.233435    -18.022390      0.494010
  C      33.092660    -17.347179     -1.323172
  H      33.661763    -18.176716     -1.765887
  H      32.018626    -17.532566     -1.470973
  H      33.362642    -16.422283     -1.841357
  O      32.860338    -26.798937     -2.891249
  H      33.610519    -26.197944     -2.756620
  C      32.740123    -27.567592     -1.687347
  H      33.636746    -28.176289     -1.504410
  H      32.562494    -26.927121     -0.812088
  H      31.883309    -28.236899     -1.808803
  O      38.800344    -21.532878     -0.124803
  H      37.861195    -21.632039     -0.362735
  C      38.837745    -21.313275      1.291790
  H      38.525354    -20.291148      1.550526
  H      38.198453    -22.027764      1.828158
  H      39.871073    -21.456206      1.622550
83
Coordinates from ORCA-job Apixaban_Explicit4MeOH_SMD_methanol_Opt_KeepDens E -2005.008810984068
  C      23.962471    -17.459173     -0.339195
  C      24.047164    -18.841321      0.298691
  C      25.369650    -19.541947      0.115730
  N      26.452353    -18.813792     -0.231025
  C      26.439249    -17.363624     -0.536735
  C      25.212041    -16.671059      0.025878
  C      27.716941    -19.469949     -0.394510
  C      28.404033    -19.945030      0.720658
  C      29.642926    -20.550027      0.566730
  C      30.207639    -20.664007     -0.704795
  C      29.520990    -20.184773     -1.819860
  C      28.272624    -19.593263     -1.663866
  N      31.477275    -21.291476     -0.867226
  C      31.645198    -22.270118     -1.972313
  C      32.596439    -23.404148     -1.594390
  C      33.840731    -22.799198     -1.042965
  C      33.789833    -21.550156     -0.451379
  C      32.561224    -20.793871     -0.199870
  O      25.461617    -20.776172      0.304363
  O      32.502988    -19.833971      0.582574
  C      35.190331    -23.179406     -0.946669
  N      35.914544    -22.204385     -0.363305
  N      35.057684    -21.229952     -0.054709
  C      35.563172    -20.009896      0.505048
  C      35.813455    -24.447610     -1.376411
  N      37.128045    -24.589324     -1.150428
  O      35.126587    -25.333591     -1.914943
  C      35.359966    -19.717677      1.851480
  C      35.884582    -18.551337      2.377927
  C      36.622974    -17.682342      1.562044
  C      36.838537    -17.990894      0.216293
  C      36.299066    -19.161063     -0.308558
  O      37.091217    -16.562408      2.173404
  C      37.845613    -15.631141      1.380970
  H      23.889648    -17.553961     -1.430934
  H      23.056660    -16.948063      0.004313
  H      23.895714    -18.766775      1.385505
  H      23.272415    -19.518792     -0.075699
  H      27.356578    -16.937130     -0.115038
  H      26.481969    -17.235904     -1.627315
  H      25.294926    -16.592251      1.118100
  H      25.181409    -15.653549     -0.378618
  H      27.962758    -19.851332      1.708886
  H      30.169338    -20.937823      1.432918
  H      29.957787    -20.267980     -2.810737
  H      27.734010    -19.226008     -2.532856
  H      30.655824    -22.670562     -2.203433
  H      32.027505    -21.750208     -2.861236
  H      32.134693    -24.072223     -0.854561
  H      32.796563    -23.993554     -2.492672
  H      37.669311    -23.890846     -0.660376
  H      37.580890    -25.449371     -1.425526
  H      34.793526    -20.399348      2.478737
  H      35.737813    -18.299962      3.424216
  H      37.407470    -17.334219     -0.431234
  H      36.450340    -19.407506     -1.355887
  H      37.242709    -15.244401      0.550608
  H      38.101668    -14.813510      2.056928
  H      38.763986    -16.091673      0.998173
  O      23.191018    -22.250438      0.905029
  H      23.964514    -21.717041      0.619727
  C      23.099419    -22.086900      2.325307
  H      24.024616    -22.400808      2.829454
  H      22.882698    -21.045066      2.602822
  H      22.279540    -22.716905      2.684118
  O      33.409579    -17.187455     -0.004837
  H      33.225523    -18.031904      0.437483
  C      33.111035    -17.386345     -1.392027
  H      33.691236    -18.218017     -1.816595
  H      32.040291    -17.581424     -1.550864
  H      33.380842    -16.466956     -1.920005
  O      32.858143    -26.752412     -2.959772
  H      33.613178    -26.162677     -2.804422
  C      32.716534    -27.542404     -1.771897
  H      33.603983    -28.165189     -1.591562
  H      32.537761    -26.916699     -0.886254
  H      31.853168    -28.199118     -1.913899
  O      38.791534    -21.555320     -0.041185
  H      37.853834    -21.663053     -0.280583
  C      38.824897    -21.310906      1.371272
  H      38.518636    -20.282249      1.611851
  H      38.178428    -22.011519      1.917292
  H      39.855535    -21.455120      1.709921
83
Coordinates from ORCA-job Apixaban_Explicit4MeOH_SMD_methanol_Opt_KeepDens E -2005.008915365192
  C      23.911808    -17.511727     -0.393926
  C      24.016384    -18.890113      0.250131
  C      25.346944    -19.574724      0.066433
  N      26.420549    -18.833690     -0.280705
  C      26.386415    -17.385431     -0.597475
  C      25.151743    -16.705367     -0.036757
  C      27.694372    -19.472639     -0.441002
  C      28.377545    -19.952907      0.675157
  C      29.623409    -20.543795      0.523510
  C      30.199645    -20.635479     -0.744916
  C      29.518982    -20.147685     -1.859025
  C      28.261527    -19.573385     -1.706718
  N      31.475329    -21.252419     -0.905412
  C      31.656777    -22.216159     -2.021234
  C      32.594160    -23.361562     -1.644421
  C      33.831247    -22.772794     -1.060938
  C      33.779720    -21.529160     -0.457701
  C      32.549648    -20.770015     -0.213388
  O      25.453669    -20.807134      0.257837
  O      32.482498    -19.825542      0.587688
  C      35.175384    -23.165737     -0.943157
  N      35.896832    -22.203463     -0.335796
  N      35.043075    -21.224664     -0.032910
  C      35.550022    -20.008538      0.533144
  C      35.790912    -24.438674     -1.368235
  N      37.091372    -24.615347     -1.091723
  O      35.107508    -25.300171     -1.950024
  C      35.314307    -19.701854      1.870752
  C      35.839772    -18.537502      2.400279
  C      36.611387    -17.685329      1.597915
  C      36.860504    -18.009009      0.261229
  C      36.319812    -19.177022     -0.267467
  O      37.075030    -16.565202      2.212301
  C      37.888851    -15.666825      1.441602
  H      23.837214    -17.613870     -1.484878
  H      23.000299    -17.011219     -0.050241
  H      23.869647    -18.810163      1.337314
  H      23.247060    -19.577311     -0.117491
  H      27.299570    -16.943421     -0.183753
  H      26.423347    -17.266964     -1.689320
  H      25.236287    -16.616323      1.054482
  H      25.106328    -15.691484     -0.449164
  H      27.927324    -19.875287      1.660617
  H      30.147692    -20.936250      1.388912
  H      29.966022    -20.211677     -2.846776
  H      27.726723    -19.200560     -2.575579
  H      30.669202    -22.607159     -2.275172
  H      32.056746    -21.685260     -2.895664
  H      32.115446    -24.039326     -0.924385
  H      32.807388    -23.936467     -2.549019
  H      37.630156    -23.943503     -0.564001
  H      37.533431    -25.482070     -1.363790
  H      34.722695    -20.370459      2.488601
  H      35.667989    -18.274500      3.439922
  H      37.456029    -17.366662     -0.376596
  H      36.496484    -19.435505     -1.307828
  H      37.331149    -15.269459      0.585219
  H      38.147242    -14.851673      2.119597
  H      38.804509    -16.162980      1.098444
  O      23.288338    -22.257388      1.183332
  H      24.016168    -21.725603      0.791611
  C      23.324642    -22.013777      2.592676
  H      24.302470    -22.270494      3.025340
  H      23.098007    -20.964749      2.833927
  H      22.564352    -22.644848      3.063902
  O      33.411510    -17.222412     -0.120522
  H      33.210343    -18.051950      0.344489
  C      33.149402    -17.462688     -1.507417
  H      33.735237    -18.309265     -1.894115
  H      32.082334    -17.656518     -1.689973
  H      33.437528    -16.561156     -2.056339
  O      32.861057    -26.675748     -3.077650
  H      33.621484    -26.101531     -2.893055
  C      32.695874    -27.503870     -1.919094
  H      33.573387    -28.143708     -1.750182
  H      32.514306    -26.906525     -1.014645
  H      31.826236    -28.144655     -2.092294
  O      38.760363    -21.586729      0.096515
  H      37.826489    -21.710058     -0.154431
  C      38.774060    -21.296740      1.500456
  H      38.475392    -20.257604      1.704040
  H      38.111328    -21.972244      2.058427
  H      39.797188    -21.440104      1.861781
83
Coordinates from ORCA-job Apixaban_Explicit4MeOH_SMD_methanol_Opt_KeepDens E -2005.008981933078
  C      23.915542    -17.502697     -0.412001
  C      24.012510    -18.881069      0.233568
  C      25.342712    -19.570477      0.062345
  N      26.420613    -18.833904     -0.281592
  C      26.390262    -17.387962     -0.610354
  C      25.158082    -16.700991     -0.053763
  C      27.692655    -19.477951     -0.436689
  C      28.370223    -19.960115      0.682166
  C      29.614335    -20.555647      0.534699
  C      30.193653    -20.650580     -0.732076
  C      29.518442    -20.161891     -1.848906
  C      28.262684    -19.582415     -1.700799
  N      31.469258    -21.269839     -0.889052
  C      31.651836    -22.229891     -2.007881
  C      32.596317    -23.371331     -1.638579
  C      33.832415    -22.778328     -1.057631
  C      33.775667    -21.539178     -0.444857
  C      32.541808    -20.787496     -0.194692
  O      25.443109    -20.801395      0.262377
  O      32.470259    -19.845913      0.609229
  C      35.180159    -23.162115     -0.951852
  N      35.898465    -22.198753     -0.342447
  N      35.040072    -21.228751     -0.025808
  C      35.542702    -20.011811      0.542241
  C      35.801900    -24.428070     -1.389245
  N      37.104894    -24.598334     -1.121679
  O      35.121524    -25.290515     -1.973552
  C      35.306931    -19.710059      1.881043
  C      35.827689    -18.544835      2.413388
  C      36.593933    -17.686252      1.612988
  C      36.843639    -18.004876      0.275011
  C      36.308547    -19.174401     -0.256303
  O      37.051286    -16.564814      2.230495
  C      37.860174    -15.659676      1.462151
  H      23.842756    -17.605575     -1.502979
  H      23.005612    -16.998120     -0.070460
  H      23.856913    -18.800162      1.319481
  H      23.244835    -19.566582     -0.140790
  H      27.305518    -16.945852     -0.201562
  H      26.426253    -17.278237     -1.703195
  H      25.241231    -16.608986      1.037358
  H      25.117139    -15.688002     -0.468990
  H      27.916672    -19.879399      1.665806
  H      30.135399    -20.949804      1.401199
  H      29.967999    -20.228179     -2.835278
  H      27.731483    -19.209031     -2.571559
  H      30.665377    -22.624667     -2.260316
  H      32.046414    -21.694382     -2.882088
  H      32.124047    -24.054734     -0.919594
  H      32.809394    -23.941827     -2.545880
  H      37.643735    -23.927623     -0.592763
  H      37.549524    -25.461374     -1.401225
  H      34.719471    -20.383290      2.497748
  H      35.655791    -18.285561      3.453968
  H      37.435431    -17.358199     -0.361849
  H      36.485953    -19.429491     -1.297352
  H      37.299436    -15.260941      0.608532
  H      38.117741    -14.846597      2.142862
  H      38.776364    -16.151911      1.114777
  O      23.282312    -22.226090      1.222522
  H      24.008666    -21.704442      0.815036
  C      23.321561    -21.951794      2.625238
  H      24.299412    -22.201128      3.062341
  H      23.097674    -20.897151      2.844150
  H      22.560252    -22.570534      3.111101
  O      33.399944    -17.250125     -0.120469
  H      33.195888    -18.072462      0.356186
  C      33.155344    -17.515268     -1.505748
  H      33.747122    -18.366653     -1.872207
  H      32.090899    -17.714381     -1.698460
  H      33.448152    -16.622988     -2.067381
  O      32.878128    -26.677600     -3.099877
  H      33.632553    -26.096304     -2.912734
  C      32.724546    -27.519359     -1.949806
  H      33.609895    -28.150344     -1.788837
  H      32.536684    -26.933138     -1.039386
  H      31.862370    -28.168578     -2.128864
  O      38.768394    -21.564024      0.077376
  H      37.833370    -21.691385     -0.166869
  C      38.794716    -21.278555      1.481949
  H      38.488314    -20.243110      1.692249
  H      38.145911    -21.962398      2.045891
  H      39.823719    -21.412307      1.830076
83
Coordinates from ORCA-job Apixaban_Explicit4MeOH_SMD_methanol_Opt_KeepDens E -2005.009045120446
  C      23.918952    -17.489873     -0.434636
  C      24.005855    -18.870635      0.207353
  C      25.336813    -19.564340      0.054184
  N      26.420279    -18.832061     -0.282352
  C      26.393515    -17.389142     -0.624830
  C      25.164544    -16.695411     -0.071210
  C      27.690230    -19.481875     -0.429414
  C      28.357620    -19.970203      0.692762
  C      29.599553    -20.571751      0.552352
  C      30.185635    -20.668033     -0.711055
  C      29.519701    -20.175620     -1.831853
  C      28.266899    -19.588399     -1.690441
  N      31.460176    -21.291337     -0.863508
  C      31.642491    -22.245596     -1.987360
  C      32.596917    -23.381733     -1.629471
  C      33.832963    -22.783197     -1.054683
  C      33.770052    -21.550683     -0.428788
  C      32.532176    -20.809948     -0.167392
  O      25.429636    -20.793666      0.262780
  O      32.458277    -19.873375      0.642365
  C      35.185520    -23.154613     -0.967174
  N      35.900405    -22.189983     -0.355768
  N      35.036381    -21.231972     -0.020247
  C      35.535842    -20.014832      0.550177
  C      35.814938    -24.411305     -1.421442
  N      37.121147    -24.572499     -1.164818
  O      35.138508    -25.275158     -2.008417
  C      35.301898    -19.720005      1.891024
  C      35.819858    -18.555420      2.427715
  C      36.580675    -17.690134      1.629654
  C      36.828484    -18.001542      0.289564
  C      36.297371    -19.170971     -0.245723
  O      37.035932    -16.570058      2.251810
  C      37.833164    -15.654448      1.483154
  H      23.849134    -17.588823     -1.526116
  H      23.010916    -16.981551     -0.094241
  H      23.834083    -18.794077      1.291093
  H      23.243561    -19.554055     -0.181650
  H      27.311298    -16.947135     -0.221801
  H      26.427237    -17.288289     -1.718610
  H      25.245483    -16.604353      1.020220
  H      25.129618    -15.681861     -0.485751
  H      27.897402    -19.887912      1.673140
  H      30.113737    -20.971281      1.420359
  H      29.973916    -20.243754     -2.815856
  H      27.742554    -19.212132     -2.564050
  H      30.657212    -22.645503     -2.236358
  H      32.028683    -21.703596     -2.861535
  H      32.134445    -24.072161     -0.910796
  H      32.807692    -23.947199     -2.540334
  H      37.657897    -23.901872     -0.633831
  H      37.570025    -25.430536     -1.452866
  H      34.718858    -20.398374      2.506238
  H      35.649934    -18.301687      3.469995
  H      37.416458    -17.350096     -0.345958
  H      36.474124    -19.421071     -1.288077
  H      37.263729    -15.254431      0.635958
  H      38.090801    -14.843931      2.166792
  H      38.749573    -16.139105      1.125791
  O      23.269624    -22.188364      1.270412
  H      23.993523    -21.680798      0.841607
  C      23.315095    -21.872468      2.663479
  H      24.294833    -22.109120      3.103561
  H      23.093075    -20.811448      2.851752
  H      22.555112    -22.475823      3.170322
  O      33.389612    -17.293709     -0.119472
  H      33.180841    -18.105028      0.373718
  C      33.163470    -17.596550     -1.499796
  H      33.756999    -18.459533     -1.834844
  H      32.101026    -17.798202     -1.701973
  H      33.466861    -16.721965     -2.083512
  O      32.897106    -26.681449     -3.126687
  H      33.641117    -26.086220     -2.942361
  C      32.772933    -27.539801     -1.985624
  H      33.673429    -28.152828     -1.840297
  H      32.579817    -26.968307     -1.066967
  H      31.923740    -28.205714     -2.165526
  O      38.773416    -21.530519      0.058183
  H      37.838779    -21.659926     -0.185259
  C      38.802758    -21.248793      1.463254
  H      38.481321    -20.218877      1.677869
  H      38.169023    -21.944477      2.029772
  H      39.836322    -21.366454      1.803594
83
Coordinates from ORCA-job Apixaban_Explicit4MeOH_SMD_methanol_Opt_KeepDens E -2005.009076832301
  C      23.919157    -17.479034     -0.435448
  C      24.003673    -18.862912      0.200189
  C      25.334282    -19.558589      0.048996
  N      26.419904    -18.828453     -0.286238
  C      26.393178    -17.386873     -0.634397
  C      25.169022    -16.690041     -0.073835
  C      27.688642    -19.481486     -0.431604
  C      28.351193    -19.975232      0.690870
  C      29.591716    -20.580412      0.552947
  C      30.181426    -20.676062     -0.708742
  C      29.520168    -20.178764     -1.830576
  C      28.269219    -19.586936     -1.691313
  N      31.454867    -21.302970     -0.858684
  C      31.638773    -22.254681     -1.984458
  C      32.597479    -23.387955     -1.628892
  C      33.832656    -22.786249     -1.055150
  C      33.765642    -21.556827     -0.423918
  C      32.525524    -20.821680     -0.160508
  O      25.424240    -20.788128      0.257887
  O      32.445796    -19.888202      0.652301
  C      35.187164    -23.151938     -0.973210
  N      35.899343    -22.186403     -0.359828
  N      35.031801    -21.233670     -0.018207
  C      35.528262    -20.016020      0.553836
  C      35.820918    -24.404085     -1.434585
  N      37.128243    -24.560686     -1.180529
  O      35.148043    -25.268100     -2.025248
  C      35.285095    -19.719467      1.892805
  C      35.798825    -18.553927      2.431649
  C      36.565097    -17.689721      1.637583
  C      36.822234    -18.003018      0.299781
  C      36.295059    -19.173046     -0.237691
  O      37.016345    -16.568821      2.261232
  C      37.817560    -15.653816      1.495752
  H      23.844952    -17.572447     -1.527084
  H      23.013679    -16.969121     -0.089249
  H      23.827711    -18.792459      1.283604
  H      23.242788    -19.544321     -0.195091
  H      27.314829    -16.945324     -0.239118
  H      26.418681    -17.288895     -1.728661
  H      25.254668    -16.602844      1.017596
  H      25.135920    -15.675063     -0.485003
  H      27.888097    -19.893590      1.669950
  H      30.101937    -20.984171      1.421312
  H      29.976400    -20.246495     -2.813622
  H      27.748923    -19.207023     -2.565760
  H      30.654500    -22.657403     -2.232903
  H      32.022449    -21.710201     -2.858289
  H      32.138125    -24.080628     -0.910364
  H      32.809113    -23.952173     -2.540245
  H      37.662369    -23.890428     -0.646408
  H      37.580007    -25.415999     -1.472112
  H      34.698032    -20.397151      2.504903
  H      35.621984    -18.298936      3.472458
  H      37.414048    -17.352242     -0.332843
  H      36.478798    -19.424144     -1.278594
  H      37.252609    -15.255812      0.644513
  H      38.070069    -14.841848      2.179578
  H      38.736589    -16.138025      1.144671
  O      23.269064    -22.164149      1.304649
  H      23.989054    -21.664503      0.860705
  C      23.334741    -21.834421      2.693763
  H      24.320296    -22.068640      3.122005
  H      23.117742    -20.771086      2.874468
  H      22.580735    -22.431153      3.217012
  O      33.375985    -17.315463     -0.132679
  H      33.163451    -18.119739      0.370568
  C      33.169534    -17.643756     -1.510409
  H      33.767581    -18.513238     -1.819920
  H      32.109883    -17.849567     -1.724264
  H      33.481988    -16.780750     -2.106491
  O      32.911061    -26.685182     -3.146552
  H      33.646954    -26.080700     -2.960173
  C      32.801501    -27.553099     -2.011298
  H      33.711116    -28.153801     -1.871545
  H      32.601405    -26.990571     -1.088596
  H      31.961858    -28.230030     -2.194830
  O      38.773376    -21.514843      0.065515
  H      37.839617    -21.644095     -0.180710
  C      38.799742    -21.234379      1.470787
  H      38.464319    -20.209228      1.686706
  H      38.176436    -21.939636      2.037159
  H      39.835350    -21.337999      1.809396
83
Coordinates from ORCA-job Apixaban_Explicit4MeOH_SMD_methanol_Opt_KeepDens E -2005.009111608922
  C      23.915163    -17.469211     -0.438744
  C      23.996983    -18.857283      0.187997
  C      25.327212    -19.554229      0.038200
  N      26.415131    -18.825685     -0.293875
  C      26.388171    -17.385628     -0.646812
  C      25.169274    -16.686218     -0.077919
  C      27.683017    -19.480290     -0.434983
  C      28.337948    -19.981560      0.688515
  C      29.578072    -20.588728      0.555208
  C      30.175369    -20.678883     -0.703156
  C      29.521594    -20.174035     -1.826263
  C      28.271569    -19.580174     -1.691541
  N      31.447767    -21.307860     -0.850343
  C      31.632158    -22.255799     -1.979182
  C      32.593804    -23.387572     -1.626948
  C      33.828862    -22.784203     -1.054824
  C      33.759572    -21.557882     -0.418421
  C      32.518559    -20.826740     -0.151219
  O      25.414844    -20.784493      0.245017
  O      32.438451    -19.895917      0.665352
  C      35.184684    -23.146144     -0.978613
  N      35.895779    -22.180999     -0.363178
  N      35.025927    -21.232049     -0.015829
  C      35.520874    -20.014911      0.558182
  C      35.820872    -24.394152     -1.448080
  N      37.128844    -24.548782     -1.194678
  O      35.150700    -25.255760     -2.044937
  C      35.264185    -19.712768      1.893439
  C      35.775790    -18.547006      2.433909
  C      36.554292    -17.688846      1.644962
  C      36.824651    -18.007965      0.311385
  C      36.298827    -19.177411     -0.227909
  O      37.004948    -16.568206      2.269061
  C      37.815375    -15.659143      1.506264
  H      23.836362    -17.554981     -1.530628
  H      23.012723    -16.958311     -0.085903
  H      23.816041    -18.795348      1.271055
  H      23.237782    -19.536253     -0.214799
  H      27.313575    -16.944621     -0.259798
  H      26.404232    -17.289566     -1.741404
  H      25.259808    -16.604919      1.013607
  H      25.138312    -15.669266     -0.484265
  H      27.869159    -19.903921      1.665242
  H      30.081995    -20.998122      1.424624
  H      29.983036    -20.237970     -2.807149
  H      27.757990    -19.194302     -2.567379
  H      30.648394    -22.660468     -2.226628
  H      32.013333    -21.708489     -2.852339
  H      32.136952    -24.081655     -0.908173
  H      32.805207    -23.950866     -2.538828
  H      37.659672    -23.880399     -0.655083
  H      37.582740    -25.401803     -1.489560
  H      34.668302    -20.386296      2.501459
  H      35.588965    -18.287911      3.471927
  H      37.425571    -17.361572     -0.317102
  H      36.492303    -19.432020     -1.266182
  H      37.259007    -15.264979      0.647483
  H      38.062105    -14.843727      2.188146
  H      38.737147    -16.146473      1.166921
  O      23.269457    -22.142433      1.347553
  H      23.981663    -21.649712      0.884631
  C      23.375660    -21.812503      2.734725
  H      24.371960    -22.050692      3.134786
  H      23.168433    -20.748297      2.920870
  H      22.634250    -22.406087      3.278961
  O      33.374153    -17.338659     -0.165958
  H      33.154909    -18.131754      0.351834
  C      33.184333    -17.699625     -1.537948
  H      33.780704    -18.581066     -1.815576
  H      32.126130    -17.904377     -1.760318
  H      33.511247    -16.854332     -2.151274
  O      32.917020    -26.680694     -3.170290
  H      33.643387    -26.065354     -2.982992
  C      32.829662    -27.559795     -2.041643
  H      33.750452    -28.145505     -1.911909
  H      32.625378    -27.008007     -1.113369
  H      32.000895    -28.249772     -2.225944
  O      38.769522    -21.503554      0.088869
  H      37.837605    -21.629810     -0.165727
  C      38.784080    -21.221529      1.494025
  H      38.431180    -20.201701      1.707514
  H      38.169042    -21.936460      2.057584
  H      39.819509    -21.308484      1.837588
83
Coordinates from ORCA-job Apixaban_Explicit4MeOH_SMD_methanol_Opt_KeepDens E -2005.009136044343
  C      23.905256    -17.471870     -0.436729
  C      23.992999    -18.859162      0.190794
  C      25.322670    -19.554948      0.033374
  N      26.408480    -18.826641     -0.306809
  C      26.376268    -17.388593     -0.666950
  C      25.162379    -16.687757     -0.088403
  C      27.676775    -19.479925     -0.448444
  C      28.330544    -19.983983      0.674455
  C      29.571279    -20.590163      0.541573
  C      30.171619    -20.675893     -0.715603
  C      29.519763    -20.166705     -1.838056
  C      28.268704    -19.574902     -1.704041
  N      31.444335    -21.304464     -0.861012
  C      31.632446    -22.250676     -1.990681
  C      32.592383    -23.383098     -1.635247
  C      33.825613    -22.780444     -1.058320
  C      33.754648    -21.554865     -0.420987
  C      32.512963    -20.823487     -0.158322
  O      25.413299    -20.784814      0.243216
  O      32.428579    -19.894270      0.659622
  C      35.180858    -23.143276     -0.977621
  N      35.890525    -22.179287     -0.358590
  N      35.019754    -21.229697     -0.014089
  C      35.513393    -20.013334      0.562058
  C      35.818495    -24.389978     -1.448559
  N      37.125012    -24.546134     -1.187547
  O      35.151857    -25.248427     -2.053653
  C      35.241746    -19.703878      1.892617
  C      35.751629    -18.537879      2.434122
  C      36.543994    -17.686980      1.650880
  C      36.828989    -18.013424      0.322223
  C      36.304179    -19.182625     -0.218441
  O      36.993294    -16.566165      2.275416
  C      37.820657    -15.666758      1.519546
  H      23.816646    -17.558734     -1.527756
  H      23.005639    -16.960727     -0.076616
  H      23.818925    -18.797084      1.275008
  H      23.231724    -19.539596     -0.205606
  H      27.304964    -16.944086     -0.292083
  H      26.379602    -17.297367     -1.762071
  H      25.262690    -16.604820      1.002142
  H      25.127853    -15.671709     -0.496617
  H      27.860528    -19.909909      1.650883
  H      30.073554    -21.000994      1.411364
  H      29.983471    -20.226680     -2.818169
  H      27.757303    -19.185964     -2.579822
  H      30.649441    -22.655179     -2.241489
  H      32.016732    -21.702593     -2.861914
  H      32.132222    -24.076431     -0.917854
  H      32.807652    -23.946695     -2.545997
  H      37.651434    -23.880413     -0.640497
  H      37.580601    -25.398372     -1.482045
  H      34.635929    -20.372240      2.496351
  H      35.553540    -18.273596      3.468714
  H      37.440568    -17.372586     -0.301602
  H      36.508377    -19.441824     -1.253499
  H      37.279361    -15.274014      0.650567
  H      38.061991    -14.848858      2.200447
  H      38.744460    -16.161514      1.196910
  O      23.286520    -22.123911      1.408155
  H      23.989239    -21.636913      0.925639
  C      23.440046    -21.798681      2.792681
  H      24.447065    -22.044848      3.159396
  H      23.246124    -20.733700      2.988022
  H      22.712794    -22.389042      3.358983
  O      33.369739    -17.344928     -0.204891
  H      33.143928    -18.131163      0.320445
  C      33.198078    -17.723746     -1.575024
  H      33.796287    -18.610448     -1.831141
  H      32.142564    -17.928989     -1.808922
  H      33.536072    -16.887392     -2.194334
  O      32.926751    -26.674376     -3.200803
  H      33.645444    -26.053707     -3.001717
  C      32.839047    -27.564340     -2.080454
  H      33.764151    -28.142796     -1.948855
  H      32.623283    -27.022546     -1.148912
  H      32.017954    -28.260100     -2.276813
  O      38.761410    -21.507138      0.136245
  H      37.832541    -21.629072     -0.131228
  C      38.757247    -21.221786      1.540901
  H      38.392881    -20.204728      1.748306
  H      38.141588    -21.941018      2.098498
  H      39.789272    -21.299123      1.896559
83
Coordinates from ORCA-job Apixaban_Explicit4MeOH_SMD_methanol_Opt_KeepDens E -2005.009166369360
  C      23.896519    -17.473510     -0.446900
  C      23.986950    -18.856347      0.189742
  C      25.314419    -19.554938      0.028906
  N      26.399401    -18.830696     -0.323456
  C      26.365445    -17.396186     -0.696743
  C      25.157322    -16.688650     -0.113934
  C      27.666970    -19.484680     -0.463688
  C      28.318265    -19.991843      0.659412
  C      29.559773    -20.596836      0.527906
  C      30.164141    -20.677396     -0.727642
  C      29.514899    -20.164828     -1.849961
  C      28.262787    -19.575276     -1.717788
  N      31.438274    -21.302999     -0.871227
  C      31.631301    -22.245261     -2.003279
  C      32.590351    -23.378051     -1.646863
  C      33.821001    -22.775794     -1.064381
  C      33.747299    -21.552241     -0.423549
  C      32.504055    -20.821967     -0.163749
  O      25.404864    -20.783124      0.248276
  O      32.416167    -19.895064      0.656503
  C      35.176026    -23.138062     -0.980509
  N      35.883575    -22.176023     -0.356130
  N      35.011021    -21.227494     -0.011804
  C      35.501499    -20.012399      0.568809
  C      35.816481    -24.381403     -1.456256
  N      37.121707    -24.538136     -1.188690
  O      35.154471    -25.235730     -2.072087
  C      35.214269    -19.698359      1.894906
  C      35.721008    -18.532574      2.439700
  C      36.526488    -17.686600      1.664468
  C      36.826870    -18.017490      0.340291
  C      36.304596    -19.186099     -0.204110
  O      36.973106    -16.566464      2.292069
  C      37.814511    -15.672869      1.545041
  H      23.799415    -17.568025     -1.536570
  H      23.000453    -16.958385     -0.083932
  H      23.820271    -18.786619      1.274705
  H      23.221744    -19.538645     -0.195780
  H      27.297651    -16.948664     -0.334684
  H      26.358168    -17.314688     -1.792625
  H      25.266226    -16.598121      0.975171
  H      25.121432    -15.675781     -0.529780
  H      27.846481    -19.921094      1.635207
  H      30.059855    -21.008806      1.398466
  H      29.982107    -20.220535     -2.828716
  H      27.754198    -19.183310     -2.593844
  H      30.649494    -22.649812     -2.258772
  H      32.018540    -21.694335     -2.871362
  H      32.127670    -24.072280     -0.931961
  H      32.810232    -23.940177     -2.557334
  H      37.643337    -23.876511     -0.632209
  H      37.579736    -25.388327     -1.485299
  H      34.599231    -20.363362      2.492877
  H      35.510844    -18.265239      3.471110
  H      37.448966    -17.380496     -0.277002
  H      36.520423    -19.447878     -1.236115
  H      37.287061    -15.280438      0.667516
  H      38.049723    -14.853774      2.226682
  H      38.740627    -16.172620      1.237024
  O      23.306353    -22.088679      1.500896
  H      23.995408    -21.612524      0.988888
  C      23.527104    -21.766457      2.877669
  H      24.545942    -22.027421      3.198298
  H      23.357148    -20.698921      3.080915
  H      22.817874    -22.346979      3.476027
  O      33.362444    -17.356187     -0.252710
  H      33.129219    -18.130724      0.286388
  C      33.216671    -17.765568     -1.617493
  H      33.819090    -18.657968     -1.841416
  H      32.165470    -17.974791     -1.865981
  H      33.567441    -16.942902     -2.247761
  O      32.941791    -26.664537     -3.241689
  H      33.650643    -26.036555     -3.030956
  C      32.859952    -27.568852     -2.132192
  H      33.791499    -28.137489     -2.003300
  H      32.633791    -27.040867     -1.195256
  H      32.048293    -28.272130     -2.340468
  O      38.752660    -21.511337      0.188623
  H      37.827761    -21.627467     -0.094271
  C      38.727342    -21.222964      1.592630
  H      38.357446    -20.206566      1.792909
  H      38.105236    -21.942772      2.142371
  H      39.754316    -21.297012      1.963092
83
Coordinates from ORCA-job Apixaban_Explicit4MeOH_SMD_methanol_Opt_KeepDens E -2005.009094085566
  C      23.860709    -17.477915     -0.489052
  C      23.964171    -18.837774      0.192548
  C      25.281241    -19.550501      0.016579
  N      26.360709    -18.846624     -0.393346
  C      26.319395    -17.428135     -0.822626
  C      25.136004    -16.690294     -0.225684
  C      27.625259    -19.504795     -0.529124
  C      28.268204    -20.021875      0.594966
  C      29.512263    -20.622796      0.468522
  C      30.130401    -20.687102     -0.781215
  C      29.489670    -20.165047     -1.903652
  C      28.233823    -19.582551     -1.778185
  N      31.410567    -21.301413     -0.916242
  C      31.625527    -22.227620     -2.057307
  C      32.581079    -23.361778     -1.696720
  C      33.799863    -22.761280     -1.089085
  C      33.713266    -21.546847     -0.432901
  C      32.463024    -20.821464     -0.186792
  O      25.370551    -20.769631      0.280010
  O      32.358321    -19.903453      0.641145
  C      35.154347    -23.119855     -0.991712
  N      35.851398    -22.165921     -0.344084
  N      34.970527    -21.223743      0.000612
  C      35.446192    -20.013566      0.600276
  C      35.808673    -24.348093     -1.486789
  N      37.108705    -24.505683     -1.193899
  O      35.166659    -25.185962     -2.144907
  C      35.098614    -19.685180      1.907988
  C      35.589741    -18.519772      2.467370
  C      36.441250    -17.688497      1.726233
  C      36.802095    -18.033512      0.420730
  C      36.294654    -19.201106     -0.139578
  O      36.871095    -16.569239      2.366753
  C      37.759884    -15.692760      1.655827
  H      23.727258    -17.610369     -1.570929
  H      22.979959    -16.944021     -0.116556
  H      23.833072    -18.728893      1.279436
  H      23.181592    -19.527735     -0.140919
  H      27.265270    -16.970241     -0.513856
  H      26.269874    -17.388910     -1.919757
  H      25.281632    -16.562641      0.855341
  H      25.093073    -15.693287     -0.677449
  H      27.790923    -19.961329      1.568604
  H      30.004642    -21.038130      1.341951
  H      29.968589    -20.207705     -2.877519
  H      27.734326    -19.182036     -2.655490
  H      30.649380    -22.631945     -2.334231
  H      32.025905    -21.664532     -2.911450
  H      32.107950    -24.061373     -0.993990
  H      32.821205    -23.916393     -2.606395
  H      37.610405    -23.861354     -0.600084
  H      37.577703    -25.346351     -1.500388
  H      34.450236    -20.339832      2.481225
  H      35.332310    -18.242874      3.485438
  H      37.461468    -17.408065     -0.168959
  H      36.556507    -19.471024     -1.158593
  H      37.282919    -15.301766      0.749387
  H      37.970595    -14.869971      2.341095
  H      38.693855    -16.207446      1.400373
  O      23.439230    -21.915113      1.895919
  H      24.054391    -21.490114      1.259725
  C      23.948475    -21.616059      3.201560
  H      24.987276    -21.955411      3.319732
  H      23.900607    -20.539370      3.420646
  H      23.328050    -22.144549      3.932078
  O      33.318995    -17.411141     -0.437700
  H      33.057894    -18.136337      0.153881
  C      33.280430    -17.942333     -1.768876
  H      33.903124    -18.843111     -1.863845
  H      32.251605    -18.181770     -2.074790
  H      33.675443    -17.172309     -2.437863
  O      33.007397    -26.624577     -3.403153
  H      33.677355    -25.972079     -3.145889
  C      32.946902    -27.582799     -2.337863
  H      33.901122    -28.114469     -2.217275
  H      32.681256    -27.110034     -1.382172
  H      32.171915    -28.310958     -2.594313
  O      38.706853    -21.533672      0.391071
  H      37.799074    -21.628490      0.052191
  C      38.607133    -21.232015      1.789514
  H      38.229478    -20.213542      1.961352
  H      37.954942    -21.946299      2.310950
  H      39.613133    -21.304421      2.213450
83
Coordinates from ORCA-job Apixaban_Explicit4MeOH_SMD_methanol_Opt_KeepDens E -2005.009241153886
  C      23.871411    -17.485150     -0.467479
  C      23.979251    -18.845989      0.211569
  C      25.300066    -19.551528      0.034412
  N      26.376102    -18.839877     -0.369584
  C      26.332911    -17.415912     -0.781516
  C      25.139064    -16.690145     -0.191284
  C      27.643484    -19.492625     -0.510563
  C      28.297476    -19.997551      0.612654
  C      29.541919    -20.595885      0.480365
  C      30.147893    -20.671804     -0.774877
  C      29.496177    -20.161959     -1.896406
  C      28.240506    -19.579664     -1.764378
  N      31.426038    -21.289271     -0.914996
  C      31.630778    -22.228276     -2.047609
  C      32.582816    -23.363894     -1.682025
  C      33.807290    -22.764602     -1.084146
  C      33.729754    -21.542291     -0.441145
  C      32.484769    -20.806895     -0.197411
  O      25.393938    -20.772331      0.288352
  O      32.391360    -19.876913      0.617867
  C      35.160089    -23.130249     -0.985873
  N      35.863739    -22.172671     -0.350664
  N      34.989559    -21.222493     -0.012764
  C      35.472971    -20.012166      0.582064
  C      35.806139    -24.369128     -1.464943
  N      37.107562    -24.527126     -1.180396
  O      35.154143    -25.216548     -2.100856
  C      35.154149    -19.695264      1.899953
  C      35.653444    -18.532077      2.456757
  C      36.483368    -17.690747      1.702782
  C      36.815448    -18.023962      0.386434
  C      36.300793    -19.190329     -0.170734
  O      36.920451    -16.573544      2.342536
  C      37.785208    -15.682392      1.619907
  H      23.747505    -17.616242     -1.550699
  H      22.984446    -16.958352     -0.100248
  H      23.847048    -18.738825      1.298482
  H      23.200002    -19.538186     -0.124894
  H      27.272425    -16.957519     -0.454697
  H      26.298840    -17.364902     -1.878714
  H      25.274826    -16.565491      0.891359
  H      25.092634    -15.691337     -0.638814
  H      27.827974    -19.930000      1.589582
  H      30.042932    -21.003685      1.352389
  H      29.965340    -20.214278     -2.874486
  H      27.730930    -19.189620     -2.640591
  H      30.651359    -22.630229     -2.316086
  H      32.029280    -21.675228     -2.909173
  H      32.109936    -24.056160     -0.971918
  H      32.814663    -23.926628     -2.588988
  H      37.617613    -23.872063     -0.605771
  H      37.571475    -25.374021     -1.477270
  H      34.521290    -20.356844      2.482756
  H      35.417938    -18.263737      3.482427
  H      37.457733    -17.390714     -0.213789
  H      36.541074    -19.452529     -1.197107
  H      37.283897    -15.285042      0.729565
  H      38.006549    -14.865785      2.309156
  H      38.716730    -16.186354      1.335913
  O      23.363245    -21.983728      1.726797
  H      24.021091    -21.536476      1.151217
  C      23.771982    -21.726331      3.075070
  H      24.797987    -22.074251      3.261846
  H      23.711086    -20.656476      3.322890
  H      23.096404    -22.272821      3.740656
  O      33.363024    -17.358899     -0.368701
  H      33.108962    -18.110456      0.192120
  C      33.263129    -17.814116     -1.724158
  H      33.871226    -18.713249     -1.897416
  H      32.220335    -18.028009     -2.000437
  H      33.637406    -17.011452     -2.366343
  O      32.972304    -26.652085     -3.317734
  H      33.660632    -26.009952     -3.083482
  C      32.896073    -27.577919     -2.225593
  H      33.837734    -28.129614     -2.096319
  H      32.648772    -27.072492     -1.281715
  H      32.101627    -28.293789     -2.456000
  O      38.729241    -21.547016      0.316877
  H      37.815567    -21.641327     -0.006446
  C      38.649209    -21.254936      1.718422
  H      38.285018    -20.233644      1.901775
  H      37.995116    -21.965302      2.242649
  H      39.658935    -21.341610      2.130914
83
Coordinates from ORCA-job Apixaban_Explicit4MeOH_SMD_methanol_Opt_KeepDens E -2005.009266800725
  C      23.895932    -17.446681     -0.450971
  C      23.985123    -18.821580      0.202396
  C      25.306396    -19.530625      0.035825
  N      26.391727    -18.817295     -0.338269
  C      26.362963    -17.385031     -0.722455
  C      25.163352    -16.665006     -0.137698
  C      27.656846    -19.475758     -0.477845
  C      28.307324    -19.984242      0.645680
  C      29.549031    -20.588398      0.514118
  C      30.153527    -20.669721     -0.741514
  C      29.504208    -20.158591     -1.863935
  C      28.252862    -19.566960     -1.731740
  N      31.428101    -21.295012     -0.883109
  C      31.622167    -22.241804     -2.011031
  C      32.578465    -23.374137     -1.647473
  C      33.809073    -22.770401     -1.066375
  C      33.736176    -21.544843     -0.428581
  C      32.493175    -20.809522     -0.177125
  O      25.388819    -20.756741      0.266185
  O      32.406516    -19.872711      0.631013
  C      35.163966    -23.132799     -0.982388
  N      35.871963    -22.170319     -0.359407
  N      35.000298    -21.220556     -0.016482
  C      35.490608    -20.007903      0.568894
  C      35.807207    -24.374359     -1.458996
  N      37.113557    -24.524322     -1.194424
  O      35.147722    -25.231760     -2.073516
  C      35.191911    -19.693160      1.892188
  C      35.698497    -18.529953      2.442550
  C      36.514055    -17.686045      1.676085
  C      36.826737    -18.017664      0.354693
  C      36.306058    -19.184680     -0.195246
  O      36.957193    -16.567343      2.309054
  C      37.790770    -15.663442      1.565642
  H      23.789595    -17.555106     -1.538534
  H      23.005755    -16.922234     -0.087471
  H      23.831956    -18.735896      1.288390
  H      23.210643    -19.503547     -0.164643
  H      27.299726    -16.939632     -0.369887
  H      26.349163    -17.312213     -1.818843
  H      25.281723    -16.562734      0.949355
  H      25.129494    -15.656773     -0.564916
  H      27.836896    -19.913178      1.621942
  H      30.048498    -20.999815      1.385265
  H      29.971653    -20.215523     -2.842502
  H      27.744676    -19.175379     -2.608091
  H      30.640353    -22.645612     -2.267658
  H      32.012225    -21.694575     -2.880253
  H      32.113758    -24.062311     -0.927986
  H      32.799580    -23.943683     -2.552932
  H      37.630400    -23.858881     -0.638141
  H      37.575885    -25.372910     -1.488833
  H      34.568245    -20.355821      2.483817
  H      35.478396    -18.262499      3.471883
  H      37.458019    -17.382513     -0.255253
  H      36.532005    -19.446915     -1.224923
  H      37.261556    -15.273711      0.688108
  H      38.017218    -14.843949      2.249744
  H      38.722392    -16.153101      1.257867
  O      23.283495    -22.027844      1.547226
  H      23.969619    -21.559201      1.024275
  C      23.635014    -21.852771      2.923597
  H      24.644061    -22.233943      3.136874
  H      23.585792    -20.796717      3.227183
  H      22.918107    -22.417910      3.527528
  O      33.380282    -17.350683     -0.317678
  H      33.131427    -18.106777      0.239419
  C      33.244739    -17.791246     -1.673966
  H      33.838520    -18.695492     -1.870490
  H      32.193747    -17.992362     -1.929380
  H      33.612710    -16.987258     -2.318467
  O      32.943816    -26.679689     -3.240027
  H      33.640783    -26.038836     -3.028616
  C      32.876571    -27.584832     -2.130465
  H      33.816243    -28.140442     -2.003509
  H      32.644543    -27.060536     -1.192932
  H      32.074551    -28.299532     -2.337328
  O      38.748516    -21.533282      0.234197
  H      37.829235    -21.629891     -0.071613
  C      38.693564    -21.248268      1.638237
  H      38.334100    -20.227232      1.832530
  H      38.048576    -21.960345      2.171199
  H      39.710465    -21.338016      2.032235
83
Coordinates from ORCA-job Apixaban_Explicit4MeOH_SMD_methanol_Opt_KeepDens E -2005.009310387320
  C      23.885350    -17.446221     -0.461616
  C      23.980355    -18.815256      0.202985
  C      25.300587    -19.525103      0.031734
  N      26.382718    -18.814183     -0.356053
  C      26.350376    -17.384554     -0.750216
  C      25.154014    -16.660864     -0.163469
  C      27.648129    -19.471824     -0.495307
  C      28.298286    -19.980267      0.628531
  C      29.540410    -20.583391      0.497509
  C      30.146375    -20.663071     -0.757530
  C      29.497717    -20.151764     -1.880128
  C      28.245299    -19.561990     -1.748758
  N      31.421968    -21.286622     -0.897154
  C      31.619536    -22.232731     -2.024971
  C      32.572680    -23.366505     -1.658005
  C      33.801478    -22.764721     -1.071096
  C      33.727710    -21.539704     -0.432383
  C      32.484696    -20.801836     -0.187086
  O      25.385635    -20.748971      0.272585
  O      32.396108    -19.864376      0.619992
  C      35.155432    -23.129137     -0.981956
  N      35.862337    -22.168796     -0.354552
  N      34.990694    -21.218081     -0.014292
  C      35.480116    -20.007156      0.575022
  C      35.799519    -24.369997     -1.459046
  N      37.104256    -24.521915     -1.187910
  O      35.142764    -25.224164     -2.080996
  C      35.168030    -19.688972      1.894404
  C      35.672270    -18.526339      2.448084
  C      36.498839    -17.686436      1.689130
  C      36.825490    -18.021882      0.372072
  C      36.307086    -19.188207     -0.181406
  O      36.937975    -16.567619      2.324607
  C      37.781112    -15.667053      1.588087
  H      23.771951    -17.564375     -1.547460
  H      22.997187    -16.919555     -0.096842
  H      23.836227    -18.719759      1.289469
  H      23.203011    -19.500441     -0.151580
  H      27.288717    -16.935813     -0.406544
  H      26.329768    -17.319678     -1.846957
  H      25.279498    -16.549333      0.921866
  H      25.116524    -15.656299     -0.598960
  H      27.827454    -19.910205      1.604658
  H      30.039482    -20.994431      1.369096
  H      29.966332    -20.207539     -2.858227
  H      27.737606    -19.170593     -2.625463
  H      30.638327    -22.634949     -2.286384
  H      32.014052    -21.685112     -2.891944
  H      32.103889    -24.054182     -0.940684
  H      32.797387    -23.936077     -2.562529
  H      37.617500    -23.859770     -0.624350
  H      37.567779    -25.369700     -1.482742
  H      34.535545    -20.348318      2.480290
  H      35.441487    -18.256254      3.474392
  H      37.465538    -17.389806     -0.231888
  H      36.543394    -19.452871     -1.208126
  H      37.261501    -15.277433      0.704754
  H      38.002948    -14.847022      2.273054
  H      38.714486    -16.159538      1.290254
  O      23.315753    -21.992739      1.631548
  H      23.985335    -21.530970      1.081590
  C      23.751693    -21.863297      2.988734
  H      24.755946    -22.286596      3.134802
  H      23.760575    -20.813446      3.316792
  H      23.049404    -22.415524      3.621132
  O      33.380885    -17.357009     -0.361148
  H      33.123661    -18.103157      0.205598
  C      33.259207    -17.817785     -1.712040
  H      33.854293    -18.725134     -1.889110
  H      32.210920    -18.021629     -1.975651
  H      33.634704    -17.023517     -2.364230
  O      32.948118    -26.672414     -3.264288
  H      33.639892    -26.028749     -3.044637
  C      32.880169    -27.585721     -2.161490
  H      33.821781    -28.138057     -2.034526
  H      32.641813    -27.069203     -1.221253
  H      32.082233    -28.302483     -2.376842
  O      38.736289    -21.548371      0.282471
  H      37.820650    -21.638884     -0.035419
  C      38.665952    -21.259763      1.685123
  H      38.311491    -20.235773      1.872767
  H      38.009599    -21.966192      2.211666
  H      39.677312    -21.355800      2.091715
83
Coordinates from ORCA-job Apixaban_Explicit4MeOH_SMD_methanol_Opt_KeepDens E -2005.009340079226
  C      23.863291    -17.461444     -0.491179
  C      23.967446    -18.823431      0.186562
  C      25.291671    -19.527478      0.019456
  N      26.368670    -18.814229     -0.377843
  C      26.326965    -17.388621     -0.786191
  C      25.128158    -16.666199     -0.203577
  C      27.636759    -19.467073     -0.514619
  C      28.285832    -19.974682      0.610252
  C      29.528814    -20.576106      0.481196
  C      30.137693    -20.653093     -0.772608
  C      29.491193    -20.140979     -1.896006
  C      28.236715    -19.554901     -1.766865
  N      31.414388    -21.274778     -0.910368
  C      31.615859    -22.216993     -2.040681
  C      32.565906    -23.353286     -1.674217
  C      33.792461    -22.755702     -1.078342
  C      33.717099    -21.533635     -0.434277
  C      32.474067    -20.794496     -0.193195
  O      25.385093    -20.747787      0.275234
  O      32.382376    -19.859981      0.617440
  C      35.145416    -23.122507     -0.984526
  N      35.850756    -22.166054     -0.349402
  N      34.978874    -21.216040     -0.008727
  C      35.467993    -20.007689      0.586011
  C      35.789335    -24.362365     -1.464364
  N      37.091016    -24.520906     -1.182729
  O      35.135215    -25.209075     -2.099177
  C      35.137617    -19.685421      1.900098
  C      35.638239    -18.523533      2.458593
  C      36.479044    -17.688494      1.709962
  C      36.824552    -18.028704      0.398986
  C      36.309943    -19.194253     -0.159357
  O      36.911916    -16.569187      2.348871
  C      37.772765    -15.676092      1.623830
  H      23.748354    -17.590858     -1.575559
  H      22.973000    -16.936596     -0.129410
  H      23.824797    -18.717730      1.272248
  H      23.193781    -19.516343     -0.160723
  H      27.263640    -16.931623     -0.449211
  H      26.303459    -17.334976     -1.883410
  H      25.255565    -16.542978      0.880280
  H      25.084091    -15.666031     -0.648560
  H      27.812406    -19.906286      1.585261
  H      30.027180    -20.987533      1.353037
  H      29.961933    -20.194422     -2.873225
  H      27.730138    -19.164057     -2.644471
  H      30.635413    -22.616585     -2.308843
  H      32.015197    -21.666122     -2.903433
  H      32.092965    -24.044397     -0.962947
  H      32.794075    -23.918320     -2.580746
  H      37.600289    -23.866729     -0.606383
  H      37.554377    -25.367736     -1.480598
  H      34.493466    -20.340564      2.477797
  H      35.393567    -18.250154      3.480803
  H      37.475366    -17.400415     -0.197275
  H      36.559961    -19.462120     -1.182006
  H      37.268801    -15.284340      0.732314
  H      37.990474    -14.856679      2.310842
  H      38.706766    -16.175757      1.340357
  O      23.386728    -21.950337      1.763537
  H      24.025457    -21.501774      1.167395
  C      23.920284    -21.833516      3.086118
  H      24.916795    -22.292080      3.163941
  H      23.990393    -20.783804      3.407195
  H      23.244693    -22.358051      3.769170
  O      33.373127    -17.378010     -0.408595
  H      33.106725    -18.113065      0.169259
  C      33.273502    -17.867136     -1.750753
  H      33.878046    -18.773078     -1.902147
  H      32.230858    -18.085464     -2.025100
  H      33.651404    -17.083986     -2.414997
  O      32.950866    -26.651175     -3.306128
  H      33.640164    -26.008365     -3.076511
  C      32.881739    -27.578894     -2.215619
  H      33.823980    -28.131204     -2.093293
  H      32.639668    -27.074872     -1.269561
  H      32.085636    -28.294160     -2.442478
  O      38.716388    -21.566084      0.340394
  H      37.803748    -21.655233      0.013569
  C      38.636223    -21.268555      1.740443
  H      38.288727    -20.240459      1.918905
  H      37.970030    -21.966650      2.265721
  H      39.643235    -21.370458      2.156427
83
Coordinates from ORCA-job Apixaban_Explicit4MeOH_SMD_methanol_Opt_KeepDens E -2005.009358339887
  C      23.864084    -17.459707     -0.490175
  C      23.968457    -18.820834      0.189433
  C      25.292970    -19.524597      0.023367
  N      26.369598    -18.811974     -0.375898
  C      26.328074    -17.386485     -0.784838
  C      25.128805    -16.663872     -0.203209
  C      27.637721    -19.465102     -0.513110
  C      28.288733    -19.969857      0.611973
  C      29.531400    -20.571862      0.482336
  C      30.137965    -20.652525     -0.772413
  C      29.489685    -20.142978     -1.895982
  C      28.235604    -19.556039     -1.766101
  N      31.414045    -21.275502     -0.910858
  C      31.613585    -22.220121     -2.039526
  C      32.564860    -23.355349     -1.672917
  C      33.792137    -22.756458     -1.079637
  C      33.717374    -21.533433     -0.437157
  C      32.474983    -20.793183     -0.197125
  O      25.386578    -20.744629      0.280979
  O      32.384278    -19.855255      0.609755
  C      35.145227    -23.123006     -0.986894
  N      35.851037    -22.165470     -0.353775
  N      34.979554    -21.215116     -0.013327
  C      35.468558    -20.007197      0.582576
  C      35.789044    -24.363349     -1.465725
  N      37.091432    -24.520038     -1.186345
  O      35.134163    -25.212017     -2.097101
  C      35.138229    -19.687110      1.897269
  C      35.638056    -18.525671      2.457388
  C      36.477742    -17.688539      1.709717
  C      36.823158    -18.026528      0.398128
  C      36.309673    -19.191980     -0.161742
  O      36.909210    -16.569597      2.350431
  C      37.768751    -15.673360      1.627525
  H      23.749526    -17.590551     -1.574425
  H      22.973363    -16.934614     -0.129258
  H      23.825516    -18.713853      1.274915
  H      23.195227    -19.514459     -0.157451
  H      27.264678    -16.929486     -0.447304
  H      26.305449    -17.333406     -1.882097
  H      25.255947    -16.539400      0.880536
  H      25.084635    -15.664112     -0.649097
  H      27.816872    -19.898699      1.587534
  H      30.031342    -20.981327      1.354188
  H      29.958624    -20.198846     -2.873916
  H      27.727675    -19.167190     -2.643803
  H      30.632739    -22.620462     -2.305043
  H      32.011042    -21.670807     -2.904163
  H      32.093454    -24.045823     -0.960022
  H      32.791490    -23.921397     -2.579227
  H      37.600327    -23.863793     -0.612064
  H      37.555550    -25.366664     -1.483590
  H      34.494947    -20.343769      2.474196
  H      35.393643    -18.254118      3.480144
  H      37.473061    -17.396749     -0.197555
  H      36.559579    -19.458154     -1.184854
  H      37.263782    -15.279545      0.737519
  H      37.985688    -14.855751      2.316928
  H      38.703399    -16.170528      1.342005
  O      23.376929    -21.940607      1.756887
  H      24.019120    -21.495019      1.162342
  C      23.919803    -21.847404      3.077471
  H      24.904553    -22.332073      3.146828
  H      24.019037    -20.802263      3.405872
  H      23.234324    -22.359215      3.760272
  O      33.375097    -17.367874     -0.408997
  H      33.107670    -18.104545      0.166401
  C      33.276147    -17.852912     -1.752552
  H      33.885271    -18.755095     -1.908091
  H      32.234248    -18.075988     -2.026493
  H      33.648870    -17.065803     -2.415007
  O      32.949699    -26.658169     -3.296279
  H      33.639355    -26.014534     -3.070107
  C      32.882820    -27.582179     -2.202586
  H      33.825331    -28.134030     -2.080259
  H      32.642529    -27.075109     -1.257707
  H      32.086342    -28.298278     -2.425492
  O      38.717280    -21.572239      0.336993
  H      37.804502    -21.657571      0.009573
  C      38.636629    -21.278222      1.737652
  H      38.292075    -20.249599      1.918491
  H      37.967793    -21.975624      2.260482
  H      39.642861    -21.384380      2.154459
83
Coordinates from ORCA-job Apixaban_Explicit4MeOH_SMD_methanol_Opt_KeepDens E -2005.009382918279
  C      23.860416    -17.467860     -0.493547
  C      23.965213    -18.832110      0.179897
  C      25.294515    -19.528462      0.021123
  N      26.370256    -18.809728     -0.368879
  C      26.326510    -17.381656     -0.768367
  C      25.119298    -16.668146     -0.192102
  C      27.640523    -19.459539     -0.506192
  C      28.294592    -19.959001      0.619341
  C      29.537515    -20.560337      0.489398
  C      30.140584    -20.646793     -0.766666
  C      29.489602    -20.141774     -1.890894
  C      28.235786    -19.554188     -1.760183
  N      31.415232    -21.272786     -0.905813
  C      31.610468    -22.220829     -2.032549
  C      32.564057    -23.354894     -1.667845
  C      33.793013    -22.755160     -1.078886
  C      33.719871    -21.530837     -0.438500
  C      32.479204    -20.788622     -0.198177
  O      25.391576    -20.749553      0.273213
  O      32.392724    -19.846158      0.604001
  C      35.146119    -23.122311     -0.987933
  N      35.853101    -22.163260     -0.358241
  N      34.982976    -21.212030     -0.017918
  C      35.473933    -20.004974      0.578492
  C      35.787839    -24.365002     -1.463739
  N      37.090595    -24.521935     -1.186285
  O      35.130050    -25.215409     -2.089523
  C      35.147495    -19.688340      1.895133
  C      35.649761    -18.528831      2.457032
  C      36.487568    -17.689979      1.708965
  C      36.828985    -18.024606      0.395607
  C      36.313457    -19.188461     -0.165910
  O      36.920950    -16.572692      2.351265
  C      37.774448    -15.671874      1.626718
  H      23.755207    -17.593258     -1.579375
  H      22.964514    -16.948620     -0.136849
  H      23.811714    -18.731983      1.264482
  H      23.199160    -19.527940     -0.178512
  H      27.258337    -16.923608     -0.419063
  H      26.313827    -17.321276     -1.865410
  H      25.237310    -16.549323      0.893315
  H      25.074039    -15.665795     -0.632030
  H      27.824033    -19.884153      1.595261
  H      30.040226    -20.966853      1.361020
  H      29.955633    -20.201478     -2.869925
  H      27.725330    -19.169267     -2.638144
  H      30.628709    -22.622314     -2.292798
  H      32.003773    -21.673577     -2.900424
  H      32.095693    -24.045742     -0.953308
  H      32.786648    -23.920998     -2.575267
  H      37.599907    -23.863090     -0.615438
  H      37.554028    -25.369666     -1.481374
  H      34.505793    -20.346419      2.472205
  H      35.408858    -18.259805      3.481284
  H      37.477469    -17.393683     -0.200511
  H      36.560675    -19.452584     -1.190195
  H      37.263287    -15.276021      0.741155
  H      37.993136    -14.856391      2.318083
  H      38.708943    -16.164949      1.333855
  O      23.374135    -21.953794      1.729325
  H      24.017606    -21.509868      1.135108
  C      23.913965    -21.859307      3.050762
  H      24.887408    -22.365228      3.129201
  H      24.036314    -20.813436      3.369151
  H      23.214485    -22.348153      3.736116
  O      33.388562    -17.358076     -0.405302
  H      33.120049    -18.097661      0.165626
  C      33.275325    -17.831426     -1.751464
  H      33.884728    -18.730857     -1.922048
  H      32.231220    -18.055449     -2.016171
  H      33.638250    -17.038351     -2.412279
  O      32.940770    -26.661017     -3.277723
  H      33.637835    -26.023810     -3.055696
  C      32.866845    -27.580007     -2.180430
  H      33.804536    -28.139706     -2.056727
  H      32.631787    -27.067339     -1.237235
  H      32.063915    -28.289981     -2.399831
  O      38.715407    -21.580899      0.322438
  H      37.800583    -21.666494     -0.000129
  C      38.641270    -21.286948      1.723311
  H      38.306174    -20.255426      1.905521
  H      37.967550    -21.978443      2.247721
  H      39.647413    -21.402366      2.137960
83
Coordinates from ORCA-job Apixaban_Explicit4MeOH_SMD_methanol_Opt_KeepDens E -2005.009395787154
  C      23.859296    -17.467114     -0.494925
  C      23.961979    -18.832865      0.175794
  C      25.291618    -19.529247      0.019870
  N      26.368294    -18.810874     -0.368246
  C      26.325883    -17.382463     -0.766191
  C      25.118437    -16.669033     -0.190079
  C      27.638301    -19.461346     -0.504960
  C      28.293499    -19.957974      0.621144
  C      29.536257    -20.559817      0.491520
  C      30.137973    -20.649665     -0.764965
  C      29.485633    -20.147705     -1.889839
  C      28.232198    -19.559413     -1.759321
  N      31.412309    -21.276352     -0.904097
  C      31.606304    -22.225089     -2.030472
  C      32.563353    -23.356945     -1.667885
  C      33.792473    -22.754886     -1.081717
  C      33.718487    -21.530664     -0.441106
  C      32.477521    -20.789424     -0.199982
  O      25.387737    -20.750499      0.271854
  O      32.392039    -19.844856      0.599790
  C      35.146329    -23.119755     -0.993424
  N      35.852827    -22.159710     -0.364754
  N      34.981882    -21.209812     -0.022672
  C      35.471952    -20.003597      0.576168
  C      35.789431    -24.361277     -1.470707
  N      37.093024    -24.515547     -1.195435
  O      35.132082    -25.212804     -2.095281
  C      35.143203    -19.688970      1.892744
  C      35.644627    -18.530539      2.457505
  C      36.484173    -17.690633      1.712457
  C      36.827862    -18.023172      0.399179
  C      36.313161    -19.186101     -0.165334
  O      36.917130    -16.574915      2.357923
  C      37.770680    -15.671412      1.636700
  H      23.755517    -17.589972     -1.581172
  H      22.963237    -16.947791     -0.138468
  H      23.804306    -18.735728      1.260019
  H      23.197374    -19.528068     -0.186959
  H      27.257683    -16.925350     -0.415431
  H      26.314174    -17.320608     -1.863179
  H      25.235166    -16.552728      0.895766
  H      25.074540    -15.665709     -0.627905
  H      27.823831    -19.880315      1.597294
  H      30.040021    -20.964101      1.363564
  H      29.950304    -20.210220     -2.869327
  H      27.720898    -19.176603     -2.637731
  H      30.624610    -22.628998     -2.287226
  H      31.995818    -21.677867     -2.900070
  H      32.098164    -24.048895     -0.952352
  H      32.784575    -23.922364     -2.576077
  H      37.600794    -23.855286     -0.624835
  H      37.558112    -25.362182     -1.491008
  H      34.500297    -20.347873      2.467525
  H      35.401846    -18.263102      3.481725
  H      37.477804    -17.391559     -0.194620
  H      36.562302    -19.448517     -1.189577
  H      37.260606    -15.274259      0.751155
  H      37.986962    -14.857118      2.330238
  H      38.706477    -16.162352      1.344441
  O      23.368823    -21.940452      1.739800
  H      24.009536    -21.505646      1.135928
  C      23.925672    -21.843685      3.054095
  H      24.888745    -22.369919      3.127131
  H      24.074512    -20.797500      3.359612
  H      23.223417    -22.309769      3.752336
  O      33.388285    -17.357264     -0.411756
  H      33.116959    -18.094665      0.160415
  C      33.280459    -17.836171     -1.756535
  H      33.892830    -18.734651     -1.921486
  H      32.237672    -18.064063     -2.023204
  H      33.643013    -17.044756     -2.419503
  O      32.944781    -26.664051     -3.277012
  H      33.641082    -26.024826     -3.058384
  C      32.878925    -27.582945     -2.179139
  H      33.819254    -28.139032     -2.059168
  H      32.645955    -27.070899     -1.235072
  H      32.077802    -28.296056     -2.394941
  O      38.713963    -21.584437      0.322920
  H      37.799185    -21.665094     -0.001250
  C      38.637748    -21.293715      1.724385
  H      38.305301    -20.261699      1.908462
  H      37.960719    -21.984376      2.245630
  H      39.642600    -21.413266      2.140967
83
Coordinates from ORCA-job Apixaban_Explicit4MeOH_SMD_methanol_Opt_KeepDens E -2005.009411942270
  C      23.852939    -17.473024     -0.497231
  C      23.954502    -18.842066      0.166775
  C      25.285423    -19.536434      0.013060
  N      26.362537    -18.815810     -0.369573
  C      26.320217    -17.385976     -0.761606
  C      25.110855    -16.675785     -0.185173
  C      27.633093    -19.465139     -0.506230
  C      28.290030    -19.958715      0.620127
  C      29.533262    -20.559625      0.490383
  C      30.133663    -20.651716     -0.766605
  C      29.479238    -20.153116     -1.891816
  C      28.225513    -19.565587     -1.761096
  N      31.408332    -21.277782     -0.905488
  C      31.602837    -22.226015     -2.032196
  C      32.563070    -23.355886     -1.671433
  C      33.791299    -22.751989     -1.085481
  C      33.715643    -21.528121     -0.444387
  C      32.473959    -20.787873     -0.203690
  O      25.382172    -20.758500      0.260969
  O      32.388605    -19.841294      0.593488
  C      35.145598    -23.115060     -0.997107
  N      35.850744    -22.154546     -0.367906
  N      34.978633    -21.205643     -0.025802
  C      35.467463    -20.000636      0.576135
  C      35.790471    -24.355430     -1.475202
  N      37.093909    -24.508613     -1.198344
  O      35.134595    -25.206434     -2.101879
  C      35.132380    -19.685673      1.891016
  C      35.633603    -18.528816      2.459023
  C      36.479581    -17.690860      1.719027
  C      36.829441    -18.023632      0.407503
  C      36.314855    -19.184976     -0.160470
  O      36.912762    -16.577061      2.367533
  C      37.771212    -15.674938      1.650565
  H      23.751940    -17.590300     -1.584356
  H      22.955715    -16.955751     -0.140634
  H      23.791246    -18.751374      1.250713
  H      23.192399    -19.536431     -0.202874
  H      27.250768    -16.929349     -0.406857
  H      26.310772    -17.319291     -1.858375
  H      25.224811    -16.565062      0.901566
  H      25.067488    -15.670385     -0.618222
  H      27.821213    -19.879623      1.596620
  H      30.038356    -20.961496      1.362765
  H      29.942555    -20.217635     -2.871819
  H      27.712693    -19.185176     -2.639697
  H      30.621708    -22.632623     -2.286909
  H      31.989469    -21.677966     -2.902527
  H      32.099985    -24.049711     -0.956363
  H      32.784469    -23.919566     -2.580698
  H      37.599006    -23.848485     -0.625188
  H      37.560662    -25.354324     -1.493900
  H      34.484679    -20.343216      2.461955
  H      35.385804    -18.261134      3.481974
  H      37.484525    -17.393510     -0.182231
  H      36.569047    -19.447362     -1.183457
  H      37.266333    -15.276820      0.762496
  H      37.985388    -14.860970      2.345156
  H      38.707631    -16.167584      1.363064
  O      23.380800    -21.929829      1.770605
  H      24.009525    -21.509146      1.144619
  C      23.967797    -21.807569      3.069756
  H      24.923526    -22.347913      3.136226
  H      24.140210    -20.756410      3.343647
  H      23.273217    -22.243131      3.794870
  O      33.387677    -17.360701     -0.432097
  H      33.111549    -18.093337      0.143832
  C      33.287211    -17.849833     -1.774152
  H      33.901605    -18.748671     -1.928825
  H      32.245968    -18.080892     -2.043855
  H      33.651919    -17.062558     -2.440808
  O      32.951855    -26.659546     -3.286937
  H      33.648550    -26.021513     -3.065892
  C      32.886303    -27.582733     -2.192609
  H      33.827298    -28.138016     -2.074062
  H      32.652187    -27.074563     -1.246710
  H      32.086263    -28.296071     -2.411624
  O      38.707053    -21.591194      0.337348
  H      37.792448    -21.667169      0.011121
  C      38.628400    -21.300866      1.738914
  H      38.300698    -20.267250      1.922673
  H      37.946126    -21.988226      2.257667
  H      39.631332    -21.425926      2.158477
83
Coordinates from ORCA-job Apixaban_Explicit4MeOH_SMD_methanol_Opt_KeepDens E -2005.009431209895
  C      23.836438    -17.492594     -0.503906
  C      23.942122    -18.863339      0.155684
  C      25.275168    -19.553066      0.000961
  N      26.350091    -18.828072     -0.379545
  C      26.303311    -17.397833     -0.768641
  C      25.092039    -16.692456     -0.190051
  C      27.622521    -19.473297     -0.516774
  C      28.282609    -19.962248      0.609686
  C      29.527329    -20.559922      0.479323
  C      30.126417    -20.652701     -0.778297
  C      29.468760    -20.158468     -1.903526
  C      28.213224    -19.574969     -1.772313
  N      31.402587    -21.275510     -0.916782
  C      31.600491    -22.220963     -2.045213
  C      32.562364    -23.349993     -1.685724
  C      33.788185    -22.745863     -1.095326
  C      33.709797    -21.523191     -0.452382
  C      32.466881    -20.783918     -0.213759
  O      25.376333    -20.775105      0.246930
  O      32.380109    -19.837455      0.583144
  C      35.142378    -23.108195     -1.003102
  N      35.845107    -22.148536     -0.370209
  N      34.971232    -21.200655     -0.028977
  C      35.457740    -19.997980      0.579051
  C      35.789514    -24.347364     -1.481406
  N      37.090847    -24.502693     -1.195889
  O      35.137052    -25.195048     -2.116014
  C      35.111267    -19.682672      1.890822
  C      35.611919    -18.528587      2.464807
  C      36.469241    -17.693871      1.734296
  C      36.829948    -18.026656      0.425670
  C      36.315689    -19.185073     -0.148617
  O      36.902376    -16.583588      2.388853
  C      37.774985    -15.686491      1.682906
  H      23.735163    -17.606777     -1.591343
  H      22.938021    -16.978830     -0.145574
  H      23.777123    -18.777214      1.239755
  H      23.182335    -19.559024     -0.216349
  H      27.232329    -16.938400     -0.413775
  H      26.292641    -17.328805     -1.865305
  H      25.206090    -16.584611      0.896973
  H      25.045495    -15.686186     -0.620683
  H      27.814920    -19.883101      1.586769
  H      30.034440    -20.958321      1.352140
  H      29.930877    -20.223807     -2.884061
  H      27.697731    -19.198101     -2.650913
  H      30.620596    -22.629599     -2.301496
  H      31.986878    -21.670375     -2.913995
  H      32.098975    -24.046770     -0.973745
  H      32.786610    -23.910296     -2.596391
  H      37.591267    -23.845605     -0.615161
  H      37.559127    -25.347871     -1.490538
  H      34.455363    -20.338029      2.454818
  H      35.355305    -18.260986      3.485604
  H      37.493779    -17.398923     -0.156730
  H      36.578646    -19.447044     -1.169467
  H      37.283663    -15.283978      0.789278
  H      37.986525    -14.874539      2.380667
  H      38.711242    -16.185658      1.406202
  O      23.425302    -21.909715      1.853895
  H      24.027176    -21.513917      1.187003
  C      24.062352    -21.727551      3.122384
  H      25.018797    -22.267840      3.177822
  H      24.246815    -20.665292      3.338924
  H      23.395220    -22.125541      3.893400
  O      33.385201    -17.371421     -0.466830
  H      33.100978    -18.097649      0.113432
  C      33.299260    -17.874790     -1.805221
  H      33.914755    -18.775501     -1.942970
  H      32.260816    -18.107750     -2.083266
  H      33.671683    -17.094255     -2.475423
  O      32.963417    -26.645896     -3.315382
  H      33.659846    -26.009495     -3.088750
  C      32.898381    -27.577880     -2.228382
  H      33.840528    -28.131859     -2.112893
  H      32.662068    -27.077584     -1.278820
  H      32.100279    -28.291341     -2.453908
  O      38.691690    -21.602686      0.373814
  H      37.778568    -21.672561      0.041509
  C      38.605069    -21.308346      1.774291
  H      38.281956    -20.272422      1.953267
  H      37.915001    -21.990397      2.289733
  H      39.604242    -21.438070      2.201288
83
Coordinates from ORCA-job Apixaban_Explicit4MeOH_SMD_methanol_Opt_KeepDens E -2005.009438986944
  C      23.823358    -17.511885     -0.507122
  C      23.934347    -18.882563      0.151608
  C      25.268671    -19.568742     -0.006868
  N      26.341000    -18.840152     -0.388066
  C      26.289440    -17.410088     -0.776787
  C      25.077290    -16.708160     -0.195735
  C      27.615184    -19.481539     -0.526494
  C      28.277533    -19.968303      0.599586
  C      29.523809    -20.562482      0.468332
  C      30.122420    -20.653553     -0.789704
  C      29.462470    -20.161403     -1.914458
  C      28.205161    -19.581846     -1.782431
  N      31.400215    -21.272714     -0.928427
  C      31.601775    -22.215606     -2.058325
  C      32.563049    -23.345092     -1.698450
  C      33.786774    -22.741834     -1.102908
  C      33.706375    -21.520070     -0.458535
  C      32.462597    -20.781124     -0.222411
  O      25.373728    -20.790600      0.237801
  O      32.373785    -19.835483      0.575228
  C      35.140567    -23.104582     -1.006140
  N      35.841212    -22.146090     -0.369366
  N      34.966276    -21.198385     -0.030069
  C      35.450982    -19.997204      0.582034
  C      35.789193    -24.343260     -1.483640
  N      37.088325    -24.501364     -1.189864
  O      35.139626    -25.188123     -2.124985
  C      35.097551    -19.682219      1.891985
  C      35.597752    -18.529964      2.470003
  C      36.461954    -17.697037      1.745683
  C      36.829284    -18.029324      0.438724
  C      36.315271    -19.185673     -0.139754
  O      36.894908    -16.589091      2.404196
  C      37.779690    -15.697542      1.706553
  H      23.719965    -17.626018     -1.594375
  H      22.924338    -17.000757     -0.146709
  H      23.772153    -18.797361      1.236236
  H      23.174983    -19.579937     -0.218141
  H      27.217655    -16.947719     -0.423789
  H      26.276303    -17.340894     -1.873437
  H      25.193216    -16.600191      0.891068
  H      25.026925    -15.702087     -0.626378
  H      27.810493    -19.890800      1.577123
  H      30.032158    -20.959284      1.341148
  H      29.924250    -20.225503     -2.895245
  H      27.687773    -19.206634     -2.660638
  H      30.622908    -22.624427     -2.318205
  H      31.990332    -21.662909     -2.924769
  H      32.097664    -24.043547     -0.989421
  H      32.790520    -23.903282     -2.609626
  H      37.585739    -23.847387     -0.603026
  H      37.557119    -25.346619     -1.483504
  H      34.436797    -20.336495      2.451532
  H      35.335845    -18.262921      3.489603
  H      37.498293    -17.402738     -0.138978
  H      36.583621    -19.447080     -1.159336
  H      37.298820    -15.289836      0.809585
  H      37.991905    -14.888186      2.407109
  H      38.714127    -16.203858      1.436670
  O      23.463630    -21.896204      1.917025
  H      24.046396    -21.519067      1.223363
  C      24.125075    -21.659186      3.163873
  H      25.091701    -22.181246      3.216402
  H      24.295107    -20.587093      3.339949
  H      23.481960    -22.041425      3.962781
  O      33.384225    -17.378549     -0.488823
  H      33.095022    -18.102656      0.091916
  C      33.306879    -17.886007     -1.826470
  H      33.921404    -18.788439     -1.956764
  H      32.269929    -18.117415     -2.111037
  H      33.685855    -17.108046     -2.495950
  O      32.971717    -26.634462     -3.338878
  H      33.668030    -26.000009     -3.106414
  C      32.903172    -27.572999     -2.257666
  H      33.844933    -28.127701     -2.142563
  H      32.663990    -27.078252     -1.305916
  H      32.105719    -28.285026     -2.489883
  O      38.680835    -21.608460      0.401400
  H      37.768836    -21.676050      0.065378
  C      38.589621    -21.310131      1.800844
  H      38.266444    -20.273521      1.975793
  H      37.897364    -21.990417      2.315695
  H      39.587295    -21.439053      2.231530
83
Coordinates from ORCA-job Apixaban_Explicit4MeOH_SMD_methanol_Opt_KeepDens E -2005.009448380046
  C      23.824265    -17.512183     -0.506939
  C      23.936276    -18.881373      0.154741
  C      25.269894    -19.568486     -0.006354
  N      26.341751    -18.840155     -0.389448
  C      26.290083    -17.410312     -0.779359
  C      25.078389    -16.707625     -0.198521
  C      27.615862    -19.481561     -0.528668
  C      28.278019    -19.969655      0.596992
  C      29.524451    -20.563299      0.465209
  C      30.123292    -20.652595     -0.792851
  C      29.463516    -20.159335     -1.917158
  C      28.206000    -19.580256     -1.784610
  N      31.401485    -21.270710     -0.932043
  C      31.603786    -22.213992     -2.061437
  C      32.562835    -23.344509     -1.699295
  C      33.786586    -22.742071     -1.102764
  C      33.706646    -21.519782     -0.459202
  C      32.463082    -20.779978     -0.224415
  O      25.374714    -20.790293      0.238146
  O      32.373472    -19.834475      0.573399
  C      35.140027    -23.106005     -1.004511
  N      35.840728    -22.147696     -0.367461
  N      34.966341    -21.199142     -0.029526
  C      35.451645    -19.997876      0.582057
  C      35.788292    -24.345501     -1.480211
  N      37.087021    -24.504075     -1.185351
  O      35.138852    -25.190910     -2.121094
  C      35.099963    -19.683503      1.892641
  C      35.600873    -18.531371      2.470411
  C      36.463983    -17.698103      1.745300
  C      36.829725    -18.029914      0.437714
  C      36.314962    -19.186001     -0.140430
  O      36.897182    -16.590060      2.403490
  C      37.782089    -15.698865      1.705492
  H      23.719801    -17.628896     -1.593820
  H      22.925583    -17.000512     -0.146598
  H      23.778148    -18.792958      1.239744
  H      23.175151    -19.579006     -0.210799
  H      27.218568    -16.947906     -0.427116
  H      26.276764    -17.342325     -1.876064
  H      25.195273    -16.597265      0.887923
  H      25.027415    -15.702415     -0.631138
  H      27.810971    -19.893498      1.574609
  H      30.032540    -20.961097      1.337725
  H      29.925698    -20.222054     -2.897843
  H      27.688590    -19.204143     -2.662403
  H      30.624898    -22.621317     -2.323515
  H      31.994899    -21.661834     -2.927098
  H      32.095579    -24.041416     -0.989948
  H      32.791044    -23.904411     -2.609218
  H      37.585151    -23.849910     -0.599335
  H      37.555155    -25.350177     -1.477641
  H      34.439964    -20.337986      2.452857
  H      35.340279    -18.264859      3.490491
  H      37.497772    -17.402923     -0.140687
  H      36.582105    -19.447202     -1.160402
  H      37.300534    -15.289755      0.809497
  H      37.996167    -14.890411      2.406504
  H      38.715564    -16.205978      1.433840
  O      23.462590    -21.900276      1.914548
  H      24.047493    -21.519700      1.224834
  C      24.118101    -21.669600      3.165547
  H      25.091609    -22.179036      3.213846
  H      24.272843    -20.597436      3.355449
  H      23.478699    -22.070473      3.958303
  O      33.388373    -17.376471     -0.484621
  H      33.099098    -18.102509      0.093750
  C      33.306640    -17.877285     -1.824290
  H      33.916126    -18.782388     -1.959865
  H      32.268178    -18.101900     -2.108916
  H      33.689094    -17.098364     -2.490726
  O      32.968494    -26.635559     -3.335884
  H      33.665092    -26.001484     -3.103304
  C      32.896781    -27.572445     -2.253480
  H      33.837265    -28.128895     -2.136474
  H      32.657241    -27.075882     -1.302781
  H      32.098185    -28.283170     -2.485773
  O      38.681750    -21.605737      0.399470
  H      37.769924    -21.674366      0.063593
  C      38.591062    -21.306171      1.798639
  H      38.265402    -20.270212      1.972688
  H      37.901259    -21.987834      2.314959
  H      39.589612    -21.431861      2.228251
83
Coordinates from ORCA-job Apixaban_Explicit4MeOH_SMD_methanol_Opt_KeepDens E -2005.009457714011
  C      23.820363    -17.516619     -0.512217
  C      23.934616    -18.882499      0.155933
  C      25.267633    -19.570418     -0.008014
  N      26.338145    -18.842617     -0.395859
  C      26.285769    -17.413516     -0.788907
  C      25.074318    -16.709730     -0.209248
  C      27.612298    -19.483907     -0.536225
  C      28.275696    -19.970994      0.589194
  C      29.522459    -20.563629      0.456674
  C      30.120297    -20.652937     -0.801873
  C      29.459218    -20.161059     -1.925984
  C      28.201273    -19.582972     -1.792611
  N      31.399328    -21.269054     -0.941672
  C      31.602870    -22.213335     -2.069947
  C      32.560680    -23.343801     -1.705123
  C      33.783983    -22.741013     -1.107727
  C      33.703487    -21.518214     -0.464946
  C      32.459993    -20.777414     -0.233409
  O      25.372956    -20.791655      0.238652
  O      32.369059    -19.830160      0.562387
  C      35.137187    -23.105485     -1.007375
  N      35.836976    -22.147159     -0.369237
  N      34.962598    -21.198230     -0.033111
  C      35.447337    -19.998338      0.581735
  C      35.786470    -24.345287     -1.480927
  N      37.084729    -24.502978     -1.183821
  O      35.138571    -25.191823     -2.121996
  C      35.091634    -19.686609      1.891958
  C      35.591702    -18.536155      2.473907
  C      36.457747    -17.701928      1.753471
  C      36.827614    -18.031259      0.446359
  C      36.313871    -19.185698     -0.135865
  O      36.888801    -16.595226      2.415400
  C      37.778058    -15.703606      1.723366
  H      23.714500    -17.638758     -1.598370
  H      22.921844    -17.004124     -0.152776
  H      23.782176    -18.787880      1.241225
  H      23.171629    -19.581651     -0.202658
  H      27.214421    -16.950429     -0.437913
  H      26.272492    -17.348356     -1.885754
  H      25.192556    -16.594451      0.876518
  H      25.021850    -15.706307     -0.645858
  H      27.809577    -19.894551      1.567212
  H      30.031527    -20.960588      1.329005
  H      29.920769    -20.223827     -2.906946
  H      27.682653    -19.207828     -2.670085
  H      30.624269    -22.619951     -2.334085
  H      31.996024    -21.661800     -2.935135
  H      32.092229    -24.039230     -0.995075
  H      32.789893    -23.905765     -2.613495
  H      37.581740    -23.848253     -0.597474
  H      37.553408    -25.349497     -1.474055
  H      34.429183    -20.341662      2.448616
  H      35.328042    -18.271898      3.493788
  H      37.497761    -17.403324     -0.128611
  H      36.584246    -19.445134     -1.155460
  H      37.299929    -15.289347      0.827870
  H      37.992419    -14.898689      2.428338
  H      38.710950    -16.211772      1.451838
  O      23.477636    -21.882904      1.949543
  H      24.053824    -21.510591      1.248596
  C      24.158981    -21.661637      3.188062
  H      25.132822    -22.172034      3.212572
  H      24.318364    -20.590857      3.382721
  H      23.535846    -22.067872      3.990964
  O      33.395022    -17.373600     -0.491917
  H      33.101151    -18.099789      0.084019
  C      33.313773    -17.869737     -1.832937
  H      33.917702    -18.778392     -1.970067
  H      32.274848    -18.086954     -2.121762
  H      33.703294    -17.091670     -2.496351
  O      32.967352    -26.637201     -3.337074
  H      33.663662    -26.002567     -3.105298
  C      32.895483    -27.573056     -2.253892
  H      33.835577    -28.130131     -2.136829
  H      32.656418    -27.075492     -1.303612
  H      32.096268    -28.283358     -2.485394
  O      38.677244    -21.608088      0.406892
  H      37.766527    -21.673064      0.067683
  C      38.583452    -21.307709      1.805587
  H      38.257752    -20.271571      1.978121
  H      37.892600    -21.989079      2.320898
  H      39.581185    -21.433227      2.237145
83
Coordinates from ORCA-job Apixaban_Explicit4MeOH_SMD_methanol_Opt_KeepDens E -2005.009461759048
  C      23.821797    -17.517003     -0.513200
  C      23.934695    -18.882812      0.155406
  C      25.267322    -19.571588     -0.008699
  N      26.338433    -18.844025     -0.395166
  C      26.287807    -17.414288     -0.786282
  C      25.075582    -16.710519     -0.208238
  C      27.612200    -19.486165     -0.536029
  C      28.276015    -19.972902      0.589275
  C      29.522663    -20.565740      0.456524
  C      30.119768    -20.655795     -0.802290
  C      29.458039    -20.164739     -1.926440
  C      28.200377    -19.586152     -1.792704
  N      31.398897    -21.271678     -0.942700
  C      31.601716    -22.217336     -2.069925
  C      32.560656    -23.346584     -1.704682
  C      33.784314    -22.742234     -1.109478
  C      33.703624    -21.518892     -0.467586
  C      32.460085    -20.778327     -0.236378
  O      25.371753    -20.793317      0.236197
  O      32.368996    -19.829408      0.557476
  C      35.137743    -23.106041     -1.009901
  N      35.837422    -22.146925     -0.372737
  N      34.963027    -21.197994     -0.037117
  C      35.447637    -19.998612      0.578953
  C      35.787543    -24.345947     -1.482573
  N      37.086679    -24.501385     -1.187952
  O      35.139634    -25.194668     -2.120714
  C      35.093099    -19.689987      1.890310
  C      35.592944    -18.540441      2.474228
  C      36.457413    -17.703873      1.754514
  C      36.826028    -18.030066      0.446297
  C      36.312690    -19.183800     -0.137821
  O      36.888086    -16.598133      2.418371
  C      37.777103    -15.704831      1.728145
  H      23.717630    -17.639241     -1.599504
  H      22.922809    -17.004262     -0.155085
  H      23.782562    -18.787458      1.240657
  H      23.171362    -19.581549     -0.203191
  H      27.216242    -16.952602     -0.432629
  H      26.277137    -17.347768     -1.883060
  H      25.192148    -16.595506      0.877738
  H      25.024016    -15.706852     -0.644410
  H      27.810251    -19.895636      1.567409
  H      30.032350    -20.962315      1.328657
  H      29.918943    -20.228219     -2.907651
  H      27.681293    -19.211416     -2.670085
  H      30.623040    -22.624656     -2.332668
  H      31.993670    -21.666676     -2.936236
  H      32.093598    -24.041286     -0.992996
  H      32.788894    -23.909837     -2.612470
  H      37.584342    -23.844811     -0.604220
  H      37.555664    -25.347954     -1.477537
  H      34.431791    -20.346775      2.446306
  H      35.330326    -18.278641      3.495008
  H      37.494842    -17.400280     -0.128203
  H      36.582109    -19.441016     -1.158246
  H      37.297993    -15.287363      0.834669
  H      37.992667    -14.902348      2.435534
  H      38.709492    -16.212316      1.453707
  O      23.470217    -21.879052      1.943688
  H      24.048844    -21.510817      1.242685
  C      24.150382    -21.658259      3.182782
  H      25.125015    -22.167127      3.207475
  H      24.308193    -20.587468      3.378879
  H      23.527305    -22.066393      3.984759
  O      33.397400    -17.367376     -0.482294
  H      33.103048    -18.096434      0.089619
  C      33.314467    -17.855681     -1.825822
  H      33.916402    -18.764857     -1.968540
  H      32.274999    -18.069207     -2.115720
  H      33.705326    -17.075044     -2.485460
  O      32.965275    -26.641699     -3.327667
  H      33.662800    -26.006827     -3.100315
  C      32.895598    -27.573547     -2.240942
  H      33.835388    -28.131306     -2.124688
  H      32.659874    -27.072333     -1.291744
  H      32.094872    -28.283722     -2.467586
  O      38.679924    -21.606383      0.395625
  H      37.768552    -21.669429      0.057794
  C      38.589025    -21.308960      1.795077
  H      38.263353    -20.273306      1.970441
  H      37.899625    -21.991706      2.310523
  H      39.587770    -21.435055      2.224127
83
Coordinates from ORCA-job Apixaban_Explicit4MeOH_SMD_methanol_Opt_KeepDens E -2005.009464839131
  C      23.820603    -17.517329     -0.516677
  C      23.932179    -18.884426      0.149513
  C      25.265420    -19.572409     -0.012787
  N      26.337240    -18.843875     -0.395403
  C      26.287272    -17.413259     -0.783414
  C      25.073377    -16.711141     -0.206841
  C      27.611217    -19.485753     -0.535701
  C      28.274059    -19.973571      0.589677
  C      29.520814    -20.566333      0.457517
  C      30.118845    -20.655535     -0.800888
  C      29.458068    -20.163435     -1.925195
  C      28.200498    -19.584573     -1.791995
  N      31.397779    -21.271994     -0.941039
  C      31.600224    -22.217674     -2.068347
  C      32.559682    -23.346680     -1.703666
  C      33.783527    -22.742136     -1.109137
  C      33.702766    -21.519049     -0.466775
  C      32.459200    -20.778929     -0.234863
  O      25.369473    -20.794804      0.229194
  O      32.368260    -19.830021      0.558994
  C      35.137083    -23.105554     -1.010495
  N      35.836935    -22.146275     -0.373711
  N      34.962445    -21.197726     -0.037300
  C      35.447133    -19.998564      0.579098
  C      35.786938    -24.345168     -1.483928
  N      37.086515    -24.500105     -1.190657
  O      35.138833    -25.194110     -2.121508
  C      35.092671    -19.690405      1.890625
  C      35.592506    -18.541072      2.474903
  C      36.456817    -17.704177      1.755273
  C      36.825202    -18.029842      0.446918
  C      36.311952    -19.183472     -0.137573
  O      36.887666    -16.598664      2.419406
  C      37.777114    -15.705630      1.729420
  H      23.719257    -17.637333     -1.603496
  H      22.920541    -17.005571     -0.159809
  H      23.777116    -18.791267      1.234514
  H      23.170206    -19.582842     -0.212590
  H      27.214754    -16.952240     -0.426373
  H      26.279348    -17.344244     -1.880061
  H      25.187212    -16.598498      0.879684
  H      25.022585    -15.706479     -0.640808
  H      27.807244    -19.897045      1.567377
  H      30.029974    -20.963802      1.329546
  H      29.919569    -20.226306     -2.906161
  H      27.682212    -19.209054     -2.669516
  H      30.621456    -22.625212     -2.330424
  H      31.991492    -21.667025     -2.934977
  H      32.093277    -24.041627     -0.991792
  H      32.787251    -23.909747     -2.611735
  H      37.584494    -23.843423     -0.607325
  H      37.555424    -25.346550     -1.480711
  H      34.431542    -20.347488      2.446468
  H      35.330086    -18.279575      3.495808
  H      37.493879    -17.399862     -0.127514
  H      36.581165    -19.440340     -1.158133
  H      37.298208    -15.288004      0.835907
  H      37.992823    -14.903266      2.436910
  H      38.709395    -16.213388      1.455095
  O      23.474764    -21.876344      1.945883
  H      24.050131    -21.510884      1.240593
  C      24.163143    -21.654865      3.180296
  H      25.136097    -22.167151      3.200605
  H      24.326251    -20.584189      3.372542
  H      23.543360    -22.058590      3.987042
  O      33.395429    -17.368989     -0.479852
  H      33.101258    -18.097502      0.092791
  C      33.313455    -17.859601     -1.822544
  H      33.917236    -18.767776     -1.963809
  H      32.274425    -18.075902     -2.112143
  H      33.702674    -17.079417     -2.483696
  O      32.963003    -26.641065     -3.325088
  H      33.661343    -26.006522     -3.099262
  C      32.894746    -27.572364     -2.237818
  H      33.834458    -28.130547     -2.122928
  H      32.660970    -27.070628     -1.288407
  H      32.093266    -28.282234     -2.462746
  O      38.679694    -21.606271      0.392755
  H      37.767969    -21.668642      0.055605
  C      38.590323    -21.308610      1.792229
  H      38.266472    -20.272397      1.967822
  H      37.900190    -21.990176      2.308251
  H      39.589132    -21.436433      2.220632
83
Coordinates from ORCA-job Apixaban_Explicit4MeOH_SMD_methanol_Opt_KeepDens E -2005.009468506953
  C      23.818412    -17.520494     -0.523936
  C      23.928081    -18.889155      0.139370
  C      25.262303    -19.575825     -0.020031
  N      26.335165    -18.845716     -0.396508
  C      26.286224    -17.413751     -0.779699
  C      25.069214    -16.714273     -0.206389
  C      27.609552    -19.486977     -0.535776
  C      28.271140    -19.975840      0.589853
  C      29.518023    -20.568597      0.458558
  C      30.117254    -20.656887     -0.799306
  C      29.457772    -20.163601     -1.923880
  C      28.200229    -19.584579     -1.791562
  N      31.395964    -21.274054     -0.938969
  C      31.597753    -22.220226     -2.066018
  C      32.558629    -23.348244     -1.702009
  C      33.782660    -22.742596     -1.109092
  C      33.701584    -21.519525     -0.466691
  C      32.457782    -20.780241     -0.233909
  O      25.366042    -20.799117      0.217864
  O      32.366903    -19.830904      0.559385
  C      35.136568    -23.104865     -1.012080
  N      35.836383    -22.145116     -0.375869
  N      34.961477    -21.197305     -0.038485
  C      35.445810    -19.998735      0.579252
  C      35.787048    -24.343747     -1.486624
  N      37.087626    -24.496887     -1.196304
  O      35.138832    -25.193857     -2.122444
  C      35.091454    -19.692232      1.891208
  C      35.591489    -18.543794      2.476949
  C      36.455946    -17.706146      1.758242
  C      36.823917    -18.029993      0.449416
  C      36.310461    -19.182815     -0.136647
  O      36.887434    -16.601740      2.423788
  C      37.777634    -15.708663      1.734905
  H      23.721976    -17.637761     -1.611503
  H      22.916388    -17.010237     -0.169795
  H      23.768663    -18.798565      1.223936
  H      23.168164    -19.587338     -0.227444
  H      27.211853    -16.953493     -0.416881
  H      26.283272    -17.340996     -1.876134
  H      25.178230    -16.604701      0.880958
  H      25.019530    -15.708344     -0.637528
  H      27.802853    -19.900127      1.566934
  H      30.026656    -20.966925      1.330522
  H      29.920123    -20.225823     -2.904494
  H      27.682953    -19.208292     -2.669353
  H      30.618896    -22.628700     -2.326374
  H      31.987317    -21.669879     -2.933597
  H      32.093718    -24.043313     -0.989267
  H      32.785168    -23.911464     -2.610236
  H      37.586226    -23.839262     -0.614603
  H      37.556628    -25.343162     -1.486682
  H      34.430379    -20.350074      2.446234
  H      35.329312    -18.283454      3.498210
  H      37.492682    -17.399477     -0.124317
  H      36.579356    -19.438393     -1.157601
  H      37.299204    -15.289926      0.841654
  H      37.993722    -14.907122      2.443224
  H      38.709654    -16.216839      1.460398
  O      23.481815    -21.869869      1.952049
  H      24.052673    -21.511627      1.239216
  C      24.181787    -21.642186      3.178835
  H      25.153783    -22.156469      3.193908
  H      24.349313    -20.570763      3.362778
  H      23.568327    -22.039347      3.993627
  O      33.393400    -17.368038     -0.472151
  H      33.099365    -18.097096      0.099807
  C      33.313077    -17.858587     -1.814908
  H      33.918484    -18.765728     -1.955871
  H      32.274597    -18.076755     -2.105196
  H      33.701325    -17.077831     -2.475961
  O      32.959505    -26.640321     -3.320383
  H      33.659474    -26.007027     -3.095977
  C      32.890784    -27.570359     -2.232066
  H      33.829558    -28.130252     -2.117744
  H      32.659273    -27.067316     -1.282783
  H      32.087654    -28.278921     -2.455235
  O      38.680050    -21.603982      0.383663
  H      37.767567    -21.665125      0.048301
  C      38.593966    -21.307267      1.783498
  H      38.271933    -20.270723      1.960700
  H      37.903843    -21.988175      2.300423
  H      39.593369    -21.437048      2.209918
83
Coordinates from ORCA-job Apixaban_Explicit4MeOH_SMD_methanol_Opt_KeepDens E -2005.009470837703
  C      23.815644    -17.523881     -0.529419
  C      23.925154    -18.893607      0.131705
  C      25.260428    -19.578476     -0.026071
  N      26.333471    -18.846526     -0.398270
  C      26.284060    -17.413708     -0.778199
  C      25.064590    -16.716814     -0.206901
  C      27.608527    -19.486581     -0.536681
  C      28.268844    -19.976741      0.589123
  C      29.515855    -20.569401      0.458464
  C      30.116462    -20.656204     -0.798845
  C      29.458470    -20.161170     -1.923481
  C      28.200737    -19.582367     -1.791916
  N      31.394946    -21.274096     -0.937746
  C      31.596448    -22.220347     -2.064805
  C      32.557468    -23.348333     -1.700977
  C      33.781575    -22.742686     -1.108314
  C      33.700590    -21.519731     -0.465701
  C      32.456735    -20.780512     -0.232545
  O      25.364949    -20.802259      0.209210
  O      32.365908    -19.831501      0.561071
  C      35.135521    -23.104845     -1.011746
  N      35.835470    -22.145198     -0.375521
  N      34.960542    -21.197455     -0.037872
  C      35.444982    -19.999104      0.580131
  C      35.786031    -24.343457     -1.486915
  N      37.087109    -24.496052     -1.198328
  O      35.137516    -25.193959     -2.121924
  C      35.091730    -19.693054      1.892442
  C      35.592720    -18.545127      2.478316
  C      36.457059    -17.707602      1.759330
  C      36.823653    -18.030814      0.449998
  C      36.309213    -19.183100     -0.136250
  O      36.890004    -16.603954      2.425113
  C      37.780801    -15.711786      1.735902
  H      23.722327    -17.639306     -1.617462
  H      22.912062    -17.015268     -0.176928
  H      23.762983    -18.804988      1.216033
  H      23.166839    -19.591983     -0.238022
  H      27.208030    -16.953101     -0.411720
  H      26.284113    -17.338475     -1.874478
  H      25.170474    -16.609210      0.880952
  H      25.014923    -15.710141     -0.636288
  H      27.799205    -19.902413      1.565677
  H      30.023673    -20.968881      1.330400
  H      29.921994    -20.222140     -2.903632
  H      27.684512    -19.204982     -2.669852
  H      30.617488    -22.628969     -2.324595
  H      31.985595    -21.670128     -2.932636
  H      32.092706    -24.043310     -0.988044
  H      32.783746    -23.911600     -2.609214
  H      37.586534    -23.838091     -0.617674
  H      37.555766    -25.342461     -1.488870
  H      34.430875    -20.350985      2.447641
  H      35.331529    -18.285065      3.499902
  H      37.492337    -17.400414     -0.123963
  H      36.577112    -19.438251     -1.157560
  H      37.302632    -15.292749      0.842648
  H      37.997922    -14.910358      2.444028
  H      38.712186    -16.221152      1.461349
  O      23.489574    -21.867461      1.955512
  H      24.057679    -21.512670      1.238669
  C      24.196667    -21.637615      3.177869
  H      25.168020    -22.153215      3.188936
  H      24.366785    -20.565975      3.358164
  H      23.587219    -22.031833      3.997090
  O      33.391857    -17.366744     -0.464961
  H      33.098561    -18.096539      0.106465
  C      33.311870    -17.856409     -1.808140
  H      33.918567    -18.762550     -1.949922
  H      32.273636    -18.075873     -2.098175
  H      33.698761    -17.074457     -2.468565
  O      32.955865    -26.638497     -3.316970
  H      33.656903    -26.006225     -3.092982
  C      32.885737    -27.567450     -2.227784
  H      33.823581    -28.128849     -2.113123
  H      32.655408    -27.063205     -1.278846
  H      32.081346    -28.274862     -2.450049
  O      38.680227    -21.602513      0.378476
  H      37.767235    -21.663514      0.044561
  C      38.596371    -21.306271      1.778521
  H      38.275054    -20.269633      1.956704
  H      37.906626    -21.986988      2.296237
  H      39.596288    -21.436761      2.203518
83
Coordinates from ORCA-job Apixaban_Explicit4MeOH_SMD_methanol_Opt_KeepDens E -2005.009473132238
  C      23.812693    -17.527333     -0.534479
  C      23.922917    -18.898018      0.124539
  C      25.259458    -19.580603     -0.031916
  N      26.332255    -18.846385     -0.400239
  C      26.281567    -17.412927     -0.777388
  C      25.059643    -16.718907     -0.207768
  C      27.608195    -19.484815     -0.537862
  C      28.267278    -19.976347      0.588080
  C      29.514456    -20.568783      0.457913
  C      30.116454    -20.653820     -0.798862
  C      29.460011    -20.156799     -1.923444
  C      28.201985    -19.578400     -1.792508
  N      31.394687    -21.272523     -0.937018
  C      31.595729    -22.218999     -2.063974
  C      32.555949    -23.347581     -1.699793
  C      33.780328    -22.742623     -1.107009
  C      33.700004    -21.519613     -0.464466
  C      32.456382    -20.779718     -0.231229
  O      25.365336    -20.804789      0.200883
  O      32.365824    -19.831327      0.563095
  C      35.134110    -23.105460     -1.010308
  N      35.834537    -22.146191     -0.374061
  N      34.959987    -21.197989     -0.036527
  C      35.445018    -19.999665      0.581071
  C      35.784036    -24.344342     -1.485459
  N      37.085457    -24.496913     -1.198527
  O      35.134735    -25.195265     -2.119180
  C      35.093509    -19.693381      1.893716
  C      35.595881    -18.545704      2.478923
  C      36.459988    -17.708834      1.758973
  C      36.824673    -18.032161      0.449109
  C      36.308735    -19.184054     -0.136491
  O      36.894776    -16.605678      2.424330
  C      37.785866    -15.714641      1.734047
  H      23.721965    -17.641121     -1.622925
  H      22.907546    -17.020661     -0.183259
  H      23.758412    -18.811393      1.208690
  H      23.166212    -19.596825     -0.247661
  H      27.203766    -16.951391     -0.407761
  H      26.284136    -17.335588     -1.873519
  H      25.162839    -16.612916      0.880499
  H      25.009477    -15.711659     -0.635749
  H      27.796407    -19.903658      1.564171
  H      30.021325    -20.969565      1.329821
  H      29.924859    -20.216220     -2.903080
  H      27.686784    -19.199730     -2.670492
  H      30.616524    -22.627151     -2.323610
  H      31.985217    -21.669159     -2.931874
  H      32.090482    -24.041967     -0.986739
  H      32.782096    -23.911282     -2.607772
  H      37.586152    -23.838524     -0.619434
  H      37.553355    -25.343846     -1.488781
  H      34.432871    -20.350932      2.449640
  H      35.336055    -18.285367      3.500789
  H      37.493116    -17.402250     -0.125665
  H      36.575219    -19.439299     -1.158142
  H      37.307782    -15.295942      0.840590
  H      38.003999    -14.912833      2.441419
  H      38.716627    -16.225234      1.459605
  O      23.496586    -21.867938      1.954550
  H      24.063780    -21.514196      1.236450
  C      24.208671    -21.642370      3.174880
  H      25.177921    -22.161995      3.182028
  H      24.383737    -20.571611      3.355828
  H      23.600422    -22.035031      3.995750
  O      33.391539    -17.363219     -0.455345
  H      33.099601    -18.094364      0.115066
  C      33.310356    -17.850315     -1.799525
  H      33.917979    -18.755391     -1.943918
  H      32.271994    -18.070411     -2.088375
  H      33.695358    -17.066261     -2.458529
  O      32.950300    -26.637084     -3.311338
  H      33.652448    -26.005950     -3.087479
  C      32.876985    -27.563994     -2.220578
  H      33.813386    -28.127435     -2.104114
  H      32.647144    -27.057538     -1.272697
  H      32.071085    -28.269891     -2.442184
  O      38.680940    -21.601261      0.372663
  H      37.767434    -21.662792      0.040411
  C      38.599213    -21.305488      1.772923
  H      38.278027    -20.268937      1.951991
  H      37.910261    -21.986383      2.291475
  H      39.599761    -21.436020      2.196413
83
Coordinates from ORCA-job Apixaban_Explicit4MeOH_SMD_methanol_Opt_KeepDens E -2005.009474565854
  C      23.810567    -17.529101     -0.536774
  C      23.921779    -18.900483      0.120626
  C      25.259117    -19.581537     -0.035689
  N      26.331513    -18.845651     -0.401877
  C      26.279586    -17.411912     -0.777555
  C      25.056446    -16.719761     -0.208233
  C      27.608093    -19.482937     -0.539250
  C      28.266561    -19.975328      0.586692
  C      29.513910    -20.567449      0.456654
  C      30.116667    -20.651202     -0.799859
  C      29.461041    -20.152922     -1.924306
  C      28.202757    -19.574946     -1.793558
  N      31.394818    -21.270259     -0.937738
  C      31.595657    -22.216868     -2.064607
  C      32.554629    -23.346301     -1.699746
  C      33.779242    -22.742294     -1.106428
  C      33.699594    -21.519213     -0.463981
  C      32.456310    -20.778445     -0.231055
  O      25.366083    -20.805937      0.195520
  O      32.365914    -19.830556      0.563860
  C      35.132766    -23.106111     -1.009078
  N      35.833594    -22.147320     -0.372586
  N      34.959556    -21.198429     -0.035560
  C      35.445270    -20.000027      0.581391
  C      35.781985    -24.345589     -1.483571
  N      37.083466    -24.498467     -1.197341
  O      35.131952    -25.196851     -2.116180
  C      35.095159    -19.693318      1.894268
  C      35.598684    -18.545733      2.478750
  C      36.462589    -17.709510      1.757904
  C      36.825818    -18.033216      0.447675
  C      36.308656    -19.184874     -0.137152
  O      36.898780    -16.606598      2.422723
  C      37.789945    -15.716412      1.731412
  H      23.720698    -17.641720     -1.625413
  H      22.904642    -17.023785     -0.185611
  H      23.756428    -18.815420      1.204790
  H      23.165895    -19.599508     -0.252851
  H      27.200856    -16.949614     -0.406578
  H      26.283058    -17.333436     -1.873604
  H      25.158642    -16.614762      0.880210
  H      25.005640    -15.712173     -0.635331
  H      27.795135    -19.903808      1.562595
  H      30.020162    -20.969076      1.328543
  H      29.926695    -20.211220     -2.903631
  H      27.688031    -19.195416     -2.671447
  H      30.616255    -22.624207     -2.324753
  H      31.986112    -21.667348     -2.932267
  H      32.088019    -24.040002     -0.986770
  H      32.780892    -23.910532     -2.607360
  H      37.585089    -23.839691     -0.619485
  H      37.550710    -25.345992     -1.486932
  H      34.434678    -20.350415      2.450921
  H      35.339950    -18.285085      3.500816
  H      37.494050    -17.403763     -0.127840
  H      36.574106    -19.440419     -1.159002
  H      37.311696    -15.297946      0.837935
  H      38.008960    -14.914316      2.438172
  H      38.720182    -16.227860      1.456772
  O      23.500717    -21.869002      1.952654
  H      24.068061    -21.514944      1.234885
  C      24.216346    -21.651636      3.172440
  H      25.182187    -22.177607      3.176182
  H      24.398540    -20.582538      3.356206
  H      23.607044    -22.042748      3.993263
  O      33.392835    -17.359636     -0.448468
  H      33.101691    -18.091793      0.121040
  C      33.309896    -17.844112     -1.793592
  H      33.917263    -18.748931     -1.940543
  H      32.271124    -18.063494     -2.081386
  H      33.694105    -17.058541     -2.451233
  O      32.945765    -26.636993     -3.306043
  H      33.648438    -26.006199     -3.082770
  C      32.870314    -27.561600     -2.213447
  H      33.805798    -28.126184     -2.095183
  H      32.640546    -27.052819     -1.266797
  H      32.063520    -28.266757     -2.434150
  O      38.681360    -21.601027      0.369944
  H      37.767639    -21.663064      0.038439
  C      38.600341    -21.305782      1.770381
  H      38.278626    -20.269470      1.949938
  H      37.912113    -21.987259      2.289123
  H      39.601260    -21.435771      2.193158
83
Coordinates from ORCA-job Apixaban_Explicit4MeOH_SMD_methanol_Opt_KeepDens E -2005.009475559896
  C      23.809622    -17.529343     -0.536675
  C      23.921585    -18.901194      0.119615
  C      25.259159    -19.581674     -0.037388
  N      26.331250    -18.844963     -0.402900
  C      26.278559    -17.411226     -0.778244
  C      25.055375    -16.719759     -0.208170
  C      27.608111    -19.481738     -0.540472
  C      28.266607    -19.974338      0.585369
  C      29.514129    -20.566086      0.455186
  C      30.116978    -20.649215     -0.801329
  C      29.461351    -20.150646     -1.925637
  C      28.202887    -19.573076     -1.794730
  N      31.395231    -21.268037     -0.939424
  C      31.596182    -22.214617     -2.066277
  C      32.553860    -23.344903     -1.700671
  C      33.778596    -22.741837     -1.106561
  C      33.699458    -21.518655     -0.464257
  C      32.456488    -20.777144     -0.231791
  O      25.366617    -20.806183      0.192890
  O      32.366105    -19.829680      0.563636
  C      35.131853    -23.106582     -1.008351
  N      35.832935    -22.148225     -0.371520
  N      34.959343    -21.198722     -0.035033
  C      35.445575    -20.000225      0.581364
  C      35.780444    -24.346717     -1.481944
  N      37.081801    -24.500008     -1.195658
  O      35.129884    -25.198179     -2.113792
  C      35.095825    -19.692902      1.894191
  C      35.599801    -18.545180      2.478108
  C      36.463831    -17.709512      1.756828
  C      36.826803    -18.033906      0.446640
  C      36.309138    -19.185598     -0.137563
  O      36.900385    -16.606422      2.421121
  C      37.791598    -15.716639      1.729296
  H      23.719260    -17.641199     -1.625348
  H      22.903675    -17.024630     -0.184680
  H      23.756511    -18.817216      1.203919
  H      23.165786    -19.600140     -0.254205
  H      27.199740    -16.948590     -0.407446
  H      26.281624    -17.332450     -1.874272
  H      25.157927    -16.615264      0.880283
  H      25.004081    -15.711994     -0.634794
  H      27.795235    -19.903369      1.561335
  H      30.020206    -20.967924      1.327073
  H      29.927211    -20.208442     -2.904892
  H      27.688069    -19.193290     -2.672457
  H      30.616676    -22.621081     -2.327371
  H      31.987874    -21.665267     -2.933488
  H      32.086038    -24.038067     -0.987969
  H      32.780382    -23.909520     -2.607987
  H      37.583882    -23.840918     -0.618566
  H      37.548642    -25.348024     -1.484476
  H      34.435191    -20.349508      2.451240
  H      35.341260    -18.284106      3.500115
  H      37.495093    -17.404841     -0.129227
  H      36.574405    -19.441633     -1.159350
  H      37.313326    -15.298516      0.835668
  H      38.010732    -14.914225      2.435655
  H      38.721731    -16.228312      1.454763
  O      23.502590    -21.869913      1.951567
  H      24.070309    -21.515216      1.234491
  C      24.220731    -21.660431      3.171299
  H      25.182849    -22.193196      3.172819
  H      24.410408    -20.593045      3.357401
  H      23.609381    -22.049191      3.991714
  O      33.394802    -17.357045     -0.445183
  H      33.103902    -18.089526      0.123973
  C      33.310412    -17.840101     -1.790766
  H      33.916901    -18.745269     -1.939101
  H      32.271205    -18.058263     -2.077898
  H      33.694797    -17.054060     -2.447730
  O      32.943034    -26.637853     -3.302677
  H      33.645692    -26.006894     -3.079767
  C      32.866065    -27.560688     -2.208676
  H      33.801113    -28.125613     -2.088670
  H      32.635636    -27.050208     -1.263110
  H      32.059071    -28.265719     -2.429048
  O      38.681397    -21.601406      0.369946
  H      37.767722    -21.663943      0.038440
  C      38.599980    -21.306592      1.770501
  H      38.277378    -20.270592      1.950166
  H      37.912299    -21.988819      2.288957
  H      39.601017    -21.435736      2.193247
