71
Coordinates from ORCA-job Apixaban_Explicit4H2O_repositioned_SMD_water_Opt_KeepDens E -1847.899640433535
  C          23.86260340317952    -17.64333997276425     -0.24638408368457
  C          24.08519253732977    -18.91578437776674      0.56356209037318
  C          25.40785754318064    -19.60485589621207      0.33377163318942
  N          26.41407891697076    -18.91458301170614     -0.25058270577984
  C          26.27550946431715    -17.54741346338355     -0.81172590970223
  C          25.12120463622096    -16.79132497915441     -0.18550913806827
  C          27.68306587830610    -19.54734297833259     -0.45813819632259
  C          28.45382153930455    -19.94877033639263      0.63244583527461
  C          29.69524004834783    -20.53174188552542      0.42946822700835
  C          30.18444150955714    -20.69870739164251     -0.86793901236659
  C          29.41767485574123    -20.28984894134690     -1.95746470439464
  C          28.16605581402136    -19.71987730295893     -1.75172624285429
  N          31.45240555127510    -21.31795417343886     -1.07789301204183
  C          31.57835302299464    -22.27716631182651     -2.20772043651436
  C          32.57536272203365    -23.38961041536701     -1.90569799111957
  C          33.82863703089637    -22.76779213394260     -1.39987466699768
  C          33.78632845067255    -21.54452564777705     -0.75401930377721
  C          32.56301471386656    -20.78936561906774     -0.47573567396870
  O          25.56460025653384    -20.78885798785432      0.70620250136171
  O          32.52884144572785    -19.78872759459547      0.25756209286043
  C          35.18846607056034    -23.11295578507276     -1.41650110179630
  N          35.92835656357403    -22.15528455078190     -0.82557302149399
  N          35.07307199425659    -21.21558367792180     -0.41804748024540
  C          35.58910333035690    -20.07243156801463      0.27180694006306
  C          35.80965630668204    -24.33041337065733     -1.96877521800223
  N          37.14056387410871    -24.31750358742940     -2.12023580530620
  O          35.10216588283322    -25.31335181028302     -2.26912575908002
  C          35.24324961936820    -19.84677330472478      1.60290806661237
  C          35.79795339389100    -18.77336353337869      2.27456443217310
  C          36.70871789878795    -17.93070021134871      1.62276251105390
  C          37.06242691097292    -18.16923469346457      0.29237736622036
  C          36.49318051265910    -19.24621012532929     -0.38064714868461
  O          37.19867527863121    -16.90279393658030      2.37373154486666
  C          38.14666199727464    -16.01900595266584      1.75184992052698
  H          23.64348876075154    -17.89961661594022     -1.29101203016135
  H          22.99595700450118    -17.10259727477391      0.14707179267273
  H          24.05375937402568    -18.69140034836466      1.63971100448358
  H          23.30439339840190    -19.66118037369651      0.37882348687590
  H          27.22561890202072    -17.03262425301797     -0.63514116305352
  H          26.13163907621089    -17.62226133917339     -1.89793047760744
  H          25.35687763187588    -16.54458340666954      0.85796250319492
  H          24.99596192348784    -15.84965709717918     -0.73030882533591
  H          28.07611382045353    -19.81415071636332      1.64116150211209
  H          30.28423810286262    -20.86216389086606      1.27846296268520
  H          29.79053392607137    -20.41180964121962     -2.96943069402396
  H          27.57009878922707    -19.40992716730583     -2.60462034778333
  H          30.58730249610858    -22.69887097217774     -2.38520601608315
  H          31.89196309896338    -21.73349714780827     -3.10878080047604
  H          32.16915031002679    -24.08056968147753     -1.15551133501521
  H          32.74941057718575    -23.96380040278789     -2.81951462208268
  H          37.68941612751750    -23.50358949174844     -1.88536955919524
  H          37.60523572631092    -25.14486086476540     -2.46564896290168
  H          34.54954731921727    -20.51194874491594      2.10648859882985
  H          35.54395763518595    -18.57882793566987      3.31194193365319
  H          37.76225161867377    -17.52925487192706     -0.23126937526883
  H          36.75466304401148    -19.43684495103844     -1.41721107403459
  H          37.69932586601507    -15.50682214494279      0.89240084729638
  H          38.41088019505067    -15.28759296352527      2.51661204199553
  H          39.04396183613522    -16.56495092164079      1.43875667444552
  O          23.58349232828980    -21.90920514868008      2.32418808421814
  H          24.24212846136724    -21.47650373601632      1.73934008342084
  H          22.80835957686470    -21.33993679638429      2.25523160817810
  O          33.71972282392684    -17.27589241050296     -0.52390979464209
  H          33.43630347209409    -18.16494015811111     -0.24919325550823
  H          32.88912591673851    -16.79421889213608     -0.61660695232474
  O          33.56372462404254    -26.09421345295826      0.05212242198345
  H          34.02431390540242    -25.80827515225204     -0.75743907657575
  H          34.14783166172992    -26.76805544067851      0.41971973141485
  O          38.70360682536233    -21.77518737605249      0.27918064088370
  H          37.81407104599507    -21.91488508546586     -0.09249328741875
  H          38.70097182344452    -20.83825460304967      0.51165618176553
