27
Coordinates from ORCA-job Adamantanol E -465.846592368215
  O           0.68967998786473      2.57013923670549      0.00000000000000
  C           0.29035740225171      1.17956955147098      0.00000000000000
  C          -0.53187788997596      0.85639228940349     -1.25096727518544
  C          -0.90363597258851     -0.63593764597218     -1.25521528552119
  C          -1.72810573253022     -0.95851681118071      0.00000000000000
  C          -0.90363597258851     -0.63593764597218      1.25521528552119
  C           0.38333168076036     -1.47434522479335      1.25351824295849
  C           1.20936328135070     -1.14763850083553      0.00000000000000
  C           0.38333168076036     -1.47434522479335     -1.25351824295849
  C           1.57063444126817      0.34742093385860      0.00000000000000
  C          -0.53187788997596      0.85639228940349      1.25096727518544
  H          -0.12203652665300      3.09654330426538      0.00000000000000
  H           0.05625412247803      1.10702269211075     -2.14426539482001
  H          -1.43955816677121      1.47715175427901     -1.25907567343171
  H          -1.49271160182529     -0.86094489028639     -2.15405900627821
  H          -2.00883007807367     -2.02033266483319      0.00000000000000
  H          -2.65665258255560     -0.37144975174186      0.00000000000000
  H          -1.49271160182529     -0.86094489028639      2.15405900627821
  H           0.13241767763635     -2.54349572830546      1.26558750607913
  H           0.97115931660169     -1.26296116757901      2.15713704645331
  H           2.13331566623907     -1.74048574697401      0.00000000000000
  H           0.13241767763635     -2.54349572830546     -1.26558750607913
  H           0.97115931660169     -1.26296116757901     -2.15713704645331
  H           2.16678882214923      0.59595615372901     -0.88850165826977
  H           2.16678882214923      0.59595615372901      0.88850165826977
  H           0.05625412247803      1.10702269211075      2.14426539482001
  H          -1.43955816677121      1.47715175427901      1.25907567343171
