27
Coordinates from ORCA-job Adamantanol E -465.846411019933
  O       0.703311      2.559810      0.000000
  C       0.288911      1.187380      0.000000
  C      -0.534919      0.856590     -1.251110
  C      -0.905089     -0.636120     -1.255620
  C      -1.728999     -0.960470      0.000000
  C      -0.905089     -0.636120      1.255620
  C       0.382701     -1.473800      1.253520
  C       1.208301     -1.145170      0.000000
  C       0.382701     -1.473800     -1.253520
  C       1.567121      0.349390      0.000000
  C      -0.534919      0.856590      1.251110
  H      -0.091259      3.107350      0.000000
  H       0.050681      1.115900     -2.143010
  H      -1.447039      1.472750     -1.263910
  H      -1.494149     -0.863980     -2.154320
  H      -2.011069     -2.022050      0.000000
  H      -2.660149     -0.377020      0.000000
  H      -1.494149     -0.863980      2.154320
  H       0.133341     -2.543500      1.268740
  H       0.970211     -1.263460      2.157550
  H       2.132411     -1.738530      0.000000
  H       0.133341     -2.543500     -1.268740
  H       0.970211     -1.263460     -2.157550
  H       2.163301      0.606210     -0.885270
  H       2.163301      0.606210      0.885270
  H       0.050681      1.115900      2.143010
  H      -1.447039      1.472750      1.263910
27
Coordinates from ORCA-job Adamantanol E -465.846540454317
  O       0.694002      2.565395      0.000000
  C       0.289759      1.183946      0.000000
  C      -0.533641      0.856532     -1.250691
  C      -0.903663     -0.635506     -1.255208
  C      -1.727788     -0.958474      0.000000
  C      -0.903663     -0.635506      1.255208
  C       0.383421     -1.474166      1.253470
  C       1.209378     -1.147554      0.000000
  C       0.383421     -1.474166     -1.253470
  C       1.569070      0.346238      0.000000
  C      -0.533641      0.856532      1.250691
  H      -0.109056      3.104997      0.000000
  H       0.052696      1.112987     -2.143739
  H      -1.443758      1.474263     -1.260828
  H      -1.492826     -0.861780     -2.153676
  H      -2.009810     -2.019961      0.000000
  H      -2.657480     -0.372979      0.000000
  H      -1.492826     -0.861780      2.153676
  H       0.132926     -2.543428      1.267789
  H       0.971213     -1.263283      2.157318
  H       2.132884     -1.741318      0.000000
  H       0.132926     -2.543428     -1.267789
  H       0.971213     -1.263283     -2.157318
  H       2.165601      0.599665     -0.887059
  H       2.165601      0.599665      0.887059
  H       0.052696      1.112987      2.143739
  H      -1.443758      1.474263      1.260828
27
Coordinates from ORCA-job Adamantanol E -465.846586303424
  O       0.688679      2.569390      0.000000
  C       0.290240      1.180475      0.000000
  C      -0.532196      0.856327     -1.250839
  C      -0.903124     -0.635549     -1.255187
  C      -1.727499     -0.957806      0.000000
  C      -0.903124     -0.635549      1.255187
  C       0.383553     -1.474337      1.253493
  C       1.209641     -1.148069      0.000000
  C       0.383553     -1.474337     -1.253493
  C       1.570409      0.346040      0.000000
  C      -0.532196      0.856327      1.250839
  H      -0.121062      3.099369      0.000000
  H       0.055396      1.108820     -2.144306
  H      -1.440258      1.476369     -1.259056
  H      -1.492253     -0.860734     -2.153859
  H      -2.008932     -2.019458      0.000000
  H      -2.656042     -0.370710      0.000000
  H      -1.492253     -0.860734      2.153859
  H       0.132426     -2.543410      1.266256
  H       0.971446     -1.263020      2.157148
  H       2.133211     -1.741381      0.000000
  H       0.132426     -2.543410     -1.266256
  H       0.971446     -1.263020     -2.157148
  H       2.166688      0.596094     -0.888381
  H       2.166688      0.596094      0.888381
  H       0.055396      1.108820      2.144306
  H      -1.440258      1.476369      1.259056
27
Coordinates from ORCA-job Adamantanol E -465.846591737453
  O       0.688965      2.570148      0.000000
  C       0.290334      1.179641      0.000000
  C      -0.531869      0.856328     -1.250965
  C      -0.903412     -0.635821     -1.255226
  C      -1.727877     -0.958229      0.000000
  C      -0.903412     -0.635821      1.255226
  C       0.383403     -1.474363      1.253511
  C       1.209467     -1.147763      0.000000
  C       0.383403     -1.474363     -1.253511
  C       1.570639      0.346963      0.000000
  C      -0.531869      0.856328      1.250965
  H      -0.122465      3.097162      0.000000
  H       0.056182      1.107334     -2.144322
  H      -1.439495      1.477093     -1.258955
  H      -1.492500     -0.860847     -2.154031
  H      -2.008820     -2.020000      0.000000
  H      -2.656318     -0.371001      0.000000
  H      -1.492500     -0.860847      2.154031
  H       0.132359     -2.543470      1.265672
  H       0.971264     -1.262971      2.157126
  H       2.133296     -1.740739      0.000000
  H       0.132359     -2.543470     -1.265672
  H       0.971264     -1.262971     -2.157126
  H       2.166771      0.595867     -0.888550
  H       2.166771      0.595867      0.888550
  H       0.056182      1.107334      2.144322
  H      -1.439495      1.477093      1.258955
27
Coordinates from ORCA-job Adamantanol E -465.846592368215
  O       0.689680      2.570139      0.000000
  C       0.290357      1.179570      0.000000
  C      -0.531878      0.856392     -1.250967
  C      -0.903636     -0.635938     -1.255215
  C      -1.728106     -0.958517      0.000000
  C      -0.903636     -0.635938      1.255215
  C       0.383332     -1.474345      1.253518
  C       1.209363     -1.147639      0.000000
  C       0.383332     -1.474345     -1.253518
  C       1.570634      0.347421      0.000000
  C      -0.531878      0.856392      1.250967
  H      -0.122037      3.096543      0.000000
  H       0.056254      1.107023     -2.144265
  H      -1.439558      1.477152     -1.259076
  H      -1.492712     -0.860945     -2.154059
  H      -2.008830     -2.020333      0.000000
  H      -2.656653     -0.371450      0.000000
  H      -1.492712     -0.860945      2.154059
  H       0.132418     -2.543496      1.265588
  H       0.971159     -1.262961      2.157137
  H       2.133316     -1.740486      0.000000
  H       0.132418     -2.543496     -1.265588
  H       0.971159     -1.262961     -2.157137
  H       2.166789      0.595956     -0.888502
  H       2.166789      0.595956      0.888502
  H       0.056254      1.107023      2.144265
  H      -1.439558      1.477152      1.259076
