59
Coordinates from ORCA-job Apixaban_COSMORS_water_Opt_KeepDens.solute_cpcm E -1543.061086205481
  C          24.00814468141495    -17.31154965231683     -0.26361551427870
  C          23.98430788927174    -18.81997329924803     -0.00805895131766
  C          25.32596323441438    -19.52560295150968     -0.12648988358118
  N          26.45991982684440    -18.76645480515133     -0.09267916869272
  C          26.49346628380267    -17.28554057631986     -0.01208635357705
  C          25.18343251203235    -16.69623279619930      0.49272033930650
  C          27.73796834782703    -19.41092469761268     -0.25108466337751
  C          28.53150846577572    -19.67403781630193      0.87170031708506
  C          29.77989989909649    -20.27873345525313      0.72553646708871
  C          30.25182642817295    -20.61811515643017     -0.55194674621629
  C          29.45805738599582    -20.34617451256939     -1.67649131559934
  C          28.20630491821054    -19.74653647169537     -1.52494244063306
  N          31.51081735367708    -21.27449371465035     -0.71094013177177
  C          31.59770667864998    -22.40774981387978     -1.66999632271154
  C          32.49331059677866    -23.53403681222281     -1.14678935668446
  C          33.78877948099495    -22.93546763390616     -0.70896032637066
  C          33.84263664528540    -21.59456227478778     -0.34099358822734
  C          32.65461027965172    -20.73900509837480     -0.14573965141375
  O          25.37526402172231    -20.76974874912490     -0.22002552060618
  O          32.67081216971042    -19.68495817874588      0.50793596393766
  C          35.10447033746150    -23.41140479604879     -0.52001756035558
  N          35.91724856690860    -22.41806518390938     -0.09310300728797
  N          35.14369890415536    -21.32328328242164      0.02075664309256
  C          35.74315036614131    -20.08219866573044      0.40864386109166
  C          35.62758653698042    -24.78469096124716     -0.74037402582256
  N          36.95296925493344    -24.94873871771700     -0.53098843299001
  O          34.87245206170400    -25.71066820984555     -1.09435612415240
  C          36.50239654760990    -20.02493282290352      1.58475667823764
  C          37.11762023552090    -18.83353525916531      1.95152677896624
  C          36.97743700958248    -17.68719789749186      1.14739507113170
  C          36.21898378697033    -17.75145090015901     -0.03368932757474
  C          35.60920704066425    -18.95349665795197     -0.40047831192682
  O          37.61353860320648    -16.56500623067923      1.59310976367152
  C          37.49612571267696    -15.36599693895341      0.80493435881060
  H          24.11796166385469    -17.11360367865054     -1.34276578318695
  H          23.05454458724246    -16.86318299301776      0.05089249967008
  H          23.62485491241555    -19.02501412403429      1.01530388282618
  H          23.29421044436637    -19.34237654015929     -0.68621110349521
  H          27.32669506753560    -17.01464446769661      0.65239200866876
  H          26.73023451331958    -16.89107484926319     -1.01555947966612
  H          25.07600054133396    -16.89278697168559      1.57222501053425
  H          25.22306656677432    -15.60523474681380      0.35960767845261
  H          28.16087623006716    -19.42011935960094      1.86625006156129
  H          30.38164537072984    -20.50555638385216      1.60450502410513
  H          29.81846519596469    -20.59607126149169     -2.67485491999933
  H          27.59148175563726    -19.53500831839998     -2.40108342727968
  H          30.57793444092124    -22.77401001420588     -1.83015285866564
  H          31.98774817727985    -22.04156488409088     -2.63391531140478
  H          32.00913531964648    -24.06014684113469     -0.30627085242273
  H          32.64037809766688    -24.27299419888137     -1.94537341604440
  H          37.53711177953850    -24.17050302150487     -0.23903220277478
  H          37.37135844275829    -25.86654979597723     -0.65034476178708
  H          36.60076562725801    -20.91153134597603      2.21169333736635
  H          37.70730469965210    -18.77199051975271      2.86720765051405
  H          36.10691250051396    -16.88064951330611     -0.67730144022249
  H          35.03454694089640    -19.00909409451809     -1.32552303831077
  H          36.44457852134416    -15.05277302354008      0.71975584022830
  H          38.06768628488425    -14.60315635384476      1.34361744058349
  H          37.92362125455023    -15.51168070807542     -0.19858535650113
