22
Coordinates from ORCA-job Phenanthroline_XTB2 E -35.610037852510
  C       0.000000      3.470990      0.348120
  C       0.000000      2.699560      1.523050
  N       0.000000      1.378530      1.540430
  C       0.000000      0.726370      0.359540
  C       0.000000      1.410800     -0.887500
  C       0.000000      2.818040     -0.861810
  C       0.000000      0.678960     -2.114330
  C       0.000000     -0.678960     -2.114330
  C      -0.000000     -1.410800     -0.887500
  C      -0.000000     -2.818040     -0.861810
  C       0.000000     -3.470990      0.348120
  C       0.000000     -2.699560      1.523050
  N       0.000000     -1.378530      1.540430
  C       0.000000     -0.726370      0.359540
  H       0.000000      4.555240      0.405670
  H       0.000000      3.193360      2.495440
  H       0.000000      3.369300     -1.799220
  H       0.000000      1.233040     -3.049950
  H       0.000000     -1.233040     -3.049950
  H       0.000000     -3.369300     -1.799220
  H       0.000000     -4.555240      0.405670
  H       0.000000     -3.193360      2.495440
22
Coordinates from ORCA-job Phenanthroline_XTB2 E -35.611373699680
  C       0.000000      3.452016      0.353919
  C       0.000000      2.673105      1.517846
  N       0.000000      1.363609      1.523540
  C       0.000000      0.721054      0.348948
  C       0.000000      1.405567     -0.890848
  C      -0.000000      2.809486     -0.858652
  C      -0.000000      0.676870     -2.113982
  C       0.000000     -0.676870     -2.113982
  C       0.000000     -1.405567     -0.890848
  C       0.000000     -2.809486     -0.858652
  C      -0.000000     -3.452016      0.353919
  C      -0.000000     -2.673105      1.517846
  N       0.000000     -1.363609      1.523540
  C      -0.000000     -0.721054      0.348948
  H      -0.000000      4.529554      0.420218
  H      -0.000000      3.150062      2.489664
  H       0.000000      3.363435     -1.788224
  H       0.000000      1.230113     -3.042988
  H      -0.000000     -1.230113     -3.042988
  H      -0.000000     -3.363435     -1.788224
  H      -0.000000     -4.529554      0.420218
  H       0.000000     -3.150062      2.489664
22
Coordinates from ORCA-job Phenanthroline_XTB2 E -35.611420747570
  C       0.000000      3.451097      0.355881
  C      -0.000000      2.669610      1.518214
  N      -0.000000      1.362473      1.518840
  C      -0.000000      0.720473      0.345775
  C      -0.000000      1.406164     -0.892930
  C       0.000000      2.810617     -0.858140
  C      -0.000000      0.676808     -2.115230
  C      -0.000000     -0.676808     -2.115230
  C      -0.000000     -1.406164     -0.892930
  C      -0.000000     -2.810617     -0.858140
  C       0.000000     -3.451097      0.355881
  C       0.000000     -2.669610      1.518214
  N      -0.000000     -1.362473      1.518840
  C      -0.000000     -0.720473      0.345775
  H       0.000000      4.528058      0.424008
  H      -0.000000      3.141290      2.492605
  H       0.000000      3.365898     -1.786355
  H       0.000000      1.231008     -3.043229
  H      -0.000000     -1.231008     -3.043229
  H      -0.000000     -3.365898     -1.786355
  H       0.000000     -4.528058      0.424008
  H       0.000000     -3.141290      2.492605
22
Coordinates from ORCA-job Phenanthroline_XTB2 E -35.611430464040
  C      -0.000000      3.451842      0.356443
  C       0.000000      2.669597      1.518840
  N       0.000000      1.363033      1.517012
  C       0.000000      0.720353      0.344602
  C       0.000000      1.406932     -0.893963
  C      -0.000000      2.811692     -0.857816
  C       0.000000      0.676792     -2.115729
  C       0.000000     -0.676792     -2.115729
  C       0.000000     -1.406932     -0.893963
  C       0.000000     -2.811692     -0.857816
  C      -0.000000     -3.451842      0.356443
  C      -0.000000     -2.669597      1.518840
  N       0.000000     -1.363033      1.517012
  C       0.000000     -0.720353      0.344602
  H      -0.000000      4.528868      0.424416
  H       0.000000      3.138549      2.494743
  H      -0.000000      3.367460     -1.785740
  H      -0.000000      1.231883     -3.043367
  H       0.000000     -1.231883     -3.043367
  H      -0.000000     -3.367460     -1.785740
  H      -0.000000     -4.528868      0.424416
  H      -0.000000     -3.138549      2.494743
22
Coordinates from ORCA-job Phenanthroline_XTB2 E -35.611432318580
  C       0.000000      3.452299      0.356415
  C      -0.000000      2.670171      1.519137
  N      -0.000000      1.363502      1.516702
  C      -0.000000      0.720282      0.344456
  C      -0.000000      1.407237     -0.894237
  C       0.000000      2.811933     -0.857585
  C      -0.000000      0.676747     -2.115781
  C      -0.000000     -0.676747     -2.115781
  C      -0.000000     -1.407237     -0.894237
  C       0.000000     -2.811933     -0.857585
  C       0.000000     -3.452299      0.356415
  C       0.000000     -2.670171      1.519137
  N      -0.000000     -1.363502      1.516702
  C      -0.000000     -0.720282      0.344456
  H       0.000000      4.529448      0.423696
  H      -0.000000      3.138090      2.495503
  H       0.000000      3.367746     -1.785595
  H      -0.000000      1.232332     -3.043270
  H      -0.000000     -1.232332     -3.043270
  H       0.000000     -3.367746     -1.785595
  H       0.000000     -4.529448      0.423696
  H       0.000000     -3.138090      2.495503
