
                                 *****************
                                 * O   R   C   A *
                                 *****************

                                            #,                                       
                                            ###                                      
                                            ####                                     
                                            #####                                    
                                            ######                                   
                                           ########,                                 
                                     ,,################,,,,,                         
                               ,,#################################,,                 
                          ,,##########################################,,             
                       ,#########################################, ''#####,          
                    ,#############################################,,   '####,        
                  ,##################################################,,,,####,       
                ,###########''''           ''''###############################       
              ,#####''   ,,,,##########,,,,          '''####'''          '####       
            ,##' ,,,,###########################,,,                        '##       
           ' ,,###''''                  '''############,,,                           
         ,,##''                                '''############,,,,        ,,,,,,###''
      ,#''                                            '''#######################'''  
     '                                                          ''''####''''         
             ,#######,   #######,   ,#######,      ##                                
            ,#'     '#,  ##    ##  ,#'     '#,    #''#        ,####,    ,#,          
            ##       ##  ##   ,#'  ##            #'  '#       #'       ,# #          
            ##       ##  #######   ##           ,######,      #####,      #          
            '#,     ,#'  ##    ##  '#,     ,#' ,#      #,     #,   #      #          
             '#######'   ##     ##  '#######'  #'      '#     '####' #    #          



                #########################################################
                #                        -***-                          #
                #          Department of theory and spectroscopy        #
                #                                                       #
                #                      Frank Neese                      #
                #                                                       #
                #     Directorship, Architecture, Infrastructure        #
                #                    SHARK, DRIVERS                     #
                #        Core code/Algorithms in most modules           #
                #                                                       #
                #        Max Planck Institute fuer Kohlenforschung      #
                #                Kaiser Wilhelm Platz 1                 #
                #                 D-45470 Muelheim/Ruhr                 #
                #                      Germany                          #
                #                                                       #
                #                  All rights reserved                  #
                #                        -***-                          #
                #########################################################


                         Program Version 6.1.1  -  RELEASE   -


 With contributions from (in alphabetic order):
[Max-Planck-Institut fuer Kohlenforschung]                               
  Daniel Aravena         : Magnetic Suceptibility                        
  Michael Atanasov       : Ab Initio Ligand Field Theory (pilot matlab implementation)
  Alexander A. Auer      : GIAO ZORA, VPT2 properties, NMR spectrum      
  Ute Becker             : All parallelization in ORCA, NUMFREQ, NUMCALC 
  Giovanni Bistoni       : ED, misc. LED, open-shell LED, HFLD           
  Dmytro Bykov           : pre 5.0 version of the SCF Hessian            
  Marcos Casanova-Pﾃ｡ez   : Triplet and SCS-CIS(D). UHF-(DLPNO)-IP/EA/STEOM-CCSD. UHF-CVS-IP/STEOM-CCSD   
  Vijay G. Chilkuri      : MRCI spin determinant printing, contributions to CSF-ICE 
  Pauline Colinet        : FMM embedding                                 
  Dipayan Datta          : RHF DLPNO-CCSD density                        
  Achintya Kumar Dutta   : EOM-CC, STEOM-CC                              
  Nicolas Foglia         : Exact transition moments, OPA infrastructure, MCD improvements    
  Dmitry Ganyushin       : Spin-Orbit,Spin-Spin,Magnetic field MRCI      
  Miquel Garcia-Rates    : C-PCM and meta-GGA Hessian, CCSD/C-PCM, Gaussian charge scheme 
  Tiago L. C. Gouveia    : GS-ROHF, GS-ROCIS                             
  Yang Guo               : DLPNO-NEVPT2, F12-NEVPT2, CIM, IAO-localization        
  Andreas Hansen         : Spin unrestricted coupled pair/coupled cluster methods 
  Ingolf Harden          : AUTO-CI MPn and infrastructure                
  Benjamin Helmich-Paris : MC-RPA, TRAH-(SCF,CASSCF), AVAS, COSX integrals, SCF dyn. polar., MC-PDFT, srDFT 
  Lee Huntington         : MR-EOM, pCC                                   
  Robert Izsak           : Overlap fitted RIJCOSX, COSX-SCS-MP3, EOM     
  Riya Kayal             : Wick's Theorem for AUTO-CI, AUTO-CI UHF-CCSDT 
  Emily Kempfer          : AUTO-CI RHF CISDT and CCSDT, approximate NEVPT4
  Christian Kollmar      : KDIIS, OOCD, Brueckner-CCSD(T), CCSD density, CASPT2, CASPT2-K, improved NEVPT2 
  Axel Koslowski         : Symmetry handling                             
  Simone Kossmann        : meta-GGA functionals, TD-DFT gradient, OOMP2, (MP2 Hessian; deprecated post 5.0) 
  Lucas Lang             : DCDCAS, Hyperfine gauge corrections, ICE-SOC+SSC
  Marvin Lechner         : AUTO-CI (C++ implementation), FIC-MRCC        
  Spencer Leger          : CASSCF response                               
  Dagmar Lenk            : GEPOL surface, SMD, ORCA-2-JSON               
  Dimitrios Liakos       : Extrapolation schemes; Compound Job, Property file
  Dimitrios Manganas     : Further ROCIS development; embedding schemes. LFT, Crystal Embedding 
  Dimitrios Pantazis     : SARC Basis sets                               
  Anastasios Papadopoulos: AUTO-CI, single reference methods and gradients 
  Taras Petrenko         : pre 6.0 DFT Hessian and TD-DFT gradient,  ECA, NRVS 
  Petra Pikulova         : Analytic Raman intensities                    
  Peter Pinski           : DLPNO-MP2, DLPNO-MP2 Gradient                 
  Shashank Vittal Rao    : ES-AILFT, MagRelax                            
  Christoph Reimann      : Effective Core Potentials                     
  Marius Retegan         : Local ZFS, SOC                                
  Christoph Riplinger    : Optimizer, TS searches, QM/MM, DLPNO-CCSD(T), (RO)-DLPNO pert. Triples 
  Michael Roemelt        : Original ROCIS implementation, recursive CI coupling coefficients
  Masaaki Saitow         : Open-shell DLPNO-CCSD energy and density      
  Barbara Sandhoefer     : DKH picture change effects                    
  Yorick L. A. Schmerwitz: GMF and freeze-and-release deltaSCF, NEB S-IDPP initial path                    
  Kantharuban Sivalingam : CASSCF convergence/infrastructure, NEVPT2, NEVPT3, NEVPT4(SD), FIC-MRCI and CEPA variants
  Bernardo de Souza      : ESD, SOC TD-DFT                               
  Georgi L. Stoychev     : AutoAux, RI-MP2 NMR, DLPNO-MP2 response, X2C  
  Van Anh Tran           : RI-MP2 g-tensors                              
  Willem Van den Heuvel  : Paramagnetic NMR                              
  Zikuan Wang            : NOTCH, Electric field optimization            
  Frank Wennmohs         : Technical directorship and infrastructure     
  Hang Xu                : AUTO-CI-Response properties                   
                                                                         
[FACCTs GmbH]                                                            
  Markus Bursch, Nicolas Foglia, Miquel Garcia-Rates, Ingolf Harden, Hagen Neugebauer, Anastasios Papadopoulos, 
  Christoph Riplinger, Bernardo de Souza, Georgi L. Stoychev                                                    
                                                                 
  APM, various basis sets, CI-OPT, improved COSX, DLPNO-Multilevel,           
  DOCKER, DRACO, updates on ESD, Fragmentator, GOAT, IRC, LR-CPCM, L-BFGS, MBIS, meta-GGA TD-DFT gradient, ML-optimized integration grids, 
  MM, NACMEs, nearIR, NEB, NEB-TS, NL-DFT gradient (VV10), 2- and 3-layer-ONIOM, interface openCOSMO-RS, QMMM,   
  Crystal-QMMM, RESP, rigid body optimization, SF, symmetry and pop. for TD-DFT, various functionals, SOLVATOR                                   
                                                                         
[Other institutions]                                                     
  V. Asgeirsson          : NEB                                           
  Christoph Bannwarth    : sTDA-DFT, sTD-DFT, PBEh-3c, B97-3c, D3        
  Giovanni Bistoni       : ETS/NOCV, ADLD/ADEX, COVALED                  
  Martin Brehm           : Molecular dynamics                            
  Ronald Cardenas        : ETS/NOCV                                      
  Martina Colucci        : COVALED                                       
  Sebastian Ehlert       : rSCAN, r2SCAN, r2SCAN-3c, D4, dhf basis sets  
  Marvin Friede          : D4 for Fr, Ra, Ac-Lr                          
  Lars Goerigk           : TD-DFT with DH, B97 family of functionals     
  Stefan Grimme          : VdW corrections, initial TS optimization, DFT functionals, gCP, sTDA/sTD-DF 
  Waldemar Hujo          : DFT-NL                                        
  H. Jonsson             : NEB                                           
  Holger Kruse           : gCP                                           
  Marcel Mueller         : wB97X-3c, vDZP basis set                      
  Hagen Neugebauer       : wr2SCAN, Native XTB                           
  Gianluca Regni         : ADLD/ADEX                                     
  Tobias Risthaus        : pre 6.0 range-separated hybrid DFT and stability analysis
  Lukas Wittmann         : regularized MP2, r2SCAN double-hybrids, wr2SCAN        
                                                                         
We gratefully acknowledge several colleagues who have allowed us to      
interface, adapt or use parts of their codes:                            
  Ed Valeev, F. Pavosevic, A. Kumar             : LibInt (2-el integral package), F12 methods 
  Garnet Chan, S. Sharma, J. Yang, R. Olivares  : DMRG                   
  Ulf Ekstrom                                   : XCFun DFT Library      
  Mihaly Kallay                                 : mrcc  (arbitrary order and MRCC methods)
  Frank Weinhold                                : gennbo (NPA and NBO analysis)           
  Simon Mueller                                 : openCOSMO-RS                            
  Christopher J. Cramer and Donald G. Truhlar   : smd solvation model                     
  S Lehtola, MJT Oliveira, MAL Marques          : LibXC Library                           
  Liviu Ungur et al                             : ANISO software                          


 Your calculation uses the libint2 library for the computation of 2-el integrals
 For citations please refer to: http://libint.valeyev.net

 Your ORCA version has been built with support for libXC version: 7.0.0
 For citations please refer to: https://libxc.gitlab.io

 This ORCA versions uses:
   CBLAS   interface :  Fast vector & matrix operations
   LAPACKE interface :  Fast linear algebra routines
   Shared memory     :  Shared parallel matrices


  ***********************************
  * Starting time: Sat Aug 29 17:34:58 2026
  * Host name:     DESKTOP-2KDTO5M
  * Process ID:    10212
  * Working dir.:  C:\Users\naoki\Downloads\デスクトップ\data\Molecules\Calculations\water-smd\4Water
  ***********************************

NOTE: MaxCore=2000 MB was set to SCF,MP2,MDCI,CIPSI,MRCI,RASCI and CIS
      => If you want to overwrite this, your respective input block should be placed after the MaxCore statement
Your calculation utilizes the geometrical counterpoise correction gCP
Please cite in your paper:
H.Kruse, S. Grimme J.Chem.Phys., 136, (2012), 154101 
   

Your calculation utilizes the atom-pairwise dispersion correction
based on EEQ partial charges (D4)


Your calculation utilizes the SMD solvation module
Please cite in your paper:
Marenich, A. V.; Cramer, C. J.; Truhlar, D. G. J. Phys. Chem. B 2009, 113, 6378 

================================================================================

----- Orbital basis set information -----
Your calculation utilizes the basis: def2-mTZVPP
   Stefan Grimme, Andreas Hansen, Sebastian Ehlert, and Jan-Michael Mewes 
   J. Chem. Phys. 154, 064103 (2021). DOI: 10.1063/5.0040021

----- AuxJ basis set information -----
Your calculation utilizes the basis: def2-mTZVPP/J
   Stefan Grimme, Andreas Hansen, Sebastian Ehlert, and Jan-Michael Mewes 
   J. Chem. Phys. 154, 000000 (2021). DOI: 10.1063/5.0040021

================================================================================
                                        WARNINGS
                       Please study these warnings very carefully!
================================================================================



WARNING: SCAN, rSCAN, or r2SCAN functional requested.
  ===> : libXC variant has now been activated.



WARNING: Geometry Optimization
  ===> : Switching off AutoStart
         For restart on a previous wavefunction, please use MOREAD

================================================================================
                                       INPUT FILE
================================================================================
NAME = Explicit4H2O_SMD_water_Opt_KeepDens_restart.inp
|  1> # Restart of Explicit4H2O_SMD_water_Opt_KeepDens
|  2> # Original run hit MaxIter before the geometry optimization converged,
|  3> # so ORCA aborted before the Freq step could run.
|  4> # This restart:
|  5> #   - starts from the last (unconverged) geometry of the previous run
|  6> #   - increases the geometry optimization MaxIter so it can finish
|  7> # r2SCAN-3c + SMD(water), Opt + Freq, KeepDens (same level as the original run)
|  8> 
|  9> ! r2SCAN-3c TightSCF Opt Freq KeepDens SMD(water)
| 10> 
| 11> %geom
| 12>   MaxIter 200
| 13> end
| 14> 
| 15> %pal
| 16>   nprocs 4
| 17> end
| 18> 
| 19> %maxcore 2000
| 20> 
| 21> * xyz 0 1
| 22>   O          31.00995778324086    -21.17371121988876      1.81399474176333
| 23>   H          30.67292032061789    -21.24404892106534      0.91359254287829
| 24>   H          31.95826581409872    -21.39959721424432      1.72272116079735
| 25>   O          32.60921575008295    -20.76968597365050     -1.18862768693119
| 26>   H          32.54788594546555    -20.29189046959954     -0.35203480984034
| 27>   H          32.35766470704027    -21.68181795441196     -0.94803612040519
| 28>   O          31.90399526220143    -23.48534909792329     -0.48806797654997
| 29>   H          32.70049298546502    -23.97207532835336     -0.73930563003115
| 30>   H          31.96387679033513    -23.43514708952406      0.47506687553771
| 31>   O          33.80013083399540    -21.83750925946267      1.70428450656267
| 32>   H          34.01844944849743    -21.94081291126866      0.76830983215975
| 33>   H          33.79872435895861    -22.74264456060695      2.03888256405871
| 34> *
| 35> 
| 36>                          ****END OF INPUT****
================================================================================

                       *****************************
                       * Geometry Optimization Run *
                       *****************************

Geometry optimization settings:
Update method            Update   .... BFGS
Choice of coordinates    CoordSys .... (2022) Redundant Internals
Initial Hessian          InHess   .... Almloef's Model
Max. no of cycles        MaxIter  .... 200

Convergence Tolerances:
Energy Change            TolE     ....  5.0000e-06 Eh
Max. Gradient            TolMAXG  ....  3.0000e-04 Eh/bohr
RMS Gradient             TolRMSG  ....  1.0000e-04 Eh/bohr
Max. Displacement        TolMAXD  ....  4.0000e-03 bohr
RMS Displacement         TolRMSD  ....  2.0000e-03 bohr
Strict Convergence                .... False

------------------------------------------------------------------------------
                        ORCA OPTIMIZATION COORDINATE SETUP
------------------------------------------------------------------------------

The optimization will be done in redundant internal coordinates (2022)
Making redundant internal coordinates   ...  (2022 redundants) done
Evaluating the initial hessian          ...  (Almloef) done
Evaluating the coordinates              ...  done
Calculating the B-matrix                .... done
Calculating the G-matrix                .... done
The number of degrees of freedom        ....  409

    -----------------------------------------------------------------
                    Redundant Internal Coordinates


    -----------------------------------------------------------------
         Definition                    Initial Value    Approx d2E/dq
    -----------------------------------------------------------------
      1. B(H   1,O   0)                  0.9640         0.512401   
      2. B(H   2,O   0)                  0.9791         0.484717   
      3. B(H   4,O   3)                  0.9654         0.509801   
      4. B(H   4,H   2)                  2.4247         0.010000   
      5. B(H   4,H   1)                  2.4544         0.010000   
      6. B(H   5,O   3)                  0.9763         0.489749   
      7. B(O   6,H   1)                  2.9161         0.010000   
      8. B(O   6,H   5)                  1.9158         0.015528   
      9. B(O   6,H   2)                  3.0399         0.010000   
     10. B(H   7,H   5)                  2.3252         0.010000   
     11. B(H   7,O   6)                  0.9667         0.507389   
     12. B(H   8,H   1)                  2.5807         0.010000   
     13. B(H   8,O   6)                  0.9663         0.508061   
     14. B(H   8,H   2)                  2.3875         0.010000   
     15. B(H   8,H   5)                  2.2923         0.010000   
     16. B(H   8,O   0)                  2.7959         0.010000   
     17. B(O   9,H   2)                  1.8933         0.016864   
     18. B(O   9,H   8)                  2.7268         0.010000   
     19. B(H  10,H   8)                  2.5574         0.010000   
     20. B(H  10,O   9)                  0.9666         0.507436   
     21. B(H  10,H   5)                  2.4023         0.010000   
     22. B(H  10,H   2)                  2.3341         0.010000   
     23. B(H  10,O   6)                  2.9043         0.010000   
     24. B(H  10,H   7)                  2.8524         0.010000   
     25. B(H  10,H   4)                  2.4772         0.010000   
     26. B(H  11,H   8)                  2.5083         0.010000   
     27. B(H  11,H   2)                  2.3002         0.010000   
     28. B(H  11,O   9)                  0.9650         0.510490   
     29. A(H   1,O   0,H   2)          103.5755         0.317407   
     30. A(H   2,O   0,H   8)           55.8258         0.138798   
     31. A(H   1,O   0,H   8)           67.2296         0.139428   
     32. A(O   6,H   1,H   8)           19.0143         0.095788   
     33. A(O   0,H   1,O   6)          110.9430         0.134630   
     34. A(O   0,H   1,H   4)          100.7341         0.127219   
     35. A(O   0,H   1,H   8)           92.6234         0.123410   
     36. A(H   4,H   1,O   6)           74.2052         0.096540   
     37. A(H   4,H   1,H   8)           81.9294         0.094686   
     38. A(O   6,H   2,H  10)           63.8510         0.096518   
     39. A(O   6,H   2,H   8)           15.2049         0.096191   
     40. A(O   9,H   2,H  11)           24.2033         0.109062   
     41. A(O   0,H   2,H   4)          102.1161         0.127684   
     42. A(H   8,H   2,H  11)           64.6682         0.096589   
     43. A(O   6,H   2,H  11)           73.3593         0.096733   
     44. A(O   9,H   2,H  10)           23.6134         0.108504   
     45. A(O   0,H   2,H  11)          153.7467         0.131903   
     46. A(O   0,H   2,H  10)          161.1707         0.130710   
     47. A(H   4,H   2,H  10)           62.7045         0.096154   
     48. A(O   0,H   2,H   8)          104.3408         0.128900   
     49. A(H   4,H   2,O   9)           81.9966         0.107089   
     50. A(H   8,H   2,H  10)           65.5787         0.096378   
     51. A(H   4,H   2,H   8)           86.6618         0.095843   
     52. A(O   0,H   2,O   6)          102.0520         0.129652   
     53. A(O   6,H   2,O   9)           81.4650         0.108009   
     54. A(H  10,H   2,H  11)           38.2426         0.096934   
     55. A(H   8,H   2,O   9)           78.1954         0.107657   
     56. A(H   4,H   2,H  11)          100.9400         0.096358   
     57. A(H   4,H   2,O   6)           72.2718         0.095972   
     58. A(H   4,O   3,H   5)          103.4431         0.317678   
     59. A(O   3,H   4,H  10)           91.4193         0.126456   
     60. A(H   1,H   4,H   2)           36.4641         0.095473   
     61. A(H   1,H   4,O   3)          107.6620         0.127175   
     62. A(H   2,H   4,O   3)          122.0641         0.128128   
     63. A(H   1,H   4,H  10)           87.8253         0.095196   
     64. A(H   2,H   4,H  10)           56.8581         0.095351   
     65. A(H   7,H   5,H  10)           74.2012         0.096343   
     66. A(O   6,H   5,H  10)           83.7238         0.107088   
     67. A(H   8,H   5,H  10)           65.9675         0.096546   
     68. A(O   3,H   5,H  10)           95.6623         0.128503   
     69. A(O   3,H   5,H   8)          155.7665         0.132289   
     70. A(H   7,H   5,H   8)           38.3891         0.097046   
     71. A(O   3,H   5,H   7)          154.7411         0.131121   
     72. A(O   6,H   5,H   8)           24.5186         0.108821   
     73. A(O   6,H   5,H   7)           23.9462         0.108286   
     74. A(H   1,O   6,H  10)           71.9815         0.098090   
     75. A(H   1,O   6,H   8)           60.4714         0.134542   
     76. A(H   1,O   6,H   7)          149.2913         0.134528   
     77. A(H   8,O   6,H  10)           59.7403         0.134991   
     78. A(H   7,O   6,H  10)           77.3098         0.134977   
     79. A(H   7,O   6,H   8)          103.5415         0.319338   
     80. A(H   5,O   6,H  10)           55.3056         0.109884   
     81. A(H   2,O   6,H   5)           61.6048         0.107658   
     82. A(H   1,O   6,H   5)           59.4564         0.109680   
     83. A(H   5,O   6,H   8)          100.1210         0.193627   
     84. A(H   5,O   6,H   7)          102.5031         0.193595   
     85. A(H   1,O   6,H   2)           29.6126         0.097121   
     86. A(H   2,O   6,H  10)           46.1721         0.097201   
     87. A(H   2,O   6,H   8)           40.3917         0.130088   
     88. A(H   2,O   6,H   7)          121.3176         0.130075   
     89. A(O   6,H   7,H  10)           83.3837         0.116391   
     90. A(H   5,H   7,H  10)           54.1356         0.094051   
     91. A(H   5,H   7,O   6)           53.5507         0.131459   
     92. A(H   1,H   8,H  11)           91.4659         0.094436   
     93. A(H   1,H   8,H   2)           35.5249         0.095011   
     94. A(H   2,H   8,O   6)          124.4034         0.129327   
     95. A(H  10,H   8,H  11)           34.8670         0.094542   
     96. A(H   2,H   8,H  10)           56.2055         0.095128   
     97. A(O   0,H   8,O   9)           62.6105         0.100644   
     98. A(O   0,H   8,H   1)           20.1470         0.096502   
     99. A(O   0,H   8,H  10)           75.3192         0.096649   
    100. A(O   6,H   8,H  10)          101.2115         0.124014   
    101. A(O   0,H   8,H  11)           74.1991         0.096967   
    102. A(O   0,H   8,H   2)           19.8334         0.097809   
    103. A(H   2,H   8,H  11)           55.9812         0.095383   
    104. A(H   1,H   8,O   6)          100.5144         0.123343   
    105. A(O   0,H   8,O   6)          119.8815         0.139331   
    106. A(O   0,H   8,H   5)           74.7662         0.098535   
    107. A(H   5,H   8,O   9)           73.5024         0.099099   
    108. A(H   1,H   8,H   5)           62.7422         0.095506   
    109. A(H   5,H   8,H  10)           59.0850         0.095633   
    110. A(H   5,H   8,H  11)           92.8785         0.095910   
    111. A(H   2,H   8,H   5)           70.8950         0.096640   
    112. A(H   1,H   8,O   9)           76.2790         0.096946   
    113. A(H   5,H   8,O   6)           55.3604         0.132650   
    114. A(O   9,H   8,H  10)           20.7620         0.097101   
    115. A(O   9,H   8,H  11)           20.7052         0.097438   
    116. A(O   6,H   8,H  11)          132.9281         0.125472   
    117. A(H   2,H   8,O   9)           42.8166         0.098330   
    118. A(O   6,H   8,O   9)          121.4324         0.142306   
    119. A(H   1,H   8,H  10)           83.4707         0.094219   
    120. A(H   2,O   9,H  11)          102.2485         0.195714   
    121. A(H   2,O   9,H  10)          104.7064         0.195569   
    122. A(H   2,O   9,H   8)           58.9881         0.113662   
    123. A(H   8,O   9,H  11)           66.7816         0.142364   
    124. A(H   8,O   9,H  10)           69.6949         0.142292   
    125. A(H  10,O   9,H  11)          103.6403         0.319592   
    126. A(H   4,H  10,O   6)           74.1070         0.096471   
    127. A(H   4,H  10,H   8)           81.9619         0.094688   
    128. A(O   6,H  10,H   7)           19.3064         0.094469   
    129. A(H   2,H  10,H   4)           60.4374         0.095848   
    130. A(H   4,H  10,O   9)          103.4562         0.126417   
    131. A(O   6,H  10,H   8)           19.0482         0.095989   
    132. A(H   2,H  10,O   6)           69.9769         0.097415   
    133. A(O   6,H  10,O   9)          108.1360         0.134978   
    134. A(H   7,H  10,H   8)           32.0128         0.093164   
    135. A(H   2,H  10,H   7)           88.4766         0.094013   
    136. A(H   7,H  10,O   9)          118.9164         0.116391   
    137. A(H   2,H  10,H   8)           58.2158         0.095406   
    138. A(H   5,H  10,O   6)           40.9706         0.096951   
    139. A(H   5,H  10,H   7)           51.6632         0.093737   
    140. A(H   8,H  10,O   9)           89.5431         0.124004   
    141. A(H   5,H  10,H   8)           54.9475         0.095053   
    142. A(H   2,H  10,H   5)           69.9372         0.096288   
    143. A(H   5,H  10,O   9)          121.6098         0.128822   
    144. A(H   4,H  10,H   7)           87.7469         0.093451   
    145. A(H   2,H  10,O   9)           51.6802         0.131145   
    146. A(H   4,H  10,H   5)           36.3635         0.095470   
    147. A(H   2,H  11,H   8)           59.3506         0.095864   
    148. A(H   8,H  11,O   9)           92.5132         0.125511   
    149. A(H   2,H  11,O   9)           53.5482         0.132409   
    150. D(H   8,H   1,O   0,H   2)     43.2762         0.403031   
    151. D(O   6,H   1,O   0,H   2)     38.0486         0.403031   
    152. D(H   4,H   1,O   0,H   2)    -39.0023         0.403031   
    153. D(H   4,H   1,O   0,H   8)    -82.2785         0.403031   
    154. D(O   6,H   1,O   0,H   8)     -5.2276         0.403031   
    155. D(H   8,H   2,O   0,H   1)    -49.8188         0.427702   
    156. D(O   6,H   2,O   0,H   8)     15.4430         0.427702   
    157. D(H  10,H   2,O   0,H   1)      5.2583         0.427702   
    158. D(H  11,H   2,O   0,H   1)   -111.1315         0.427702   
    159. D(O   6,H   2,O   0,H   1)    -34.3758         0.427702   
    160. D(H  11,H   2,O   0,H   8)    -61.3127         0.427702   
    161. D(H   4,H   2,O   0,H   1)     39.8037         0.427702   
    162. D(H   4,H   2,O   0,H   8)     89.6225         0.427702   
    163. D(H  10,H   2,O   0,H   8)     55.0770         0.427702   
    164. D(O   3,H   4,H   2,H  11)     67.2735         0.010000   
    165. D(H   1,H   4,O   3,H   5)    -35.2427         0.364433   
    166. D(H   1,H   4,H   2,H  11)    143.0750         0.010000   
    167. D(O   3,H   4,H   2,O   9)     82.4127         0.010000   
    168. D(H   2,H   4,H   1,O   6)    -84.3720         0.010000   
    169. D(H   2,H   4,H   1,H   8)    -66.5952         0.010000   
    170. D(H   2,H   4,O   3,H   5)      1.9620         0.364433   
    171. D(O   3,H   4,H   2,O   6)     -1.1338         0.010000   
    172. D(O   3,H   4,H   2,H   8)      3.8758         0.010000   
    173. D(O   3,H   4,H   2,O   0)   -100.0841         0.010000   
    174. D(H   1,H   4,H   2,O   9)    158.2141         0.010000   
    175. D(H   1,H   4,H   2,O   0)    -24.2826         0.010000   
    176. D(O   3,H   4,H   1,O   0)    144.9952         0.010000   
    177. D(O   3,H   4,H   1,H   8)     53.8394         0.010000   
    178. D(O   3,H   4,H   2,H  10)     68.0308         0.010000   
    179. D(O   3,H   4,H   1,O   6)     36.0626         0.010000   
    180. D(H  10,H   4,O   3,H   5)     52.9265         0.364433   
    181. D(H   2,H   4,H   1,O   0)     24.5607         0.010000   
    182. D(H   8,H   5,O   3,H   4)    -16.7115         0.358683   
    183. D(H   7,H   5,O   3,H   4)   -120.2101         0.358683   
    184. D(H  10,H   5,O   3,H   4)    -55.7433         0.358683   
    185. D(H   7,O   6,H   5,H   8)   -106.4520         0.010000   
    186. D(H   7,O   6,H   2,O   0)   -173.3900         0.010000   
    187. D(H  10,O   6,H   1,H   4)     47.0389         0.010000   
    188. D(H   7,O   6,O   3,H   4)   -120.1412         0.010000   
    189. D(H   8,O   6,H   2,H   4)    160.5864         0.010000   
    190. D(H  10,O   6,H   2,O   0)    166.7412         0.010000   
    191. D(H   7,O   6,H   2,H  11)    -20.0949         0.010000   
    192. D(H   7,O   6,H   2,H   4)     87.5732         0.010000   
    193. D(H  10,O   6,H   1,O   0)    -48.6421         0.010000   
    194. D(H   7,O   6,H   2,H  10)     19.8688         0.010000   
    195. D(H   8,O   6,H   2,O   0)   -100.3768         0.010000   
    196. D(H   8,O   6,H   2,H  11)     52.9183         0.010000   
    197. D(H   1,O   6,O   3,H   4)     33.0692         0.010000   
    198. D(H   2,O   6,H   1,O   0)    -22.9864         0.010000   
    199. D(H   7,O   6,H   2,H   8)    -73.0132         0.010000   
    200. D(H  10,O   6,O   3,H   4)    -55.1618         0.010000   
    201. D(H   7,O   6,H   2,O   9)      3.3028         0.010000   
    202. D(H   8,O   6,O   3,H   4)    -13.7707         0.010000   
    203. D(H   7,O   6,H   1,H   4)     47.1609         0.010000   
    204. D(H   7,O   6,H   1,H   8)    -64.7421         0.010000   
    205. D(H   2,O   6,O   3,H   4)     -0.8968         0.010000   
    206. D(H   8,O   6,H   2,H  10)     92.8820         0.010000   
    207. D(H   8,O   6,H   1,O   0)     16.2219         0.010000   
    208. D(H  10,O   6,H   1,H   8)    -64.8641         0.010000   
    209. D(H   8,O   6,H   1,H   4)    111.9030         0.010000   
    210. D(H   8,O   6,H   2,O   9)     76.3160         0.010000   
    211. D(H   7,O   6,H   1,O   0)    -48.5201         0.010000   
    212. D(H   7,O   6,H   5,H  10)    -64.7106         0.010000   
    213. D(H   1,O   6,H   5,H   8)     46.6353         0.010000   
    214. D(H  10,O   6,H   5,H   8)    -41.7414         0.010000   
    215. D(H  10,O   6,H   5,H   7)     64.7106         0.010000   
    216. D(H   2,O   6,H   5,H   8)     12.5833         0.010000   
    217. D(H   1,O   6,H   5,H  10)     88.3767         0.010000   
    218. D(H   8,O   6,H   5,H  10)     41.7414         0.010000   
    219. D(H   8,O   6,H   5,H   7)    106.4520         0.010000   
    220. D(H   1,O   6,H   5,H   7)    153.0873         0.010000   
    221. D(H   5,H   7,O   6,H   2)    -64.1983         0.453209   
    222. D(H   5,H   7,O   6,H   1)    -49.7612         0.453209   
    223. D(H   5,H   7,O   6,H  10)    -49.6422         0.453209   
    224. D(H  10,H   7,H   5,O   3)     68.9369         0.010000   
    225. D(H  10,H   7,O   6,H   2)    -14.5561         0.453209   
    226. D(H  10,H   7,O   6,H   8)    -54.1588         0.453209   
    227. D(H  10,H   7,H   5,H   8)    -71.0695         0.010000   
    228. D(H  10,H   7,O   6,H   1)     -0.1189         0.453209   
    229. D(H  10,H   7,H   5,O   6)   -110.9285         0.010000   
    230. D(H  10,H   7,O   6,H   5)     49.6422         0.453209   
    231. D(O   6,H   7,H   5,H  10)    110.9285         0.010000   
    232. D(O   6,H   7,H   5,H   8)     39.8590         0.010000   
    233. D(O   6,H   7,H   5,O   3)    179.8654         0.010000   
    234. D(H   5,H   7,O   6,H   8)   -103.8010         0.453209   
    235. D(H  11,H   8,H   5,O   6)    142.5725         0.010000   
    236. D(H   2,H   8,H   5,H   7)    156.1488         0.010000   
    237. D(H  11,H   8,H   5,O   3)    -34.3196         0.010000   
    238. D(O   6,H   8,H   5,H  10)   -133.5652         0.010000   
    239. D(O   6,H   8,H   5,H   7)    -38.8167         0.010000   
    240. D(H   2,H   8,H   5,H  10)     61.4004         0.010000   
    241. D(H  10,H   8,H   2,O   0)    163.1042         0.010000   
    242. D(O   6,H   8,O   0,H   2)   -109.1203         0.010000   
    243. D(H  11,H   8,H   2,H  10)     42.3206         0.010000   
    244. D(H  11,H   8,H   2,O   9)     21.2514         0.010000   
    245. D(H   1,H   8,O   0,H   2)   -126.3477         0.010000   
    246. D(O   6,H   8,H   2,H  11)   -122.2550         0.010000   
    247. D(H   5,H   8,O   0,H   2)    -75.8318         0.010000   
    248. D(H  10,H   8,H   1,O   0)    -64.6184         0.010000   
    249. D(H  11,H   8,H   1,H   4)     69.8572         0.010000   
    250. D(H   2,H   8,H   1,H   4)     72.4215         0.010000   
    251. D(H   2,H   8,H   1,O   6)    136.8060         0.010000   
    252. D(H   2,H   8,H   1,O   0)    -28.0541         0.010000   
    253. D(H  11,H   8,H   1,O   6)    134.2418         0.010000   
    254. D(O   6,H   8,H   1,H   4)    -64.3845         0.010000   
    255. D(O   6,H   8,H   1,O   0)   -164.8601         0.010000   
    256. D(H  11,H   8,H   1,O   0)    -30.6183         0.010000   
    257. D(O   6,H   8,H   2,O   9)   -101.0036         0.010000   
    258. D(H   5,H   8,O   0,H   1)     50.5159         0.010000   
    259. D(O   6,H   8,H   2,H   4)    -18.4900         0.010000   
    260. D(H  10,H   8,O   0,H   2)    -14.4585         0.010000   
    261. D(O   6,H   8,H   2,H  10)    -79.9344         0.010000   
    262. D(O   6,H   8,H   2,O   0)     83.1698         0.010000   
    263. D(H  10,H   8,O   0,H   1)    111.8892         0.010000   
    264. D(H  11,H   8,O   0,H   2)     21.7047         0.010000   
    265. D(H  10,H   8,H   2,H  11)    -42.3206         0.010000   
    266. D(H  11,H   8,O   0,H   1)    148.0523         0.010000   
    267. D(H   2,H   8,O   0,H   1)    126.3477         0.010000   
    268. D(H  11,H   8,H   2,O   6)    122.2550         0.010000   
    269. D(H  11,H   8,H   2,O   0)   -154.5753         0.010000   
    270. D(H   2,H   8,H   5,O   3)     18.0735         0.010000   
    271. D(H   2,H   8,H   5,O   6)   -165.0344         0.010000   
    272. D(H  10,H   8,H   2,O   9)    -21.0692         0.010000   
    273. D(O   6,H   8,O   0,H   1)     17.2274         0.010000   
    274. D(O   6,H   8,H   5,O   3)   -176.8921         0.010000   
    275. D(H  10,H   8,H   1,O   6)    100.2417         0.010000   
    276. D(H  11,H   8,H   2,H   4)    103.7650         0.010000   
    277. D(H  10,H   8,O   6,H   5)    -39.3268         0.584574   
    278. D(H  10,H   8,O   6,H   2)    -56.5291         0.584574   
    279. D(H  10,H   8,O   6,H   1)    -85.3474         0.584574   
    280. D(H  11,H   8,O   6,H   5)    -55.9947         0.584574   
    281. D(H  11,H   8,O   6,H   2)    -73.1970         0.584574   
    282. D(H  11,H   8,O   6,H   1)   -102.0153         0.584574   
    283. D(H  11,H   8,O   6,H  10)    -16.6679         0.584574   
    284. D(H  11,H   8,O   6,H   7)     49.6217         0.584574   
    285. D(H   2,H   8,O   6,H   5)     17.2023         0.584574   
    286. D(H   2,H   8,O   6,H   1)    -28.8183         0.584574   
    287. D(H  10,H   8,O   6,H   7)     66.2896         0.584574   
    288. D(H   2,H   8,O   6,H  10)     56.5291         0.584574   
    289. D(H   2,H   8,O   6,H   7)    122.8187         0.584574   
    290. D(H  11,H   8,H   5,H  10)      9.0072         0.010000   
    291. D(H  11,H   8,H   5,H   7)    103.7557         0.010000   
    292. D(H   2,O   9,H   8,O   6)    108.3410         0.010000   
    293. D(H  11,O   9,H   8,H   5)   -158.7028         0.010000   
    294. D(H  11,O   9,H   8,H   1)    136.0925         0.010000   
    295. D(H  11,O   9,H   8,H  10)   -115.6161         0.010000   
    296. D(H  11,O   9,H   8,H   2)    121.8184         0.010000   
    297. D(H  11,O   9,H   8,O   6)   -129.8406         0.010000   
    298. D(H  10,O   9,H   8,H   1)   -108.2914         0.010000   
    299. D(H  10,O   9,H   8,H  11)    115.6161         0.010000   
    300. D(H  10,O   9,H   8,H   2)   -122.5655         0.010000   
    301. D(H  10,O   9,H   8,O   6)    -14.2245         0.010000   
    302. D(H   8,O   9,H   2,H  10)    -54.8031         0.010000   
    303. D(H   8,O   9,H   2,H  11)     53.0436         0.010000   
    304. D(H  11,O   9,H   2,H   4)   -141.2850         0.010000   
    305. D(H  11,O   9,H   2,O   6)    -68.1334         0.010000   
    306. D(H  11,O   9,H   2,H   8)    -53.0436         0.010000   
    307. D(H  10,O   9,H   8,H   5)    -43.0867         0.010000   
    308. D(H  11,O   9,H   2,H  10)   -107.8467         0.010000   
    309. D(H  10,O   9,H   2,H   4)    -33.4383         0.010000   
    310. D(H  10,O   9,H   2,O   6)     39.7133         0.010000   
    311. D(H  10,O   9,H   2,H   8)     54.8031         0.010000   
    312. D(H  10,O   9,H   2,H  11)    107.8467         0.010000   
    313. D(H  11,O   9,O   0,H   1)   -102.1108         0.010000   
    314. D(H  10,O   9,O   0,H   1)      6.0371         0.010000   
    315. D(O   6,H  10,O   9,H   2)    -44.1022         0.508067   
    316. D(O   6,H  10,O   9,H  11)     62.7196         0.508067   
    317. D(H   7,H  10,O   9,H   8)    -13.3104         0.508067   
    318. D(H   7,H  10,O   9,H  11)     45.1996         0.508067   
    319. D(H   8,H  10,O   9,H   2)    -48.3118         0.508067   
    320. D(H   8,H  10,O   9,H  11)     58.5100         0.508067   
    321. D(H   2,H  10,O   9,H  11)    106.8218         0.508067   
    322. D(H   7,H  10,H   8,O   6)    -34.6850         0.010000   
    323. D(H   2,H  10,H   8,H   5)     86.6602         0.010000   
    324. D(H   2,H  10,H   8,O   0)      5.8506         0.010000   
    325. D(H   2,H  10,H   8,O   9)    -43.5710         0.010000   
    326. D(H   2,H  10,H   8,H   1)     24.6155         0.010000   
    327. D(H   2,H  10,H   8,H  11)    -77.4662         0.010000   
    328. D(O   9,H  10,H   8,H   5)    130.2312         0.010000   
    329. D(O   9,H  10,H   8,O   0)     49.4217         0.010000   
    330. D(O   9,H  10,H   8,H   1)     68.1865         0.010000   
    331. D(O   9,H  10,H   8,H   2)     43.5710         0.010000   
    332. D(O   9,H  10,H   8,O   6)    167.6582         0.010000   
    333. D(H   5,H  10,H   7,O   6)    -49.1437         0.010000   
    334. D(H   8,H  10,H   7,H   5)     83.3197         0.010000   
    335. D(H   8,H  10,H   7,O   6)     34.1760         0.010000   
    336. D(H   2,H  10,H   7,H   5)     65.3876         0.010000   
    337. D(H   2,H  10,H   7,O   6)     16.2440         0.010000   
    338. D(O   9,H  10,H   7,H   5)    109.0595         0.010000   
    339. D(O   9,H  10,H   7,O   6)     59.9158         0.010000   
    340. D(H   8,H  10,O   6,H   2)     48.5280         0.010000   
    341. D(H   8,H  10,O   6,H   7)   -114.1574         0.010000   
    342. D(H   2,H  10,O   6,H   5)     82.1139         0.010000   
    343. D(H   2,H  10,O   6,H   1)     17.2508         0.010000   
    344. D(H   2,H  10,O   6,H   7)   -162.6854         0.010000   
    345. D(O   9,H  10,O   6,H   5)    117.6444         0.010000   
    346. D(O   9,H  10,O   6,H   2)     35.5305         0.010000   
    347. D(O   9,H  10,O   6,H   1)     52.7812         0.010000   
    348. D(O   9,H  10,O   6,H   8)    -12.9975         0.010000   
    349. D(O   9,H  10,O   6,H   7)   -127.1549         0.010000   
    350. D(H   8,H  10,H   5,O   6)    -17.6084         0.010000   
    351. D(H   2,H  10,O   6,H   8)    -48.5280         0.010000   
    352. D(H   8,H  10,H   5,O   3)    163.5595         0.010000   
    353. D(H   2,H  10,H   5,H   7)   -104.6389         0.010000   
    354. D(H   2,H  10,H   5,H   8)    -64.6108         0.010000   
    355. D(H   8,H  10,O   6,H   1)     65.7788         0.010000   
    356. D(H   2,H  10,H   5,O   6)    -82.2192         0.010000   
    357. D(H   2,H  10,H   5,O   3)     98.9488         0.010000   
    358. D(O   9,H  10,H   5,H   7)   -103.7189         0.010000   
    359. D(O   9,H  10,H   5,H   8)    -63.6908         0.010000   
    360. D(O   9,H  10,H   5,O   6)    -81.2992         0.010000   
    361. D(O   9,H  10,H   5,O   3)     99.8688         0.010000   
    362. D(H   7,H  10,H   4,O   3)    -38.6459         0.010000   
    363. D(O   6,H  10,H   7,H   5)     49.1437         0.010000   
    364. D(H   8,H  10,H   4,H   1)     37.3478         0.010000   
    365. D(H   8,H  10,H   4,H   2)     57.8957         0.010000   
    366. D(H   8,H  10,H   4,O   3)    -70.2763         0.010000   
    367. D(O   9,H  10,H   8,H  11)    -33.8952         0.010000   
    368. D(H   2,H  10,H   4,H   1)    -20.5479         0.010000   
    369. D(H   2,H  10,H   4,O   3)   -128.1721         0.010000   
    370. D(O   9,H  10,H   4,H   1)    -50.2410         0.010000   
    371. D(H   2,H  10,H   8,O   6)    124.0872         0.010000   
    372. D(O   9,H  10,H   4,H   2)    -29.6931         0.010000   
    373. D(O   9,H  10,H   4,O   3)   -157.8652         0.010000   
    374. D(H   7,H  10,H   2,O   9)    129.6090         0.010000   
    375. D(H   7,H  10,H   2,O   0)    -49.6722         0.010000   
    376. D(H   8,H  10,H   2,H   4)    -99.3435         0.010000   
    377. D(H   8,H  10,H   2,O   6)    -16.7190         0.010000   
    378. D(H   8,H  10,H   2,H  11)     79.4553         0.010000   
    379. D(H   2,H  10,O   9,H   8)     48.3118         0.508067   
    380. D(H   8,H  10,H   2,O   9)    118.5390         0.010000   
    381. D(H   8,H  10,H   2,O   0)    -60.7422         0.010000   
    382. D(O   9,H  10,H   2,H   4)    142.1175         0.010000   
    383. D(H   7,H  10,O   9,H   2)    -61.6222         0.508067   
    384. D(O   9,H  10,H   2,O   6)   -135.2580         0.010000   
    385. D(O   9,H  10,H   2,H   8)   -118.5390         0.010000   
    386. D(O   9,H  10,H   2,H  11)    -39.0837         0.010000   
    387. D(O   6,H  10,O   9,H   8)      4.2095         0.508067   
    388. D(O   9,H  10,H   2,O   0)   -179.2812         0.010000   
    389. D(H   2,H  11,H   8,O   6)    107.6465         0.010000   
    390. D(O   9,H  11,H   8,H   5)     20.4074         0.010000   
    391. D(O   9,H  11,H   8,O   0)    -52.8752         0.010000   
    392. D(O   9,H  11,H   8,H  10)     33.9963         0.010000   
    393. D(O   9,H  11,H   8,H   2)    -44.1681         0.010000   
    394. D(O   9,H  11,H   8,O   6)     63.4784         0.010000   
    395. D(H   8,H  11,H   2,H  10)    -82.0476         0.010000   
    396. D(H   8,H  11,H   2,O   9)   -120.0709         0.010000   
    397. D(H   8,H  11,H   2,O   0)     70.1078         0.010000   
    398. D(O   9,H  11,H   2,H   4)     39.1105         0.010000   
    399. D(O   9,H  11,H   8,H   1)    -42.3707         0.010000   
    400. D(O   9,H  11,H   2,O   6)    106.6859         0.010000   
    401. D(O   9,H  11,H   2,H   8)    120.0709         0.010000   
    402. D(O   9,H  11,H   2,H  10)     38.0233         0.010000   
    403. D(H   2,H  11,H   8,H  10)     78.1644         0.010000   
    404. D(O   9,H  11,H   2,O   0)   -169.8214         0.010000   
    405. D(H   8,H  11,O   9,H   2)     48.1787         0.399157   
    406. D(H   8,H  11,O   9,H  10)    -60.4843         0.399157   
    407. D(H   2,H  11,O   9,H   8)    -48.1787         0.399157   
    408. D(H   2,H  11,O   9,H  10)   -108.6630         0.399157   
    409. D(H   2,H  11,H   8,H   1)      1.7973         0.010000   
    -----------------------------------------------------------------

Number of atoms                         .... 12
Number of degrees of freedom            .... 409


         *************************************************************
         *                GEOMETRY OPTIMIZATION CYCLE   1            *
         *************************************************************
---------------------------------
CARTESIAN COORDINATES (ANGSTROEM)
---------------------------------
  O     31.009958  -21.173711    1.813995
  H     30.672920  -21.244049    0.913593
  H     31.958266  -21.399597    1.722721
  O     32.609216  -20.769686   -1.188628
  H     32.547886  -20.291890   -0.352035
  H     32.357665  -21.681818   -0.948036
  O     31.903995  -23.485349   -0.488068
  H     32.700493  -23.972075   -0.739306
  H     31.963877  -23.435147    0.475067
  O     33.800131  -21.837509    1.704285
  H     34.018449  -21.940813    0.768310
  H     33.798724  -22.742645    2.038883

----------------------------
CARTESIAN COORDINATES (A.U.)
----------------------------
  NO LB      ZA    FRAG     MASS         X           Y           Z
   0 O     8.0000    0    15.999   58.600328  -40.012515    3.427953
   1 H     1.0000    0     1.008   57.963419  -40.145434    1.726440
   2 H     1.0000    0     1.008   60.392370  -40.439378    3.255471
   3 O     8.0000    0    15.999   61.622487  -39.249018   -2.246181
   4 H     1.0000    0     1.008   61.506591  -38.346116   -0.665249
   5 H     1.0000    0     1.008   61.147125  -40.972698   -1.791529
   6 O     8.0000    0    15.999   60.289814  -44.380878   -0.922315
   7 H     1.0000    0     1.008   61.794976  -45.300657   -1.397085
   8 H     1.0000    0     1.008   60.402973  -44.286010    0.897746
   9 O     8.0000    0    15.999   63.872991  -41.266912    3.220631
  10 H     1.0000    0     1.008   64.285553  -41.462128    1.451895
  11 H     1.0000    0     1.008   63.870333  -42.977370    3.852930

--------------------------------
INTERNAL COORDINATES (ANGSTROEM)
--------------------------------
 O      0   0   0     0.000000000000     0.00000000     0.00000000
 H      1   0   0     0.963984316872     0.00000000     0.00000000
 H      1   2   0     0.979103401290   103.57548659     0.00000000
 O      2   1   3     2.897169323783   115.60304371   332.64961523
 H      4   2   1     0.965369116258    53.82593166   321.31978936
 H      4   2   1     0.976292466153    59.73550043   100.79377864
 O      6   4   2     1.915753440335   178.68612413   209.53626079
 H      7   6   4     0.966659922144   102.50308277   357.49477616
 H      7   6   4     0.966299530355   100.12095803   103.94676905
 O      3   1   2     1.893297024000   175.20891605   188.70743476
 H     10   3   1     0.966635015421   104.70641700   177.22145026
 H     10   3   1     0.965001425714   102.24853521    69.37473701

---------------------------
INTERNAL COORDINATES (A.U.)
---------------------------
 O      0   0   0     0.000000000000     0.00000000     0.00000000
 H      1   0   0     1.821666356283     0.00000000     0.00000000
 H      1   2   0     1.850237285229   103.57548659     0.00000000
 O      2   1   3     5.474856585547   115.60304371   332.64961523
 H      4   2   1     1.824283247873    53.82593166   321.31978936
 H      4   2   1     1.844925387640    59.73550043   100.79377864
 O      6   4   2     3.620249342352   178.68612413   209.53626079
 H      7   6   4     1.826722517490   102.50308277   357.49477616
 H      7   6   4     1.826041475708   100.12095803   103.94676905
 O      3   1   2     3.577812865527   175.20891605   188.70743476
 H     10   3   1     1.826675450605   104.70641700   177.22145026
 H     10   3   1     1.823588413443   102.24853521    69.37473701

---------------------
BASIS SET INFORMATION
---------------------
There are 2 groups of distinct atoms

 Group   1 Type O   : 11s6p2d contracted to 5s3p2d pattern {62111/411/11}
 Group   2 Type H   : 4s1p contracted to 2s1p pattern {31/1}

Atom   0O    basis set group =>   1
Atom   1H    basis set group =>   2
Atom   2H    basis set group =>   2
Atom   3O    basis set group =>   1
Atom   4H    basis set group =>   2
Atom   5H    basis set group =>   2
Atom   6O    basis set group =>   1
Atom   7H    basis set group =>   2
Atom   8H    basis set group =>   2
Atom   9O    basis set group =>   1
Atom  10H    basis set group =>   2
Atom  11H    basis set group =>   2
---------------------------------
AUXILIARY/J BASIS SET INFORMATION
---------------------------------
There are 2 groups of distinct atoms

 Group   1 Type O   : 8s3p3d contracted to 6s3p3d pattern {311111/111/111}
 Group   2 Type H   : 5s2p1d contracted to 3s1p1d pattern {311/2/1}

Atom   0O    basis set group =>   1
Atom   1H    basis set group =>   2
Atom   2H    basis set group =>   2
Atom   3O    basis set group =>   1
Atom   4H    basis set group =>   2
Atom   5H    basis set group =>   2
Atom   6O    basis set group =>   1
Atom   7H    basis set group =>   2
Atom   8H    basis set group =>   2
Atom   9O    basis set group =>   1
Atom  10H    basis set group =>   2
Atom  11H    basis set group =>   2


           ************************************************************
           *        Program running with 4 parallel MPI-processes     *
           *              working on a common directory               *
           ************************************************************
------------------------------------------------------------------------------
                             ORCA STARTUP CALCULATIONS
                           -- RI-GTO INTEGRALS CHOSEN --
------------------------------------------------------------------------------
------------------------------------------------------------------------------
                   ___                                                        
                  /   \      - P O W E R E D   B Y -                         
                 /     \                                                     
                 |  |  |   _    _      __       _____    __    __             
                 |  |  |  | |  | |    /  \     |  _  \  |  |  /  |          
                  \  \/   | |  | |   /    \    | | | |  |  | /  /          
                 / \  \   | |__| |  /  /\  \   | |_| |  |  |/  /          
                |  |  |   |  __  | /  /__\  \  |    /   |      \           
                |  |  |   | |  | | |   __   |  |    \   |  |\   \          
                \     /   | |  | | |  |  |  |  | |\  \  |  | \   \       
                 \___/    |_|  |_| |__|  |__|  |_| \__\ |__|  \__/        
                                                                              
                      - O R C A' S   B I G   F R I E N D -                    
                                      &                                       
                       - I N T E G R A L  F E E D E R -                       
                                                                              
 v1 FN, 2020, v2 2021, v3 2022-2024                                           
------------------------------------------------------------------------------


----------------------
SHARK INTEGRAL PACKAGE
----------------------

Number of atoms                             ...     12
Number of basis functions                   ...    136
Number of shells                            ...     64
Maximum angular momentum                    ...      2
Integral batch strategy                     ... SHARK/LIBINT Hybrid
RI-J (if used) integral strategy            ... SPLIT-RIJ (Revised 2003 algorithm where possible)
Printlevel                                  ...      1
Contraction scheme used                     ... SEGMENTED contraction
Prescreening option                         ... SCHWARTZ
   Thresh                                   ... 2.500e-11
   Tcut                                     ... 2.500e-12
   Tpresel                                  ... 2.500e-12 
Coulomb Range Separation                    ... NOT USED
Exchange Range Separation                   ... NOT USED
Multipole approximations                    ... NOT USED
Finite Nucleus Model                        ... NOT USED
CABS basis                                  ... NOT available
Auxiliary Coulomb fitting basis             ... AVAILABLE
   # of basis functions in Aux-J            ...    208
   # of shells in Aux-J                     ...     88
   Maximum angular momentum in Aux-J        ...      2
Auxiliary J/K fitting basis                 ... NOT available
Auxiliary Correlation fitting basis         ... NOT available
Auxiliary 'external' fitting basis          ... NOT available

Checking pre-screening integrals            ... done (  0.0 sec) Dimension = 64
   => SHARK Basis and OBASIS are compatible. Storing Pre-screening
Shell pair information
Shell pair cut-off parameter TPreSel        ...   2.5e-12
Total number of shell pairs                 ...      2080
Shell pairs after pre-screening             ...      1945
Total number of primitive shell pairs       ...      6898
Primitive shell pairs kept                  ...      4755
          la=0 lb=0:    613 shell pairs
          la=1 lb=0:    664 shell pairs
          la=1 lb=1:    205 shell pairs
          la=2 lb=0:    268 shell pairs
          la=2 lb=1:    159 shell pairs
          la=2 lb=2:     36 shell pairs

Checking whether 4 symmetric matrices of dimension 136 fit in memory
:Max Core in MB      =   2000.00
 MB in use           =      3.20
 MB left             =   1996.80
 MB needed           =      0.28
 Data fit in memory  = YES
Calculating RI/J V-Matrix + Cholesky decomp.... done (  0.0 sec)
Calculating Nuclear repulsion               ... done (  0.0 sec) ENN=    139.184162025217 Eh

Diagonalization of the overlap matrix:
Smallest eigenvalue                        ... 7.894e-04
Time for diagonalization                   ...    0.002 sec
Threshold for overlap eigenvalues          ... 1.000e-07
Number of eigenvalues below threshold      ... 0
Time for construction of square roots      ...    0.002 sec
Total time needed                          ...    0.005 sec

-------------------
DFT GRID GENERATION
-------------------

General Integration Accuracy     IntAcc      ... 4.388
Radial Grid Type                 RadialGrid  ... OptM3 with GC (2021)
Angular Grid (max. ang.)         AngularGrid ... 4 (Lebedev-302)
Angular grid pruning method      GridPruning ... 4 (adaptive)
Weight generation scheme         WeightScheme... mBecke (2022)
Basis function cutoff            BFCut       ... 1.0000e-11
Integration weight cutoff        WCut        ... 1.0000e-14
Partially contracted basis set               ... off
Rotationally invariant grid construction     ... off
Angular grids for H and He will be reduced by one unit
Diffuse basis detected: some atoms will have their outermost
                        angular grid increased by 1.

Total number of grid points                  ...    51725
Total number of batches                      ...      816
Average number of points per batch           ...       63
Average number of grid points per atom       ...     4310
Grids setup in   0.3 sec
Initializing property integral containers    ... done (  0.0 sec)

SHARK setup successfully completed in   0.4 seconds

Maximum memory used throughout the entire STARTUP-calculation: 13.5 MB


           ************************************************************
           *        Program running with 4 parallel MPI-processes     *
           *              working on a common directory               *
           ************************************************************
-------------------------------------------------------------------------------
                                 ORCA GUESS
                   Start orbitals & Density for SCF / CASSCF
-------------------------------------------------------------------------------

------------
SCF SETTINGS
------------
Hamiltonian:
 Density Functional     Method          .... DFT(GTOs)
  Functional kind                       .... Exchange
  Functional name                       .... Re-regularized SCAN exchange by Furness et al
  Functional family                     .... MGGA
  Functional refs                              
    [ 0] J. W. Furness, A. D. Kaplan, J. Ning, J. P. Perdew, and J. Sun.,  J. Phys. Chem. Lett. 11, 8208-8215 (2020), doi: 10.1021/acs.jpclett.0c02405
    [ 1] J. W. Furness, A. D. Kaplan, J. Ning, J. P. Perdew, and J. Sun.,  J. Phys. Chem. Lett. 11, 9248-9248 (2020), doi: 10.1021/acs.jpclett.0c03077
  Functional external parameters        .... 6
    Parameter  0 _c1        =  6.670000e-01 : c1 parameter        
    Parameter  1 _c2        =  8.000000e-01 : c2 parameter        
    Parameter  2 _d         =  1.240000e+00 : d parameter         
    Parameter  3 _k1        =  6.500000e-02 : k1 parameter        
    Parameter  4 _eta       =  1.000000e-03 : eta parameter       
    Parameter  5 _dp2       =  3.610000e-01 : dp2 parameter       
  Functional kind                       .... Correlation
  Functional name                       .... Re-regularized SCAN correlation by Furness et al
  Functional family                     .... MGGA
  Functional refs                              
    [ 0] J. W. Furness, A. D. Kaplan, J. Ning, J. P. Perdew, and J. Sun.,  J. Phys. Chem. Lett. 11, 8208-8215 (2020), doi: 10.1021/acs.jpclett.0c02405
    [ 1] J. W. Furness, A. D. Kaplan, J. Ning, J. P. Perdew, and J. Sun.,  J. Phys. Chem. Lett. 11, 9248-9248 (2020), doi: 10.1021/acs.jpclett.0c03077
  Functional external parameters        .... 1
    Parameter  0 _eta       =  1.000000e-03 : Regularization parameter
 Gradients option       PostSCFGGA      .... off
 RI-approximation to the Coulomb term is turned on
   Number of AuxJ basis functions       .... 208


General Settings:
 Integral files         IntName         .... Explicit4H2O_SMD_water_Opt_KeepDens_restart
 Hartree-Fock type      HFTyp           .... RHF
 Total Charge           Charge          ....    0
 Multiplicity           Mult            ....    1
 Number of Electrons    NEL             ....   40
 Basis Dimension        Dim             ....  136
 Nuclear Repulsion      ENuc            ....    139.1841620252 Eh

Convergence Acceleration:
 AO-DIIS                CNVDIIS         .... on
   Start iteration      DIISMaxIt       ....    12
   Startup error        DIISStart       ....  0.200000
   # of expansion vecs  DIISMaxEq       ....     5
   Bias factor          DIISBfac        ....   1.050
   Max. coefficient     DIISMaxC        ....  10.000
 MO-DIIS                CNVKDIIS        .... off
 Trust-Rad. Augm. Hess. CNVTRAH         .... auto
   Auto Start mean grad. ratio tolernc. ....  1.125000
   Auto Start start iteration           ....    50
   Auto Start num. interpolation iter.  ....    10
   Max. Number of Micro iterations      ....    24
   Max. Number of Macro iterations      .... Maxiter - #DIIS iter
   Number of Davidson start vectors     ....     2
   Converg. threshold    (grad. norm)   ....   1.000e-05
   Grad. Scal. Fac. for Micro threshold ....   0.100
   Minimum threshold for Micro iter.    ....   1.000e-02
   NR start threshold (gradient norm)   ....   1.000e-04
   Initial trust radius                 ....   0.400
   Minimum AH scaling param. (alpha)    ....   1.000
   Maximum AH scaling param. (alpha)    .... 1000.000
   Quad. conv. algorithm                .... NR
   White noise on init. David. guess    .... on
   Maximum white noise                  ....   0.010
   Pseudo random numbers                .... off
   Inactive MOs                         .... canonical
   Orbital update algorithm             .... Taylor
   Preconditioner                       .... Diag
   Full preconditioner red. dimension   ....   250
   COSX micro iterations for RIJONX calc.... off
 SOSCF                 CNVSOSCF           .... on
   Start iteration     SOSCFMaxIt         ....   150
   Startup grad/error  SOSCFStart         ....  0.003300
   Hessian update      SOSCFHessUp        .... L-BFGS
   Autom. constraints  SOSCFAutoConstrain .... off
 Level Shifting         CNVShift        .... on
   Level shift para.    LevelShift      ....    0.2500
   Turn off err/grad.   ShiftErr        ....    0.0010
 Zerner damping         CNVZerner       .... off
 Static damping         CNVDamp         .... on
   Fraction old density DampFac         ....    0.7000
   Max. Damping (<1)    DampMax         ....    0.9800
   Min. Damping (>=0)   DampMin         ....    0.0000
   Turn off err/grad.   DampErr         ....    0.1000

SCF Procedure:
 Maximum # iterations   MaxIter         ....   125
 SCF integral mode      SCFMode         .... Direct
   Integral package                     .... SHARK and LIBINT hybrid scheme
 Reset frequency        DirectResetFreq ....    20
 Integral Threshold     Thresh          ....  2.500e-11 Eh
 Primitive CutOff       TCut            ....  2.500e-12 Eh

Convergence Tolerance:
 Convergence Check Mode ConvCheckMode   .... Total+1el-Energy
 Convergence forced     ConvForced      .... 0
 Energy Change          TolE            ....  1.000e-08 Eh
 1-El. energy change                    ....  1.000e-05 Eh
 Orbital Gradient       TolG            ....  1.000e-05
 Orbital Rotation angle TolX            ....  1.000e-05
 DIIS Error             TolErr          ....  5.000e-07

------------------------------
INITIAL GUESS: MODEL POTENTIAL
------------------------------
Loading Hartree-Fock densities                     ... done
Calculating cut-offs                               ... done
Initializing the effective Hamiltonian             ... done
Setting up the integral package (SHARK)            ... done
Starting the Coulomb interaction                   ... done (   0.0 sec)
Making the grid                                    ... done (   0.1 sec)
Mapping shells                                     ... done
Starting the XC term evaluation                    ... done (   0.1 sec)
  promolecular density results
     # of electrons  =     39.997991125
     EX              =    -34.936687993
     EC              =     -1.286730258
     EX+EC           =    -36.223418251
Transforming the Hamiltonian                       ... done (   0.0 sec)
Diagonalizing the Hamiltonian                      ... done (   0.0 sec)
Back transforming the eigenvectors                 ... done (   0.0 sec)
Now organizing SCF variables                       ... done
                      ------------------
                      INITIAL GUESS DONE (   0.3 sec)
                      ------------------
             **** ENERGY FILE WAS UPDATED (Explicit4H2O_SMD_water_Opt_KeepDens_restart.en.tmp) ****
Finished Guess after   0.3 sec
Maximum memory used throughout the entire GUESS-calculation: 5.9 MB


           ************************************************************
           *        Program running with 4 parallel MPI-processes     *
           *              working on a common directory               *
           ************************************************************

-------------------------------------------------------------------------------------------
                                      ORCA LEAN-SCF
                              memory conserving SCF solver
-------------------------------------------------------------------------------------------

--------------------
CPCM SOLVATION MODEL
--------------------
CPCM parameters:
  Epsilon                                         ...      78.3550
  Refrac                                          ...       1.3328
  Rsolv                                           ...       1.3000
  Surface type                                    ... GAUSSIAN VDW
  Discretization scheme                           ... Constant charge density
    Threshold for H atoms                         ...       5.0000 (charges/Ang^2)
    Threshold for non-H atoms                     ...       5.0000 (charges/Ang^2)
  Epsilon function type                           ...         CPCM
Solvent:                                          ... WATER
SMD-CDS solvent descriptors:
  Soln                                            ...       1.3328
  Soln25                                          ...       1.3323
  Sola                                            ...       0.0000
  Solb                                            ...       0.0000
  Solg                                            ...       0.0000
  Solc                                            ...       0.0000
  Solh                                            ...       0.0000
Radii:
  Scheme                                          ... Element-dependent radii
  Radius for O  used is    2.8724 Bohr (=   1.5200 Ang.)
  Radius for H  used is    2.2677 Bohr (=   1.2000 Ang.)
Calculating surface                               ...        done! (  0.0s)
Cavity surface points                             ...          951
Cavity Volume                                     ...     496.4245
Cavity Surface-area                               ...     466.6024
Calculating surface distance matrix               ...        done! (  0.0s)
Performing Cholesky decomposition & store         ...        done! (  0.0s)
Overall time for CPCM initialization              ...                 0.0s

----------------------------------------D-I-I-S--------------------------------------------
Iteration    Energy (Eh)           Delta-E    RMSDP     MaxDP     DIISErr   Damp  Time(sec)
-------------------------------------------------------------------------------------------
               ***  Starting incremental Fock matrix formation  ***
    1    -305.4510315437777308     0.00e+00  6.48e-03  5.92e-02  3.20e-01  0.700   0.7
    2    -305.6041434428747152    -1.53e-01  3.92e-03  3.68e-02  1.28e-01  0.700   0.8
                               ***Turning on AO-DIIS***
    3    -305.6506388070662297    -4.65e-02  1.19e-03  9.52e-03  2.34e-02  0.700   0.9
    4    -305.6809729055465255    -3.03e-02  1.68e-03  1.80e-02  1.27e-02  0.000   0.8
    5    -305.7530964258901349    -7.21e-02  6.63e-04  3.86e-03  1.17e-02  0.000   0.8
                              *** Initializing SOSCF ***
---------------------------------------S-O-S-C-F--------------------------------------
Iteration    Energy (Eh)           Delta-E    RMSDP     MaxDP     MaxGrad    Time(sec)
--------------------------------------------------------------------------------------
    6    -305.7535532384757744    -4.57e-04  2.44e-04  1.55e-03  2.61e-03     0.9
               *** Restarting incremental Fock matrix formation ***
    7    -305.7535815906826997    -2.84e-05  1.57e-04  9.98e-04  4.10e-04     0.9
    8    -305.7535816571448777    -6.65e-08  4.24e-05  4.01e-04  3.36e-04     1.1
    9    -305.7535851897162047    -3.53e-06  1.57e-05  1.31e-04  3.34e-05     1.3
   10    -305.7535852234930189    -3.38e-08  2.53e-06  3.11e-05  1.11e-05     0.9
   11    -305.7535852229185025     5.75e-10  2.58e-06  1.78e-05  1.46e-05     0.7
                 **** Energy Check signals convergence ****

               *****************************************************
               *                     SUCCESS                       *
               *           SCF CONVERGED AFTER  11 CYCLES          *
               *****************************************************


SMD CDS free energy correction energy :                 3.28618     Kcal/mol
Total Energy after SMD CDS correction =              -305.748348368 Eh
             **** ENERGY FILE WAS UPDATED (Explicit4H2O_SMD_water_Opt_KeepDens_restart.en.tmp) ****

----------------
TOTAL SCF ENERGY
----------------

Total Energy       :       -305.74834836783901 Eh           -8319.83553 eV

Components:
Nuclear Repulsion  :        139.18416202521701 Eh            3787.39360 eV
Electronic Energy  :       -444.87417714784561 Eh          -12105.64180 eV
One Electron Energy:       -696.33859441600509 Eh          -18948.33647 eV
Two Electron Energy:        251.46441726815948 Eh            6842.69467 eV
CPCM Dielectric    :         -0.06357010332858 Eh              -1.72983 eV
SMD CDS (Gcds)     :          0.00523685811819 Eh               0.14250 eV

Virial components:
Potential Energy   :       -610.21488646302976 Eh          -16604.79123 eV
Kinetic Energy     :        304.46653809519074 Eh            8284.95570 eV
Virial Ratio       :          2.00421002019029

DFT components:
N(Alpha)           :       20.000020643853 electrons
N(Beta)            :       20.000020643853 electrons
N(Total)           :       40.000041287706 electrons
E(X)               :      -35.921094314468 Eh       
E(C)               :       -1.288245222199 Eh       
E(XC)              :      -37.209339536668 Eh       

CPCM Solvation Model Properties:
Surface-charge          :         -0.04407463654549
Corrected charge        :          0.00000000000000
Outlying charge corr.   :          0.00017805460468 Eh               0.00485 eV
Free-energy (cav+disp)  :          0.00523685811819 Eh               0.14250 eV

---------------
SCF CONVERGENCE
---------------

  Last Energy change         ...   -5.7452e-10  Tolerance :   1.0000e-08
  Last MAX-Density change    ...    1.7801e-05  Tolerance :   1.0000e-07
  Last RMS-Density change    ...    2.5820e-06  Tolerance :   5.0000e-09
  Last DIIS Error            ...    2.6119e-03  Tolerance :   5.0000e-07
  Last Orbital Gradient      ...    1.4604e-05  Tolerance :   1.0000e-05
  Last Orbital Rotation      ...    1.4141e-05  Tolerance :   1.0000e-05


----------------
ORBITAL ENERGIES
----------------

  NO   OCC          E(Eh)            E(eV) 
   0   2.0000     -18.959336      -515.9098 
   1   2.0000     -18.958759      -515.8940 
   2   2.0000     -18.940023      -515.3842 
   3   2.0000     -18.939500      -515.3700 
   4   2.0000      -0.983105       -26.7516 
   5   2.0000      -0.978535       -26.6273 
   6   2.0000      -0.960388       -26.1335 
   7   2.0000      -0.958094       -26.0711 
   8   2.0000      -0.494516       -13.4565 
   9   2.0000      -0.493312       -13.4237 
  10   2.0000      -0.480067       -13.0633 
  11   2.0000      -0.478303       -13.0153 
  12   2.0000      -0.375537       -10.2189 
  13   2.0000      -0.365790        -9.9537 
  14   2.0000      -0.360830        -9.8187 
  15   2.0000      -0.344393        -9.3714 
  16   2.0000      -0.289706        -7.8833 
  17   2.0000      -0.282648        -7.6912 
  18   2.0000      -0.273429        -7.4404 
  19   2.0000      -0.271767        -7.3951 
  20   0.0000       0.034042         0.9263 
  21   0.0000       0.105830         2.8798 
  22   0.0000       0.117694         3.2026 
  23   0.0000       0.138438         3.7671 
  24   0.0000       0.163790         4.4570 
  25   0.0000       0.191473         5.2102 
  26   0.0000       0.215317         5.8591 
  27   0.0000       0.251678         6.8485 
  28   0.0000       0.293961         7.9991 
  29   0.0000       0.347993         9.4694 
  30   0.0000       0.367525        10.0009 
*Only the first 10 virtual orbitals were printed.

                    ********************************
                    * MULLIKEN POPULATION ANALYSIS *
                    ********************************

-----------------------
MULLIKEN ATOMIC CHARGES
-----------------------
   0 O :   -0.758884
   1 H :    0.347399
   2 H :    0.390727
   3 O :   -0.756657
   4 H :    0.348568
   5 H :    0.386999
   6 O :   -0.699580
   7 H :    0.362577
   8 H :    0.357251
   9 O :   -0.696481
  10 H :    0.355436
  11 H :    0.362645
Sum of atomic charges:    0.0000000

--------------------------------
MULLIKEN REDUCED ORBITAL CHARGES
--------------------------------
  0 O s       :     3.778687  s :     3.778687
      pz      :     1.539430  p :     4.963746
      px      :     1.481914
      py      :     1.942402
      dz2     :     0.006371  d :     0.016451
      dxz     :     0.002440
      dyz     :     0.002482
      dx2y2   :     0.003152
      dxy     :     0.002006

  1 H s       :     0.606845  s :     0.606845
      pz      :     0.022119  p :     0.045757
      px      :     0.011205
      py      :     0.012433

  2 H s       :     0.561553  s :     0.561553
      pz      :     0.008391  p :     0.047720
      px      :     0.026910
      py      :     0.012419

  3 O s       :     3.778433  s :     3.778433
      pz      :     1.590943  p :     4.961739
      px      :     1.934695
      py      :     1.436101
      dz2     :     0.005483  d :     0.016485
      dxz     :     0.003043
      dyz     :     0.004159
      dx2y2   :     0.002158
      dxy     :     0.001643

  4 H s       :     0.605798  s :     0.605798
      pz      :     0.020277  p :     0.045634
      px      :     0.012312
      py      :     0.013045

  5 H s       :     0.565238  s :     0.565238
      pz      :     0.009429  p :     0.047764
      px      :     0.012718
      py      :     0.025617

  6 O s       :     3.780482  s :     3.780482
      pz      :     1.437912  p :     4.898321
      px      :     1.642666
      py      :     1.817742
      dz2     :     0.006883  d :     0.020777
      dxz     :     0.001989
      dyz     :     0.001632
      dx2y2   :     0.004470
      dxy     :     0.005804

  7 H s       :     0.592450  s :     0.592450
      pz      :     0.009991  p :     0.044973
      px      :     0.020075
      py      :     0.014907

  8 H s       :     0.597660  s :     0.597660
      pz      :     0.024324  p :     0.045089
      px      :     0.009671
      py      :     0.011094

  9 O s       :     3.779052  s :     3.779052
      pz      :     1.441814  p :     4.896248
      px      :     1.912924
      py      :     1.541510
      dz2     :     0.005466  d :     0.021180
      dxz     :     0.002283
      dyz     :     0.002715
      dx2y2   :     0.007451
      dxy     :     0.003264

 10 H s       :     0.599532  s :     0.599532
      pz      :     0.023769  p :     0.045032
      px      :     0.012391
      py      :     0.008871

 11 H s       :     0.592297  s :     0.592297
      pz      :     0.011024  p :     0.045058
      px      :     0.011791
      py      :     0.022242



                     *******************************
                     * LOEWDIN POPULATION ANALYSIS *
                     *******************************

----------------------
LOEWDIN ATOMIC CHARGES
----------------------
   0 O :   -0.568371
   1 H :    0.265769
   2 H :    0.268028
   3 O :   -0.565766
   4 H :    0.266461
   5 H :    0.266371
   6 O :   -0.519594
   7 H :    0.278903
   8 H :    0.273100
   9 O :   -0.516002
  10 H :    0.273658
  11 H :    0.277443

-------------------------------
LOEWDIN REDUCED ORBITAL CHARGES
-------------------------------
  0 O s       :     3.548086  s :     3.548086
      pz      :     1.576651  p :     4.964371
      px      :     1.484570
      py      :     1.903150
      dz2     :     0.022836  d :     0.055914
      dxz     :     0.008219
      dyz     :     0.002664
      dx2y2   :     0.016156
      dxy     :     0.006039

  1 H s       :     0.609023  s :     0.609023
      pz      :     0.065582  p :     0.125208
      px      :     0.027047
      py      :     0.032580

  2 H s       :     0.596510  s :     0.596510
      pz      :     0.021224  p :     0.135462
      px      :     0.080791
      py      :     0.033447

  3 O s       :     3.547369  s :     3.547369
      pz      :     1.616356  p :     4.962298
      px      :     1.898140
      py      :     1.447802
      dz2     :     0.016346  d :     0.056100
      dxz     :     0.004060
      dyz     :     0.016697
      dx2y2   :     0.013053
      dxy     :     0.005943

  4 H s       :     0.608728  s :     0.608728
      pz      :     0.060611  p :     0.124812
      px      :     0.032144
      py      :     0.032056

  5 H s       :     0.598274  s :     0.598274
      pz      :     0.025818  p :     0.135355
      px      :     0.034256
      py      :     0.075281

  6 O s       :     3.544296  s :     3.544296
      pz      :     1.474497  p :     4.907949
      px      :     1.656242
      py      :     1.777210
      dz2     :     0.025618  d :     0.067349
      dxz     :     0.004914
      dyz     :     0.006909
      dx2y2   :     0.014399
      dxy     :     0.015509

  7 H s       :     0.597972  s :     0.597972
      pz      :     0.023072  p :     0.123125
      px      :     0.058175
      py      :     0.041878

  8 H s       :     0.602620  s :     0.602620
      pz      :     0.070631  p :     0.124279
      px      :     0.024641
      py      :     0.029007

  9 O s       :     3.542622  s :     3.542622
      pz      :     1.473573  p :     4.903593
      px      :     1.856550
      py      :     1.573471
      dz2     :     0.023710  d :     0.069787
      dxz     :     0.006158
      dyz     :     0.008529
      dx2y2   :     0.023895
      dxy     :     0.007495

 10 H s       :     0.602326  s :     0.602326
      pz      :     0.067698  p :     0.124016
      px      :     0.033781
      py      :     0.022537

 11 H s       :     0.598751  s :     0.598751
      pz      :     0.025992  p :     0.123807
      px      :     0.031462
      py      :     0.066352



                      *****************************
                      * MAYER POPULATION ANALYSIS *
                      *****************************

  NA   - Mulliken gross atomic population
  ZA   - Total nuclear charge
  QA   - Mulliken gross atomic charge
  VA   - Mayer's total valence
  BVA  - Mayer's bonded valence
  FA   - Mayer's free valence

  ATOM       NA         ZA         QA         VA         BVA        FA
  0 O      8.7589     8.0000    -0.7589     1.7237     1.7237    -0.0000
  1 H      0.6526     1.0000     0.3474     0.8958     0.8958    -0.0000
  2 H      0.6093     1.0000     0.3907     0.8886     0.8886     0.0000
  3 O      8.7567     8.0000    -0.7567     1.7254     1.7254     0.0000
  4 H      0.6514     1.0000     0.3486     0.8963     0.8963     0.0000
  5 H      0.6130     1.0000     0.3870     0.8926     0.8926    -0.0000
  6 O      8.6996     8.0000    -0.6996     1.8233     1.8233     0.0000
  7 H      0.6374     1.0000     0.3626     0.8832     0.8832     0.0000
  8 H      0.6427     1.0000     0.3573     0.8955     0.8955     0.0000
  9 O      8.6965     8.0000    -0.6965     1.8268     1.8268     0.0000
 10 H      0.6446     1.0000     0.3554     0.8976     0.8976    -0.0000
 11 H      0.6374     1.0000     0.3626     0.8836     0.8836     0.0000

  Mayer bond orders larger than 0.100000
B(  0-O ,  1-H ) :   0.8813 B(  0-O ,  2-H ) :   0.8147 B(  3-O ,  4-H ) :   0.8779 
B(  3-O ,  5-H ) :   0.8187 B(  6-O ,  7-H ) :   0.8757 B(  6-O ,  8-H ) :   0.8665 
B(  9-O , 10-H ) :   0.8672 B(  9-O , 11-H ) :   0.8749 

-------
TIMINGS
-------

Total SCF time: 0 days 0 hours 0 min 10 sec 

Total time                  ....      10.850 sec
Sum of individual times     ....      10.079 sec  ( 92.9%)

SCF preparation             ....       0.174 sec  (  1.6%)
Fock matrix formation       ....       7.957 sec  ( 73.3%)
  Startup                   ....       0.019 sec  (  0.2% of F)
  Split-RI-J                ....       0.580 sec  (  7.3% of F)
  XC integration            ....       5.529 sec  ( 69.5% of F)
    Basis function eval.    ....       1.024 sec  ( 18.5% of XC)
    Density eval.           ....       1.380 sec  ( 25.0% of XC)
    XC-Functional eval.     ....       0.636 sec  ( 11.5% of XC)
    XC-Potential eval.      ....       1.668 sec  ( 30.2% of XC)
  CPCM terms                ....       1.920 sec  ( 24.1% of F)
Diagonalization             ....       0.000 sec  (  0.0%)
Density matrix formation    ....       0.648 sec  (  6.0%)
Total Energy calculation    ....       0.245 sec  (  2.3%)
Population analysis         ....       0.095 sec  (  0.9%)
Orbital Transformation      ....       0.047 sec  (  0.4%)
Orbital Orthonormalization  ....       0.000 sec  (  0.0%)
DIIS solution               ....       0.441 sec  (  4.1%)
SOSCF solution              ....       0.472 sec  (  4.4%)
Finished LeanSCF after  11.1 sec

Maximum memory used throughout the entire LEANSCF-calculation: 7.0 MB


           ************************************************************
           *        Program running with 4 parallel MPI-processes     *
           *              working on a common directory               *
           ************************************************************

------------------------------------------------------------------------------
                         ORCA PROPERTY INTEGRAL CALCULATIONS
------------------------------------------------------------------------------

GBWName                                   ... Explicit4H2O_SMD_water_Opt_KeepDens_restart.gbw
Number of atoms                           ...     12
Number of basis functions                 ...    136
Max core memory                           ...   2000 MB

Dipole integrals                          ... YES
Quadrupole integrals                      ...  NO
Linear momentum integrals                 ...  NO
Angular momentum integrals                ...  NO
Higher moments length integrals           ...  NO
Higher moments velocity integrals         ...  NO
Kinetic energy integrals                  ...  NO
GIAO right hand sides                     ...  NO
GIAO dipole derivative integrals          ...  NO
SOC integrals                             ...  NO
EPR diamagnetic integrals (GIAO)          ...  NO
EPR gauge integrals                       ...  NO
Field gradient integrals                  ...  NO (   0 nuclei)
Spin-dipole/Fermi contact integrals       ...  NO (   0 nuclei)
Contact density integrals                 ...  NO (   0 nuclei)
Nucleus-orbit integrals                   ...  NO (   0 nuclei)
Geometric perturbations                   ...  NO (  12 nuclei)

Choice of electric origin   ... Center of mass
Position of electric origin ... ( 61.1327,-41.2848,  0.8752) 
Choice of magnetic origin   ... GIAO
Position of magnetic origin ... (  0.0000,  0.0000,  0.0000) 

Calculating integrals                     ... Electric Dipole (Length)     done (  0.0 sec)

Property integrals calculated in   0.0 sec

Maximum memory used throughout the entire PROPINT-calculation: 6.1 MB


-------------------------------------------------------------------------------
                          DFT DISPERSION CORRECTION                            
                                                                               
                                DFTD4 V3.4.0                                   
-------------------------------------------------------------------------------
The R2SCAN3C composite method is recognized
Using three-body term ABC
Active option DFTDOPT                   ...         5   

-------------------------   ----------------
Dispersion correction           -0.001697666
-------------------------   ----------------

------------------   -----------------
gCP correction             0.010743225
------------------   -----------------

-------------------------   --------------------
FINAL SINGLE POINT ENERGY      -305.739302808711
-------------------------   --------------------



           ************************************************************
           *        Program running with 4 parallel MPI-processes     *
           *              working on a common directory               *
           ************************************************************
------------------------------------------------------------------------------
                         ORCA SCF GRADIENT CALCULATION
------------------------------------------------------------------------------

Nuc. rep. gradient        (SHARK) ... done (  0.0 sec)
HCore & Overlap gradient  (SHARK) ... done (  0.1 sec)
Split-RIJ-J gradient      (SHARK) ... done (  0.2 sec)
XC gradient                       ... done (  2.1 sec)
CPCM gradient                     ... done (  0.2 sec)
SMD gradient                      ... done (  0.0 sec)
Dispersion correction             ... done (  0.1 sec)

-------------------
DISPERSION GRADIENT
-------------------

   1   O   :   -0.000025957    0.000015277    0.000016827
   2   H   :   -0.000021001    0.000012281    0.000025114
   3   H   :   -0.000021330    0.000012662    0.000023503
   4   O   :   -0.000001039    0.000023332   -0.000023872
   5   H   :    0.000003799    0.000016544   -0.000029622
   6   H   :    0.000003173    0.000017887   -0.000028151
   7   O   :    0.000005393   -0.000051054   -0.000012683
   8   H   :   -0.000012749   -0.000020702   -0.000015706
   9   H   :   -0.000009951   -0.000020480   -0.000020750
  10   O   :    0.000040979   -0.000018875    0.000021867
  11   H   :    0.000017860    0.000005707    0.000023868
  12   H   :    0.000020824    0.000007421    0.000019605

Difference to translation invariance:
           :    0.0000000000   -0.0000000000    0.0000000000

Difference to rotation invariance:
           :   -0.0000000000   -0.0000000000   -0.0000000000

Norm of the Dispersion gradient    ...    0.0001259970
RMS gradient                       ...    0.0000209995
MAX gradient                       ...    0.0000510540
gCP correction                   ... done

------------------
CARTESIAN GRADIENT
------------------

   1   O   :   -0.001809227    0.000286021   -0.000256122
   2   H   :    0.000171850    0.000088947    0.000904813
   3   H   :    0.001608600   -0.000368563   -0.000398916
   4   O   :   -0.000050930   -0.000565941   -0.000023396
   5   H   :    0.000022411    0.000121142    0.000224623
   6   H   :    0.000218992    0.000373438   -0.000257530
   7   O   :   -0.000440719    0.000489153    0.000979358
   8   H   :    0.000419526   -0.000311735   -0.000288744
   9   H   :    0.000040158   -0.000227954   -0.000565810
  10   O   :   -0.000491529   -0.000869733   -0.000344238
  11   H   :    0.000399178   -0.000144396    0.000246761
  12   H   :   -0.000088311    0.001129622   -0.000220798

Difference to translation invariance:
           :    0.0000000000   -0.0000000000   -0.0000000000

Difference to rotation invariance:
           :   -0.0005279183    0.0007798254   -0.0000718914

Norm of the Cartesian gradient     ...    0.0035518079
RMS gradient                       ...    0.0005919680
MAX gradient                       ...    0.0018092271

-------
TIMINGS
-------

Total SCF gradient time     ....        2.826 sec

Densities                   ....       0.001 sec  (  0.0%)
One electron gradient       ....       0.077 sec  (  2.7%)
RI-J Coulomb gradient       ....       0.238 sec  (  8.4%)
XC gradient                 ....       2.096 sec  ( 74.2%)
CPCM gradient               ....       0.249 sec  (  8.8%)
   A-Matrix (El+Nuc)        ....       0.014 sec  (  0.5%)
   Potential                ....       0.235 sec  (  8.3%)
SMD gradient                ....       0.025 sec  (  0.9%)

Maximum memory used throughout the entire SCFGRAD-calculation: 25.8 MB
------------------------------------------------------------------------------
                         ORCA GEOMETRY RELAXATION STEP
------------------------------------------------------------------------------

Reading the OPT-File                    .... done
Getting information on internals        .... done
Copying old internal coords+grads       .... done
Making the new internal coordinates     .... (2022 redundants) done
Validating the new internal coordinates .... (2022 redundants) done
Calculating the B-matrix                .... done
Calculating the G,G- and P matrices     .... done
Transforming gradient to internals      .... done
Projecting the internal gradient        .... done
Number of atoms                         ....  12
Number of internal coordinates          .... 409
Current Energy                          ....  -305.739302809 Eh
Current gradient norm                   ....     0.003551808 Eh/bohr
Maximum allowed component of the step   ....  0.300
Current trust radius                    ....  0.300
Evaluating the initial hessian          ....  (Almloef) done
Projecting the Hessian                  .... done
Forming the augmented Hessian           .... done
Diagonalizing the augmented Hessian     .... done
Last element of RFO vector              ....  0.999957116
Lowest eigenvalues of augmented Hessian:
 -0.000011835  0.013433923  0.029296869  0.032140003  0.035958640
Length of the computed step             ....  0.009261355
The final length of the internal step   ....  0.009261355
Converting the step to Cartesian space:
 Initial RMS(Int)=    0.0004579445
Transforming coordinates:
 Iter   0:  RMS(Cart)=    0.0008498679 RMS(Int)=    0.0004579589
done
Storing new coordinates                 .... done

                                .--------------------.
          ----------------------|Geometry convergence|-------------------------
          Item                value                   Tolerance       Converged
          ---------------------------------------------------------------------
          RMS gradient        0.0000814063            0.0001000000      YES
          MAX gradient        0.0007600707            0.0003000000      NO
          RMS step            0.0004579445            0.0020000000      YES
          MAX step            0.0030090309            0.0040000000      YES
          -------------------------------------------------------------------------
          ........................................................
          Max(Bonds)      0.0016      Max(Angles)    0.04
          Max(Dihed)        0.05      Max(Improp)    0.00
          ---------------------------------------------------------------------

The optimization has not yet converged - more geometry cycles are needed


    ---------------------------------------------------------------------------
                         Redundant Internal Coordinates
                            (Angstroem and degrees)

        Definition                    Value    dE/dq     Step     New-Value
    ----------------------------------------------------------------------------
     1. B(H   1,O   0)                0.9640 -0.000445  0.0009    0.9649   
     2. B(H   2,O   0)                0.9791  0.000760 -0.0016    0.9775   
     3. B(H   4,O   3)                0.9654  0.000191 -0.0003    0.9651   
     4. B(H   4,H   2)                2.4247 -0.000247  0.0005    2.4252   
     5. B(H   4,H   1)                2.4544  0.000235 -0.0010    2.4534   
     6. B(H   5,O   3)                0.9763 -0.000326  0.0005    0.9768   
     7. B(O   6,H   1)                2.9161  0.000146 -0.0006    2.9155   
     8. B(O   6,H   5)                1.9158  0.000036 -0.0004    1.9154   
     9. B(O   6,H   2)                3.0399 -0.000238  0.0007    3.0406   
    10. B(H   7,H   5)                2.3252  0.000143 -0.0005    2.3247   
    11. B(H   7,O   6)                0.9667  0.000299 -0.0006    0.9661   
    12. B(H   8,H   1)                2.5807  0.000158 -0.0005    2.5802   
    13. B(H   8,O   6)                0.9663 -0.000201  0.0006    0.9669   
    14. B(H   8,H   2)                2.3875 -0.000102  0.0005    2.3880   
    15. B(H   8,H   5)                2.2923 -0.000028 -0.0000    2.2922   
    16. B(H   8,O   0)                2.7959  0.000267 -0.0005    2.7954   
    17. B(O   9,H   2)                1.8933 -0.000081  0.0010    1.8943   
    18. B(O   9,H   8)                2.7268 -0.000080  0.0009    2.7277   
    19. B(H  10,H   8)                2.5574 -0.000002  0.0005    2.5579   
    20. B(H  10,O   9)                0.9666 -0.000126  0.0003    0.9669   
    21. B(H  10,H   5)                2.4023  0.000031  0.0007    2.4030   
    22. B(H  10,H   2)                2.3341 -0.000098  0.0006    2.3347   
    23. B(H  10,O   6)                2.9043 -0.000053  0.0007    2.9050   
    24. B(H  10,H   7)                2.8524 -0.000043  0.0004    2.8528   
    25. B(H  10,H   4)                2.4772 -0.000055  0.0007    2.4779   
    26. B(H  11,H   8)                2.5083  0.000011  0.0010    2.5094   
    27. B(H  11,H   2)                2.3002 -0.000297  0.0016    2.3018   
    28. B(H  11,O   9)                0.9650 -0.000422  0.0009    0.9659   
    29. A(H   1,O   0,H   2)          103.58 -0.000115    0.03    103.61   
    30. A(H   2,O   0,H   8)           55.83 -0.000092    0.03     55.86   
    31. A(H   1,O   0,H   8)           67.23 -0.000062    0.00     67.23   
    32. A(O   6,H   1,H   8)           19.01 -0.000051    0.02     19.03   
    33. A(O   0,H   1,O   6)          110.94  0.000131   -0.01    110.93   
    34. A(O   0,H   1,H   4)          100.73  0.000085   -0.01    100.73   
    35. A(O   0,H   1,H   8)           92.62  0.000173   -0.02     92.60   
    36. A(H   4,H   1,O   6)           74.21 -0.000096    0.03     74.23   
    37. A(H   4,H   1,H   8)           81.93 -0.000129    0.04     81.97   
    38. A(O   6,H   2,H  10)           63.85  0.000035   -0.00     63.85   
    39. A(O   6,H   2,H   8)           15.20 -0.000021    0.01     15.21   
    40. A(O   9,H   2,H  11)           24.20 -0.000075    0.00     24.21   
    41. A(O   0,H   2,H   4)          102.12 -0.000028   -0.02    102.10   
    42. A(H   8,H   2,H  11)           64.67  0.000059   -0.00     64.67   
    43. A(O   6,H   2,H  11)           73.36  0.000031    0.01     73.37   
    44. A(O   9,H   2,H  10)           23.61 -0.000025    0.01     23.62   
    45. A(O   0,H   2,H  11)          153.75  0.000067    0.00    153.75   
    46. A(O   0,H   2,H  10)          161.17 -0.000001   -0.01    161.16   
    47. A(H   4,H   2,H  10)           62.70  0.000033    0.00     62.71   
    48. A(O   0,H   2,H   8)          104.34 -0.000042   -0.00    104.34   
    49. A(H   4,H   2,O   9)           82.00  0.000016    0.01     82.01   
    50. A(H   8,H   2,H  10)           65.58  0.000028   -0.00     65.58   
    51. A(H   4,H   2,H   8)           86.66  0.000010   -0.01     86.65   
    52. A(O   0,H   2,O   6)          102.05 -0.000040   -0.01    102.04   
    53. A(O   6,H   2,O   9)           81.47  0.000008    0.01     81.47   
    54. A(H  10,H   2,H  11)           38.24 -0.000068    0.01     38.25   
    55. A(H   8,H   2,O   9)           78.20  0.000012    0.00     78.20   
    56. A(H   4,H   2,H  11)          100.94 -0.000034    0.01    100.95   
    57. A(H   4,H   2,O   6)           72.27  0.000029   -0.02     72.25   
    58. A(H   4,O   3,H   5)          103.44  0.000027   -0.01    103.44   
    59. A(O   3,H   4,H  10)           91.42 -0.000055    0.02     91.44   
    60. A(H   1,H   4,H   2)           36.46  0.000027   -0.00     36.46   
    61. A(H   1,H   4,O   3)          107.66 -0.000000   -0.01    107.65   
    62. A(H   2,H   4,O   3)          122.06 -0.000061    0.01    122.08   
    63. A(H   1,H   4,H  10)           87.83  0.000064   -0.01     87.82   
    64. A(H   2,H   4,H  10)           56.86  0.000010    0.00     56.86   
    65. A(H   7,H   5,H  10)           74.20 -0.000041    0.01     74.21   
    66. A(O   6,H   5,H  10)           83.72 -0.000033    0.01     83.74   
    67. A(H   8,H   5,H  10)           65.97 -0.000002    0.00     65.97   
    68. A(O   3,H   5,H  10)           95.66  0.000029   -0.00     95.66   
    69. A(O   3,H   5,H   8)          155.77  0.000029    0.00    155.77   
    70. A(H   7,H   5,H   8)           38.39  0.000012   -0.00     38.39   
    71. A(O   3,H   5,H   7)          154.74 -0.000039    0.00    154.74   
    72. A(O   6,H   5,H   8)           24.52 -0.000050    0.02     24.53   
    73. A(O   6,H   5,H   7)           23.95  0.000063   -0.01     23.93   
    74. A(H   1,O   6,H  10)           71.98  0.000064   -0.01     71.97   
    75. A(H   1,O   6,H   8)           60.47 -0.000009    0.01     60.48   
    76. A(H   1,O   6,H   7)          149.29  0.000048   -0.02    149.27   
    77. A(H   8,O   6,H  10)           59.74  0.000005    0.00     59.74   
    78. A(H   7,O   6,H  10)           77.31 -0.000015   -0.01     77.30   
    79. A(H   7,O   6,H   8)          103.54  0.000013   -0.02    103.52   
    80. A(H   5,O   6,H  10)           55.31  0.000019    0.01     55.31   
    81. A(H   2,O   6,H   5)           61.60  0.000029   -0.01     61.60   
    82. A(H   1,O   6,H   5)           59.46  0.000095   -0.03     59.43   
    83. A(H   5,O   6,H   8)          100.12  0.000036    0.00    100.12   
    84. A(H   5,O   6,H   7)          102.50 -0.000046    0.02    102.52   
    85. A(H   1,O   6,H   2)           29.61  0.000032   -0.01     29.61   
    86. A(H   2,O   6,H  10)           46.17  0.000005    0.00     46.17   
    87. A(H   2,O   6,H   8)           40.39  0.000009    0.01     40.40   
    88. A(H   2,O   6,H   7)          121.32 -0.000002   -0.01    121.31   
    89. A(O   6,H   7,H  10)           83.38 -0.000044    0.03     83.41   
    90. A(H   5,H   7,H  10)           54.14  0.000004    0.01     54.15   
    91. A(H   5,H   7,O   6)           53.55 -0.000017   -0.01     53.55   
    92. A(H   1,H   8,H  11)           91.47 -0.000044    0.02     91.48   
    93. A(H   1,H   8,H   2)           35.52  0.000017   -0.00     35.52   
    94. A(H   2,H   8,O   6)          124.40  0.000012   -0.02    124.39   
    95. A(H  10,H   8,H  11)           34.87 -0.000089    0.01     34.88   
    96. A(H   2,H   8,H  10)           56.21 -0.000013    0.00     56.21   
    97. A(O   0,H   8,O   9)           62.61  0.000129   -0.02     62.59   
    98. A(O   0,H   8,H   1)           20.15 -0.000111    0.02     20.17   
    99. A(O   0,H   8,H  10)           75.32  0.000117   -0.03     75.29   
   100. A(O   6,H   8,H  10)          101.21  0.000032   -0.01    101.20   
   101. A(O   0,H   8,H  11)           74.20  0.000072   -0.00     74.19   
   102. A(O   0,H   8,H   2)           19.83  0.000134   -0.03     19.80   
   103. A(H   2,H   8,H  11)           55.98 -0.000063    0.02     56.00   
   104. A(H   1,H   8,O   6)          100.51  0.000060   -0.03    100.49   
   105. A(O   0,H   8,O   6)          119.88 -0.000037   -0.01    119.87   
   106. A(O   0,H   8,H   5)           74.77  0.000032   -0.02     74.75   
   107. A(H   5,H   8,O   9)           73.50 -0.000007    0.01     73.52   
   108. A(H   1,H   8,H   5)           62.74  0.000096   -0.03     62.71   
   109. A(H   5,H   8,H  10)           59.09  0.000011    0.01     59.10   
   110. A(H   5,H   8,H  11)           92.88 -0.000085    0.02     92.90   
   111. A(H   2,H   8,H   5)           70.89  0.000000   -0.00     70.89   
   112. A(H   1,H   8,O   9)           76.28  0.000039    0.00     76.28   
   113. A(H   5,H   8,O   6)           55.36  0.000014   -0.02     55.34   
   114. A(O   9,H   8,H  10)           20.76 -0.000020   -0.00     20.76   
   115. A(O   9,H   8,H  11)           20.71 -0.000082    0.01     20.72   
   116. A(O   6,H   8,H  11)          132.93 -0.000028   -0.00    132.93   
   117. A(H   2,H   8,O   9)           42.82 -0.000004    0.01     42.83   
   118. A(O   6,H   8,O   9)          121.43  0.000011   -0.01    121.42   
   119. A(H   1,H   8,H  10)           83.47  0.000065   -0.02     83.46   
   120. A(H   2,O   9,H  11)          102.25  0.000019    0.01    102.26   
   121. A(H   2,O   9,H  10)          104.71  0.000038   -0.04    104.67   
   122. A(H   2,O   9,H   8)           58.99 -0.000008   -0.01     58.97   
   123. A(H   8,O   9,H  11)           66.78  0.000037    0.01     66.79   
   124. A(H   8,O   9,H  10)           69.69  0.000040   -0.02     69.67   
   125. A(H  10,O   9,H  11)          103.64  0.000021    0.00    103.65   
   126. A(H   4,H  10,O   6)           74.11 -0.000024   -0.02     74.09   
   127. A(H   4,H  10,H   8)           81.96 -0.000047   -0.01     81.95   
   128. A(O   6,H  10,H   7)           19.31  0.000059   -0.02     19.29   
   129. A(H   2,H  10,H   4)           60.44 -0.000044   -0.00     60.43   
   130. A(H   4,H  10,O   9)          103.46 -0.000040    0.03    103.49   
   131. A(O   6,H  10,H   8)           19.05 -0.000037    0.01     19.06   
   132. A(H   2,H  10,O   6)           69.98 -0.000040   -0.00     69.98   
   133. A(O   6,H  10,O   9)          108.14 -0.000057    0.03    108.17   
   134. A(H   7,H  10,H   8)           32.01  0.000023   -0.01     32.00   
   135. A(H   2,H  10,H   7)           88.48  0.000020   -0.02     88.46   
   136. A(H   7,H  10,O   9)          118.92 -0.000014    0.01    118.93   
   137. A(H   2,H  10,H   8)           58.22 -0.000015   -0.00     58.21   
   138. A(H   5,H  10,O   6)           40.97  0.000014   -0.02     40.95   
   139. A(H   5,H  10,H   7)           51.66  0.000037   -0.02     51.64   
   140. A(H   8,H  10,O   9)           89.54 -0.000020    0.02     89.57   
   141. A(H   5,H  10,H   8)           54.95 -0.000009   -0.01     54.93   
   142. A(H   2,H  10,H   5)           69.94 -0.000011   -0.01     69.92   
   143. A(H   5,H  10,O   9)          121.61 -0.000024    0.02    121.63   
   144. A(H   4,H  10,H   7)           87.75  0.000019   -0.03     87.72   
   145. A(H   2,H  10,O   9)           51.68 -0.000013    0.04     51.72   
   146. A(H   4,H  10,H   5)           36.36 -0.000015   -0.01     36.36   
   147. A(H   2,H  11,H   8)           59.35  0.000005   -0.02     59.33   
   148. A(H   8,H  11,O   9)           92.51  0.000045   -0.02     92.49   
   149. A(H   2,H  11,O   9)           53.55  0.000056   -0.01     53.53   
   150. D(H   8,H   1,O   0,H   2)     43.28 -0.000073    0.02     43.29   
   151. D(O   6,H   1,O   0,H   2)     38.05 -0.000036    0.01     38.06   
   152. D(H   4,H   1,O   0,H   2)    -39.00  0.000024   -0.02    -39.02   
   153. D(H   4,H   1,O   0,H   8)    -82.28  0.000097   -0.03    -82.31   
   154. D(O   6,H   1,O   0,H   8)     -5.23  0.000038   -0.01     -5.24   
   155. D(H   8,H   2,O   0,H   1)    -49.82  0.000049    0.00    -49.82   
   156. D(O   6,H   2,O   0,H   8)     15.44 -0.000024    0.01     15.45   
   157. D(H  10,H   2,O   0,H   1)      5.26  0.000009    0.01      5.26   
   158. D(H  11,H   2,O   0,H   1)   -111.13  0.000053    0.01   -111.12   
   159. D(O   6,H   2,O   0,H   1)    -34.38  0.000025    0.01    -34.37   
   160. D(H  11,H   2,O   0,H   8)    -61.31  0.000004    0.01    -61.30   
   161. D(H   4,H   2,O   0,H   1)     39.80  0.000044   -0.01     39.79   
   162. D(H   4,H   2,O   0,H   8)     89.62 -0.000005   -0.02     89.61   
   163. D(H  10,H   2,O   0,H   8)     55.08 -0.000040    0.00     55.08   
   164. D(O   3,H   4,H   2,H  11)     67.27  0.000021    0.01     67.28   
   165. D(H   1,H   4,O   3,H   5)    -35.24 -0.000019    0.00    -35.24   
   166. D(H   1,H   4,H   2,H  11)    143.07  0.000141   -0.03    143.04   
   167. D(O   3,H   4,H   2,O   9)     82.41 -0.000038    0.01     82.43   
   168. D(H   2,H   4,H   1,O   6)    -84.37  0.000088   -0.04    -84.41   
   169. D(H   2,H   4,H   1,H   8)    -66.60  0.000053   -0.02    -66.62   
   170. D(H   2,H   4,O   3,H   5)      1.96  0.000031   -0.01      1.95   
   171. D(O   3,H   4,H   2,O   6)     -1.13 -0.000038    0.01     -1.12   
   172. D(O   3,H   4,H   2,H   8)      3.88 -0.000048    0.01      3.89   
   173. D(O   3,H   4,H   2,O   0)   -100.08 -0.000008    0.02   -100.07   
   174. D(H   1,H   4,H   2,O   9)    158.21  0.000083   -0.03    158.19   
   175. D(H   1,H   4,H   2,O   0)    -24.28  0.000113   -0.02    -24.31   
   176. D(O   3,H   4,H   1,O   0)    145.00  0.000078   -0.01    144.99   
   177. D(O   3,H   4,H   1,H   8)     53.84 -0.000064    0.01     53.85   
   178. D(O   3,H   4,H   2,H  10)     68.03 -0.000015    0.02     68.05   
   179. D(O   3,H   4,H   1,O   6)     36.06 -0.000029    0.00     36.06   
   180. D(H  10,H   4,O   3,H   5)     52.93  0.000030   -0.00     52.93   
   181. D(H   2,H   4,H   1,O   0)     24.56  0.000195   -0.04     24.52   
   182. D(H   8,H   5,O   3,H   4)    -16.71  0.000005   -0.00    -16.71   
   183. D(H   7,H   5,O   3,H   4)   -120.21 -0.000011   -0.01   -120.22   
   184. D(H  10,H   5,O   3,H   4)    -55.74 -0.000013    0.00    -55.74   
   185. D(H   7,O   6,H   5,H   8)   -106.45 -0.000013    0.02   -106.43   
   186. D(H   7,O   6,H   2,O   0)   -173.39 -0.000034    0.00   -173.39   
   187. D(H  10,O   6,H   1,H   4)     47.04 -0.000028    0.02     47.06   
   188. D(H   7,O   6,O   3,H   4)   -120.14 -0.000045    0.03   -120.11   
   189. D(H   8,O   6,H   2,H   4)    160.59  0.000015    0.00    160.59   
   190. D(H  10,O   6,H   2,O   0)    166.74  0.000008   -0.01    166.74   
   191. D(H   7,O   6,H   2,H  11)    -20.09  0.000043    0.00    -20.09   
   192. D(H   7,O   6,H   2,H   4)     87.57 -0.000021    0.02     87.59   
   193. D(H  10,O   6,H   1,O   0)    -48.64 -0.000056    0.02    -48.63   
   194. D(H   7,O   6,H   2,H  10)     19.87 -0.000041    0.01     19.88   
   195. D(H   8,O   6,H   2,O   0)   -100.38  0.000002   -0.01   -100.39   
   196. D(H   8,O   6,H   2,H  11)     52.92  0.000079   -0.01     52.91   
   197. D(H   1,O   6,O   3,H   4)     33.07 -0.000006    0.00     33.07   
   198. D(H   2,O   6,H   1,O   0)    -22.99 -0.000160    0.04    -22.95   
   199. D(H   7,O   6,H   2,H   8)    -73.01 -0.000036    0.02    -73.00   
   200. D(H  10,O   6,O   3,H   4)    -55.16 -0.000024    0.01    -55.15   
   201. D(H   7,O   6,H   2,O   9)      3.30 -0.000032    0.01      3.31   
   202. D(H   8,O   6,O   3,H   4)    -13.77 -0.000033    0.01    -13.76   
   203. D(H   7,O   6,H   1,H   4)     47.16  0.000005    0.02     47.18   
   204. D(H   7,O   6,H   1,H   8)    -64.74  0.000057   -0.00    -64.75   
   205. D(H   2,O   6,O   3,H   4)     -0.90 -0.000030    0.01     -0.89   
   206. D(H   8,O   6,H   2,H  10)     92.88 -0.000006   -0.01     92.87   
   207. D(H   8,O   6,H   1,O   0)     16.22 -0.000079    0.02     16.24   
   208. D(H  10,O   6,H   1,H   8)    -64.86  0.000023   -0.00    -64.87   
   209. D(H   8,O   6,H   1,H   4)    111.90 -0.000052    0.02    111.93   
   210. D(H   8,O   6,H   2,O   9)     76.32  0.000003   -0.01     76.31   
   211. D(H   7,O   6,H   1,O   0)    -48.52 -0.000023    0.02    -48.50   
   212. D(H   7,O   6,H   5,H  10)    -64.71 -0.000030    0.02    -64.69   
   213. D(H   1,O   6,H   5,H   8)     46.64  0.000028   -0.01     46.63   
   214. D(H  10,O   6,H   5,H   8)    -41.74  0.000017   -0.01    -41.75   
   215. D(H  10,O   6,H   5,H   7)     64.71  0.000030   -0.02     64.69   
   216. D(H   2,O   6,H   5,H   8)     12.58  0.000007   -0.00     12.58   
   217. D(H   1,O   6,H   5,H  10)     88.38  0.000011   -0.00     88.38   
   218. D(H   8,O   6,H   5,H  10)     41.74 -0.000017    0.01     41.75   
   219. D(H   8,O   6,H   5,H   7)    106.45  0.000013   -0.02    106.43   
   220. D(H   1,O   6,H   5,H   7)    153.09  0.000041   -0.03    153.06   
   221. D(H   5,H   7,O   6,H   2)    -64.20 -0.000008   -0.00    -64.20   
   222. D(H   5,H   7,O   6,H   1)    -49.76 -0.000068    0.00    -49.76   
   223. D(H   5,H   7,O   6,H  10)    -49.64 -0.000036    0.01    -49.64   
   224. D(H  10,H   7,H   5,O   3)     68.94  0.000021    0.01     68.94   
   225. D(H  10,H   7,O   6,H   2)    -14.56  0.000028   -0.01    -14.56   
   226. D(H  10,H   7,O   6,H   8)    -54.16  0.000007   -0.01    -54.16   
   227. D(H  10,H   7,H   5,H   8)    -71.07 -0.000050    0.00    -71.07   
   228. D(H  10,H   7,O   6,H   1)     -0.12 -0.000032   -0.00     -0.12   
   229. D(H  10,H   7,H   5,O   6)   -110.93  0.000058   -0.03   -110.96   
   230. D(H  10,H   7,O   6,H   5)     49.64  0.000036   -0.01     49.64   
   231. D(O   6,H   7,H   5,H  10)    110.93 -0.000058    0.03    110.96   
   232. D(O   6,H   7,H   5,H   8)     39.86 -0.000108    0.03     39.89   
   233. D(O   6,H   7,H   5,O   3)    179.87 -0.000037    0.04    179.90   
   234. D(H   5,H   7,O   6,H   8)   -103.80 -0.000028   -0.00   -103.80   
   235. D(H  11,H   8,H   5,O   6)    142.57  0.000037   -0.02    142.56   
   236. D(H   2,H   8,H   5,H   7)    156.15 -0.000091    0.01    156.16   
   237. D(H  11,H   8,H   5,O   3)    -34.32 -0.000005   -0.01    -34.33   
   238. D(O   6,H   8,H   5,H  10)   -133.57 -0.000023    0.01   -133.56   
   239. D(O   6,H   8,H   5,H   7)    -38.82 -0.000098    0.01    -38.80   
   240. D(H   2,H   8,H   5,H  10)     61.40 -0.000016    0.00     61.40   
   241. D(H  10,H   8,H   2,O   0)    163.10  0.000011   -0.01    163.09   
   242. D(O   6,H   8,O   0,H   2)   -109.12 -0.000091    0.01   -109.11   
   243. D(H  11,H   8,H   2,H  10)     42.32 -0.000091    0.01     42.33   
   244. D(H  11,H   8,H   2,O   9)     21.25 -0.000068    0.00     21.25   
   245. D(H   1,H   8,O   0,H   2)   -126.35  0.000017   -0.01   -126.36   
   246. D(O   6,H   8,H   2,H  11)   -122.25  0.000065   -0.01   -122.27   
   247. D(H   5,H   8,O   0,H   2)    -75.83  0.000033   -0.03    -75.86   
   248. D(H  10,H   8,H   1,O   0)    -64.62 -0.000047    0.01    -64.61   
   249. D(H  11,H   8,H   1,H   4)     69.86 -0.000054    0.01     69.87   
   250. D(H   2,H   8,H   1,H   4)     72.42 -0.000132    0.04     72.46   
   251. D(H   2,H   8,H   1,O   6)    136.81 -0.000107    0.03    136.83   
   252. D(H   2,H   8,H   1,O   0)    -28.05 -0.000192    0.05    -28.01   
   253. D(H  11,H   8,H   1,O   6)    134.24 -0.000029   -0.00    134.24   
   254. D(O   6,H   8,H   1,H   4)    -64.38 -0.000025    0.02    -64.37   
   255. D(O   6,H   8,H   1,O   0)   -164.86 -0.000085    0.02   -164.84   
   256. D(H  11,H   8,H   1,O   0)    -30.62 -0.000114    0.02    -30.60   
   257. D(O   6,H   8,H   2,O   9)   -101.00 -0.000003   -0.01   -101.01   
   258. D(H   5,H   8,O   0,H   1)     50.52  0.000016   -0.02     50.50   
   259. D(O   6,H   8,H   2,H   4)    -18.49  0.000011    0.00    -18.49   
   260. D(H  10,H   8,O   0,H   2)    -14.46  0.000020   -0.01    -14.47   
   261. D(O   6,H   8,H   2,H  10)    -79.93 -0.000026   -0.00    -79.94   
   262. D(O   6,H   8,H   2,O   0)     83.17 -0.000014   -0.01     83.16   
   263. D(H  10,H   8,O   0,H   1)    111.89  0.000003    0.00    111.89   
   264. D(H  11,H   8,O   0,H   2)     21.70 -0.000091    0.00     21.71   
   265. D(H  10,H   8,H   2,H  11)    -42.32  0.000091   -0.01    -42.33   
   266. D(H  11,H   8,O   0,H   1)    148.05 -0.000108    0.02    148.07   
   267. D(H   2,H   8,O   0,H   1)    126.35 -0.000017    0.01    126.36   
   268. D(H  11,H   8,H   2,O   6)    122.25 -0.000065    0.01    122.27   
   269. D(H  11,H   8,H   2,O   0)   -154.58 -0.000079   -0.00   -154.58   
   270. D(H   2,H   8,H   5,O   3)     18.07 -0.000035    0.01     18.08   
   271. D(H   2,H   8,H   5,O   6)   -165.03  0.000007   -0.00   -165.04   
   272. D(H  10,H   8,H   2,O   9)    -21.07  0.000023   -0.00    -21.07   
   273. D(O   6,H   8,O   0,H   1)     17.23 -0.000108    0.02     17.25   
   274. D(O   6,H   8,H   5,O   3)   -176.89 -0.000042    0.01   -176.88   
   275. D(H  10,H   8,H   1,O   6)    100.24  0.000038   -0.01    100.23   
   276. D(H  11,H   8,H   2,H   4)    103.76 -0.000053    0.02    103.78   
   277. D(H  10,H   8,O   6,H   5)    -39.33  0.000008   -0.01    -39.34   
   278. D(H  10,H   8,O   6,H   2)    -56.53 -0.000003   -0.00    -56.53   
   279. D(H  10,H   8,O   6,H   1)    -85.35 -0.000083    0.02    -85.33   
   280. D(H  11,H   8,O   6,H   5)    -55.99  0.000105   -0.03    -56.02   
   281. D(H  11,H   8,O   6,H   2)    -73.20  0.000094   -0.02    -73.22   
   282. D(H  11,H   8,O   6,H   1)   -102.02  0.000014    0.00   -102.01   
   283. D(H  11,H   8,O   6,H  10)    -16.67  0.000097   -0.02    -16.69   
   284. D(H  11,H   8,O   6,H   7)     49.62  0.000071   -0.01     49.61   
   285. D(H   2,H   8,O   6,H   5)     17.20  0.000011   -0.01     17.20   
   286. D(H   2,H   8,O   6,H   1)    -28.82 -0.000080    0.02    -28.79   
   287. D(H  10,H   8,O   6,H   7)     66.29 -0.000027    0.00     66.29   
   288. D(H   2,H   8,O   6,H  10)     56.53  0.000003    0.00     56.53   
   289. D(H   2,H   8,O   6,H   7)    122.82 -0.000023    0.01    122.82   
   290. D(H  11,H   8,H   5,H  10)      9.01  0.000014   -0.01      9.00   
   291. D(H  11,H   8,H   5,H   7)    103.76 -0.000061   -0.00    103.75   
   292. D(H   2,O   9,H   8,O   6)    108.34  0.000007   -0.01    108.33   
   293. D(H  11,O   9,H   8,H   5)   -158.70  0.000007   -0.00   -158.70   
   294. D(H  11,O   9,H   8,H   1)    136.09 -0.000087    0.03    136.13   
   295. D(H  11,O   9,H   8,H  10)   -115.62  0.000022   -0.01   -115.63   
   296. D(H  11,O   9,H   8,H   2)    121.82 -0.000001    0.01    121.83   
   297. D(H  11,O   9,H   8,O   6)   -129.84  0.000006    0.00   -129.84   
   298. D(H  10,O   9,H   8,H   1)   -108.29 -0.000109    0.05   -108.24   
   299. D(H  10,O   9,H   8,H  11)    115.62 -0.000022    0.01    115.63   
   300. D(H  10,O   9,H   8,H   2)   -122.57 -0.000023    0.03   -122.54   
   301. D(H  10,O   9,H   8,O   6)    -14.22 -0.000016    0.01    -14.21   
   302. D(H   8,O   9,H   2,H  10)    -54.80 -0.000014    0.00    -54.80   
   303. D(H   8,O   9,H   2,H  11)     53.04  0.000027   -0.00     53.04   
   304. D(H  11,O   9,H   2,H   4)   -141.29 -0.000033    0.02   -141.27   
   305. D(H  11,O   9,H   2,O   6)    -68.13 -0.000006   -0.00    -68.14   
   306. D(H  11,O   9,H   2,H   8)    -53.04 -0.000027    0.00    -53.04   
   307. D(H  10,O   9,H   8,H   5)    -43.09 -0.000015    0.01    -43.07   
   308. D(H  11,O   9,H   2,H  10)   -107.85 -0.000042    0.00   -107.84   
   309. D(H  10,O   9,H   2,H   4)    -33.44  0.000009    0.01    -33.43   
   310. D(H  10,O   9,H   2,O   6)     39.71  0.000036   -0.01     39.70   
   311. D(H  10,O   9,H   2,H   8)     54.80  0.000014   -0.00     54.80   
   312. D(H  10,O   9,H   2,H  11)    107.85  0.000042   -0.00    107.84   
   313. D(H  11,O   9,O   0,H   1)   -102.11  0.000019    0.00   -102.11   
   314. D(H  10,O   9,O   0,H   1)      6.04  0.000059   -0.00      6.04   
   315. D(O   6,H  10,O   9,H   2)    -44.10  0.000006   -0.00    -44.10   
   316. D(O   6,H  10,O   9,H  11)     62.72  0.000047   -0.00     62.72   
   317. D(H   7,H  10,O   9,H   8)    -13.31 -0.000047    0.00    -13.31   
   318. D(H   7,H  10,O   9,H  11)     45.20  0.000005    0.00     45.20   
   319. D(H   8,H  10,O   9,H   2)    -48.31  0.000011    0.00    -48.31   
   320. D(H   8,H  10,O   9,H  11)     58.51  0.000052   -0.00     58.51   
   321. D(H   2,H  10,O   9,H  11)    106.82  0.000041   -0.00    106.82   
   322. D(H   7,H  10,H   8,O   6)    -34.68 -0.000083    0.01    -34.67   
   323. D(H   2,H  10,H   8,H   5)     86.66  0.000001   -0.01     86.65   
   324. D(H   2,H  10,H   8,O   0)      5.85  0.000031   -0.00      5.85   
   325. D(H   2,H  10,H   8,O   9)    -43.57  0.000010   -0.03    -43.60   
   326. D(H   2,H  10,H   8,H   1)     24.62 -0.000075    0.02     24.63   
   327. D(H   2,H  10,H   8,H  11)    -77.47  0.000063   -0.03    -77.50   
   328. D(O   9,H  10,H   8,H   5)    130.23 -0.000009    0.02    130.25   
   329. D(O   9,H  10,H   8,O   0)     49.42  0.000021    0.02     49.44   
   330. D(O   9,H  10,H   8,H   1)     68.19 -0.000085    0.04     68.23   
   331. D(O   9,H  10,H   8,H   2)     43.57 -0.000010    0.03     43.60   
   332. D(O   9,H  10,H   8,O   6)    167.66 -0.000014    0.01    167.67   
   333. D(H   5,H  10,H   7,O   6)    -49.14 -0.000017    0.02    -49.12   
   334. D(H   8,H  10,H   7,H   5)     83.32 -0.000088    0.01     83.33   
   335. D(H   8,H  10,H   7,O   6)     34.18 -0.000106    0.03     34.21   
   336. D(H   2,H  10,H   7,H   5)     65.39 -0.000019   -0.01     65.38   
   337. D(H   2,H  10,H   7,O   6)     16.24 -0.000037    0.01     16.25   
   338. D(O   9,H  10,H   7,H   5)    109.06 -0.000012    0.01    109.07   
   339. D(O   9,H  10,H   7,O   6)     59.92 -0.000029    0.04     59.95   
   340. D(H   8,H  10,O   6,H   2)     48.53  0.000009    0.01     48.54   
   341. D(H   8,H  10,O   6,H   7)   -114.16 -0.000026    0.02   -114.14   
   342. D(H   2,H  10,O   6,H   5)     82.11  0.000025   -0.02     82.10   
   343. D(H   2,H  10,O   6,H   1)     17.25 -0.000052    0.01     17.26   
   344. D(H   2,H  10,O   6,H   7)   -162.69 -0.000034    0.01   -162.67   
   345. D(O   9,H  10,O   6,H   5)    117.64  0.000023    0.00    117.65   
   346. D(O   9,H  10,O   6,H   2)     35.53 -0.000002    0.02     35.55   
   347. D(O   9,H  10,O   6,H   1)     52.78 -0.000053    0.03     52.81   
   348. D(O   9,H  10,O   6,H   8)    -13.00 -0.000010    0.01    -12.99   
   349. D(O   9,H  10,O   6,H   7)   -127.15 -0.000036    0.03   -127.12   
   350. D(H   8,H  10,H   5,O   6)    -17.61  0.000041   -0.01    -17.62   
   351. D(H   2,H  10,O   6,H   8)    -48.53 -0.000009   -0.01    -48.54   
   352. D(H   8,H  10,H   5,O   3)    163.56  0.000013    0.00    163.56   
   353. D(H   2,H  10,H   5,H   7)   -104.64 -0.000017   -0.00   -104.64   
   354. D(H   2,H  10,H   5,H   8)    -64.61  0.000011   -0.01    -64.62   
   355. D(H   8,H  10,O   6,H   1)     65.78 -0.000043    0.02     65.80   
   356. D(H   2,H  10,H   5,O   6)    -82.22  0.000052   -0.02    -82.24   
   357. D(H   2,H  10,H   5,O   3)     98.95  0.000024   -0.00     98.94   
   358. D(O   9,H  10,H   5,H   7)   -103.72 -0.000013    0.01   -103.71   
   359. D(O   9,H  10,H   5,H   8)    -63.69  0.000015    0.00    -63.69   
   360. D(O   9,H  10,H   5,O   6)    -81.30  0.000056   -0.01    -81.31   
   361. D(O   9,H  10,H   5,O   3)     99.87  0.000027    0.01     99.88   
   362. D(H   7,H  10,H   4,O   3)    -38.65  0.000053   -0.00    -38.65   
   363. D(O   6,H  10,H   7,H   5)     49.14  0.000017   -0.02     49.12   
   364. D(H   8,H  10,H   4,H   1)     37.35  0.000043   -0.01     37.34   
   365. D(H   8,H  10,H   4,H   2)     57.90  0.000002    0.01     57.90   
   366. D(H   8,H  10,H   4,O   3)    -70.28  0.000041    0.00    -70.27   
   367. D(O   9,H  10,H   8,H  11)    -33.90  0.000053   -0.01    -33.90   
   368. D(H   2,H  10,H   4,H   1)    -20.55  0.000041   -0.01    -20.56   
   369. D(H   2,H  10,H   4,O   3)   -128.17  0.000039   -0.00   -128.17   
   370. D(O   9,H  10,H   4,H   1)    -50.24  0.000069   -0.02    -50.26   
   371. D(H   2,H  10,H   8,O   6)    124.09 -0.000004   -0.01    124.07   
   372. D(O   9,H  10,H   4,H   2)    -29.69  0.000028   -0.01    -29.70   
   373. D(O   9,H  10,H   4,O   3)   -157.87  0.000067   -0.01   -157.88   
   374. D(H   7,H  10,H   2,O   9)    129.61 -0.000032    0.01    129.62   
   375. D(H   7,H  10,H   2,O   0)    -49.67  0.000021    0.00    -49.67   
   376. D(H   8,H  10,H   2,H   4)    -99.34  0.000022    0.01    -99.33   
   377. D(H   8,H  10,H   2,O   6)    -16.72  0.000027   -0.01    -16.73   
   378. D(H   8,H  10,H   2,H  11)     79.46  0.000077   -0.00     79.45   
   379. D(H   2,H  10,O   9,H   8)     48.31 -0.000011   -0.00     48.31   
   380. D(H   8,H  10,H   2,O   9)    118.54  0.000000   -0.00    118.54   
   381. D(H   8,H  10,H   2,O   0)    -60.74  0.000053   -0.01    -60.75   
   382. D(O   9,H  10,H   2,H   4)    142.12  0.000022    0.01    142.13   
   383. D(H   7,H  10,O   9,H   2)    -61.62 -0.000036    0.00    -61.62   
   384. D(O   9,H  10,H   2,O   6)   -135.26  0.000027   -0.01   -135.27   
   385. D(O   9,H  10,H   2,H   8)   -118.54 -0.000000    0.00   -118.54   
   386. D(O   9,H  10,H   2,H  11)    -39.08  0.000077   -0.00    -39.09   
   387. D(O   6,H  10,O   9,H   8)      4.21 -0.000005   -0.00      4.21   
   388. D(O   9,H  10,H   2,O   0)   -179.28  0.000053   -0.01   -179.29   
   389. D(H   2,H  11,H   8,O   6)    107.65 -0.000019   -0.00    107.64   
   390. D(O   9,H  11,H   8,H   5)     20.41  0.000004    0.00     20.41   
   391. D(O   9,H  11,H   8,O   0)    -52.88 -0.000066    0.03    -52.85   
   392. D(O   9,H  11,H   8,H  10)     34.00  0.000058   -0.02     33.98   
   393. D(O   9,H  11,H   8,H   2)    -44.17 -0.000038    0.01    -44.16   
   394. D(O   9,H  11,H   8,O   6)     63.48 -0.000057    0.01     63.49   
   395. D(H   8,H  11,H   2,H  10)    -82.05  0.000005    0.00    -82.05   
   396. D(H   8,H  11,H   2,O   9)   -120.07 -0.000008   -0.00   -120.07   
   397. D(H   8,H  11,H   2,O   0)     70.11 -0.000054   -0.01     70.10   
   398. D(O   9,H  11,H   2,H   4)     39.11 -0.000037    0.02     39.13   
   399. D(O   9,H  11,H   8,H   1)    -42.37 -0.000090    0.03    -42.34   
   400. D(O   9,H  11,H   2,O   6)    106.69  0.000019   -0.00    106.68   
   401. D(O   9,H  11,H   2,H   8)    120.07  0.000008    0.00    120.07   
   402. D(O   9,H  11,H   2,H  10)     38.02  0.000013    0.00     38.03   
   403. D(H   2,H  11,H   8,H  10)     78.16  0.000095   -0.03     78.13   
   404. D(O   9,H  11,H   2,O   0)   -169.82 -0.000046   -0.01   -169.83   
   405. D(H   8,H  11,O   9,H   2)     48.18  0.000000   -0.02     48.16   
   406. D(H   8,H  11,O   9,H  10)    -60.48 -0.000054    0.02    -60.46   
   407. D(H   2,H  11,O   9,H   8)    -48.18 -0.000000    0.02    -48.16   
   408. D(H   2,H  11,O   9,H  10)   -108.66 -0.000054    0.04   -108.62   
   409. D(H   2,H  11,H   8,H   1)      1.80 -0.000052    0.02      1.82   
    ----------------------------------------------------------------------------

Geometry step timings:
Preparation and reading OPT file:      0.000 s ( 0.000 %)
Internal coordinates            :      0.001 s ( 2.083 %)
B/P matrices and projection     :      0.012 s (25.000 %)
Hessian update/contruction      :      0.011 s (22.917 %)
Making the step                 :      0.017 s (35.417 %)
Converting the step to Cartesian:      0.001 s ( 2.083 %)
Storing new data                :      0.001 s ( 2.083 %)
Checking convergence            :      0.000 s ( 0.000 %)
Final printing                  :      0.005 s (10.417 %)
Total time                      :      0.048 s

Time for energy+gradient        :     16.045 s
Time for complete geometry iter :     16.291 s

         *************************************************************
         *                GEOMETRY OPTIMIZATION CYCLE   2            *
         *************************************************************
---------------------------------
CARTESIAN COORDINATES (ANGSTROEM)
---------------------------------
  O     31.010919  -21.173837    1.813741
  H     30.673427  -21.244175    0.912574
  H     31.957731  -21.399340    1.722956
  O     32.608687  -20.769405   -1.188801
  H     32.547397  -20.291774   -0.352407
  H     32.357147  -21.681986   -0.948019
  O     31.903904  -23.485340   -0.488589
  H     32.700061  -23.971757   -0.739341
  H     31.963709  -23.435335    0.475116
  O     33.800637  -21.837387    1.705005
  H     34.018607  -21.940611    0.768674
  H     33.799353  -22.743343    2.039872

----------------------------
CARTESIAN COORDINATES (A.U.)
----------------------------
  NO LB      ZA    FRAG     MASS         X           Y           Z
   0 O     8.0000    0    15.999   58.602144  -40.012753    3.427473
   1 H     1.0000    0     1.008   57.964376  -40.145673    1.724515
   2 H     1.0000    0     1.008   60.391359  -40.438893    3.255915
   3 O     8.0000    0    15.999   61.621489  -39.248487   -2.246509
   4 H     1.0000    0     1.008   61.505667  -38.345896   -0.665953
   5 H     1.0000    0     1.008   61.146146  -40.973015   -1.791496
   6 O     8.0000    0    15.999   60.289642  -44.380861   -0.923299
   7 H     1.0000    0     1.008   61.794161  -45.300056   -1.397153
   8 H     1.0000    0     1.008   60.402656  -44.286365    0.897840
   9 O     8.0000    0    15.999   63.873946  -41.266681    3.221992
  10 H     1.0000    0     1.008   64.285851  -41.461745    1.452584
  11 H     1.0000    0     1.008   63.871521  -42.978689    3.854800

--------------------------------
INTERNAL COORDINATES (ANGSTROEM)
--------------------------------
 O      0   0   0     0.000000000000     0.00000000     0.00000000
 H      1   0   0     0.964857852313     0.00000000     0.00000000
 H      1   2   0     0.977520456260   103.60558547     0.00000000
 O      2   1   3     2.895931477906   115.59639369   332.63686464
 H      4   2   1     0.965112732879    53.83196280   321.31516385
 H      4   2   1     0.976755989267    59.72532423   100.78585090
 O      6   4   2     1.915356965781   178.67746300   208.82291784
 H      7   6   4     0.966097722568   102.51972558   358.23163989
 H      7   6   4     0.966853163144   100.12251304   104.66483185
 O      3   1   2     1.894335770381   175.21399373   188.68426397
 H     10   3   1     0.966892349704   104.66559790   177.24392853
 H     10   3   1     0.965864148146   102.25830524    69.40138181

---------------------------
INTERNAL COORDINATES (A.U.)
---------------------------
 O      0   0   0     0.000000000000     0.00000000     0.00000000
 H      1   0   0     1.823317099035     0.00000000     0.00000000
 H      1   2   0     1.847245952637   103.60558547     0.00000000
 O      2   1   3     5.472517395843   115.59639369   332.63686464
 H      4   2   1     1.823798753501    53.83196280   321.31516385
 H      4   2   1     1.845801319381    59.72532423   100.78585090
 O      6   4   2     3.619500114025   178.67746300   208.82291784
 H      7   6   4     1.825660114258   102.51972558   358.23163989
 H      7   6   4     1.827087690057   100.12251304   104.66483185
 O      3   1   2     3.579775811712   175.21399373   188.68426397
 H     10   3   1     1.827161741923   104.66559790   177.24392853
 H     10   3   1     1.825218722569   102.25830524    69.40138181



           ************************************************************
           *        Program running with 4 parallel MPI-processes     *
           *              working on a common directory               *
           ************************************************************
------------------------------------------------------------------------------
                   ___                                                        
                  /   \      - P O W E R E D   B Y -                         
                 /     \                                                     
                 |  |  |   _    _      __       _____    __    __             
                 |  |  |  | |  | |    /  \     |  _  \  |  |  /  |          
                  \  \/   | |  | |   /    \    | | | |  |  | /  /          
                 / \  \   | |__| |  /  /\  \   | |_| |  |  |/  /          
                |  |  |   |  __  | /  /__\  \  |    /   |      \           
                |  |  |   | |  | | |   __   |  |    \   |  |\   \          
                \     /   | |  | | |  |  |  |  | |\  \  |  | \   \       
                 \___/    |_|  |_| |__|  |__|  |_| \__\ |__|  \__/        
                                                                              
                      - O R C A' S   B I G   F R I E N D -                    
                                      &                                       
                       - I N T E G R A L  F E E D E R -                       
                                                                              
 v1 FN, 2020, v2 2021, v3 2022-2024                                           
------------------------------------------------------------------------------


----------------------
SHARK INTEGRAL PACKAGE
----------------------

Number of atoms                             ...     12
Number of basis functions                   ...    136
Number of shells                            ...     64
Maximum angular momentum                    ...      2
Integral batch strategy                     ... SHARK/LIBINT Hybrid
RI-J (if used) integral strategy            ... SPLIT-RIJ (Revised 2003 algorithm where possible)
Printlevel                                  ...      1
Contraction scheme used                     ... SEGMENTED contraction
Prescreening option                         ... SCHWARTZ
   Thresh                                   ... 2.500e-11
   Tcut                                     ... 2.500e-12
   Tpresel                                  ... 2.500e-12 
Coulomb Range Separation                    ... NOT USED
Exchange Range Separation                   ... NOT USED
Multipole approximations                    ... NOT USED
Finite Nucleus Model                        ... NOT USED
CABS basis                                  ... NOT available
Auxiliary Coulomb fitting basis             ... AVAILABLE
   # of basis functions in Aux-J            ...    208
   # of shells in Aux-J                     ...     88
   Maximum angular momentum in Aux-J        ...      2
Auxiliary J/K fitting basis                 ... NOT available
Auxiliary Correlation fitting basis         ... NOT available
Auxiliary 'external' fitting basis          ... NOT available

Checking pre-screening integrals            ... done (  0.0 sec) Dimension = 64
   => SHARK Basis and OBASIS are compatible. Storing Pre-screening
Shell pair information
Shell pair cut-off parameter TPreSel        ...   2.5e-12
Total number of shell pairs                 ...      2080
Shell pairs after pre-screening             ...      1945
Total number of primitive shell pairs       ...      6898
Primitive shell pairs kept                  ...      4755
          la=0 lb=0:    613 shell pairs
          la=1 lb=0:    664 shell pairs
          la=1 lb=1:    205 shell pairs
          la=2 lb=0:    268 shell pairs
          la=2 lb=1:    159 shell pairs
          la=2 lb=2:     36 shell pairs

Checking whether 4 symmetric matrices of dimension 136 fit in memory
:Max Core in MB      =   2000.00
 MB in use           =      3.34
 MB left             =   1996.66
 MB needed           =      0.28
 Data fit in memory  = YES
Calculating RI/J V-Matrix + Cholesky decomp.... done (  0.0 sec)
Calculating Nuclear repulsion               ... done (  0.0 sec) ENN=    139.174933969160 Eh

Diagonalization of the overlap matrix:
Smallest eigenvalue                        ... 7.875e-04
Time for diagonalization                   ...    0.003 sec
Threshold for overlap eigenvalues          ... 1.000e-07
Number of eigenvalues below threshold      ... 0
Time for construction of square roots      ...    0.003 sec
Total time needed                          ...    0.006 sec

-------------------
DFT GRID GENERATION
-------------------

General Integration Accuracy     IntAcc      ... 4.388
Radial Grid Type                 RadialGrid  ... OptM3 with GC (2021)
Angular Grid (max. ang.)         AngularGrid ... 4 (Lebedev-302)
Angular grid pruning method      GridPruning ... 4 (adaptive)
Weight generation scheme         WeightScheme... mBecke (2022)
Basis function cutoff            BFCut       ... 1.0000e-11
Integration weight cutoff        WCut        ... 1.0000e-14
Partially contracted basis set               ... off
Rotationally invariant grid construction     ... off
Angular grids for H and He will be reduced by one unit
Diffuse basis detected: some atoms will have their outermost
                        angular grid increased by 1.

Total number of grid points                  ...    51725
Total number of batches                      ...      816
Average number of points per batch           ...       63
Average number of grid points per atom       ...     4310
Grids setup in   0.5 sec
Initializing property integral containers    ... done (  0.1 sec)

SHARK setup successfully completed in   0.7 seconds

Maximum memory used throughout the entire STARTUP-calculation: 13.6 MB


           ************************************************************
           *        Program running with 4 parallel MPI-processes     *
           *              working on a common directory               *
           ************************************************************
Occupation numbers will be reassigned to an Aufbau configuration
             **** ENERGY FILE WAS UPDATED (Explicit4H2O_SMD_water_Opt_KeepDens_restart.en.tmp) ****
Finished Guess after   0.2 sec
Maximum memory used throughout the entire GUESS-calculation: 6.1 MB


           ************************************************************
           *        Program running with 4 parallel MPI-processes     *
           *              working on a common directory               *
           ************************************************************
--------------------
CPCM SOLVATION MODEL
--------------------
CPCM parameters:
  Epsilon                                         ...      78.3550
  Refrac                                          ...       1.3328
  Rsolv                                           ...       1.3000
  Surface type                                    ... GAUSSIAN VDW
  Discretization scheme                           ... Constant charge density
    Threshold for H atoms                         ...       5.0000 (charges/Ang^2)
    Threshold for non-H atoms                     ...       5.0000 (charges/Ang^2)
  Epsilon function type                           ...         CPCM
Solvent:                                          ... WATER
SMD-CDS solvent descriptors:
  Soln                                            ...       1.3328
  Soln25                                          ...       1.3323
  Sola                                            ...       0.0000
  Solb                                            ...       0.0000
  Solg                                            ...       0.0000
  Solc                                            ...       0.0000
  Solh                                            ...       0.0000
Radii:
  Scheme                                          ... Element-dependent radii
  Radius for O  used is    2.8724 Bohr (=   1.5200 Ang.)
  Radius for H  used is    2.2677 Bohr (=   1.2000 Ang.)
Calculating surface                               ...        done! (  0.0s)
Cavity surface points                             ...          951
Cavity Volume                                     ...     496.5478
Cavity Surface-area                               ...     466.6611
Calculating surface distance matrix               ...        done! (  0.0s)
Performing Cholesky decomposition & store         ...        done! (  0.0s)
Overall time for CPCM initialization              ...                 0.1s

----------------------------------------D-I-I-S--------------------------------------------
Iteration    Energy (Eh)           Delta-E    RMSDP     MaxDP     DIISErr   Damp  Time(sec)
-------------------------------------------------------------------------------------------
               ***  Starting incremental Fock matrix formation  ***
                              *** Initializing SOSCF ***
---------------------------------------S-O-S-C-F--------------------------------------
Iteration    Energy (Eh)           Delta-E    RMSDP     MaxDP     MaxGrad    Time(sec)
--------------------------------------------------------------------------------------
    1    -305.7535906573341435     0.00e+00  3.81e-05  5.10e-04  3.06e-05     1.5
               *** Restarting incremental Fock matrix formation ***
    2    -305.7535920357487385    -1.38e-06  1.70e-05  1.94e-04  4.20e-05     1.0
    3    -305.7535919734516483     6.23e-08  9.14e-06  1.02e-04  7.44e-05     0.7
    4    -305.7535921551540241    -1.82e-07  1.37e-06  1.20e-05  6.87e-06     0.8
    5    -305.7535921573133919    -2.16e-09  3.99e-07  3.99e-06  3.54e-06     0.6
                 **** Energy Check signals convergence ****

               *****************************************************
               *                     SUCCESS                       *
               *           SCF CONVERGED AFTER   5 CYCLES          *
               *****************************************************


SMD CDS free energy correction energy :                 3.28665     Kcal/mol
Total Energy after SMD CDS correction =              -305.748354549 Eh
             **** ENERGY FILE WAS UPDATED (Explicit4H2O_SMD_water_Opt_KeepDens_restart.en.tmp) ****

----------------
TOTAL SCF ENERGY
----------------

Total Energy       :       -305.74835454913944 Eh           -8319.83570 eV

Components:
Nuclear Repulsion  :        139.17493396916038 Eh            3787.14249 eV
Electronic Energy  :       -444.86496627468983 Eh          -12105.39116 eV
One Electron Energy:       -696.32164618661466 Eh          -18947.87528 eV
Two Electron Energy:        251.45667991192482 Eh            6842.48413 eV
CPCM Dielectric    :         -0.06355985185380 Eh              -1.72955 eV
SMD CDS (Gcds)     :          0.00523760824387 Eh               0.14252 eV

Virial components:
Potential Energy   :       -610.21378182186936 Eh          -16604.76117 eV
Kinetic Energy     :        304.46542727272987 Eh            8284.92547 eV
Virial Ratio       :          2.00421370428788

DFT components:
N(Alpha)           :       20.000020964336 electrons
N(Beta)            :       20.000020964336 electrons
N(Total)           :       40.000041928673 electrons
E(X)               :      -35.920787330677 Eh       
E(C)               :       -1.288229175425 Eh       
E(XC)              :      -37.209016506102 Eh       

CPCM Solvation Model Properties:
Surface-charge          :         -0.04407580615769
Corrected charge        :         -0.00000000000000
Outlying charge corr.   :          0.00017805810454 Eh               0.00485 eV
Free-energy (cav+disp)  :          0.00523760824387 Eh               0.14252 eV

---------------
SCF CONVERGENCE
---------------

  Last Energy change         ...    2.1594e-09  Tolerance :   1.0000e-08
  Last MAX-Density change    ...    3.9900e-06  Tolerance :   1.0000e-07
  Last RMS-Density change    ...    3.9923e-07  Tolerance :   5.0000e-09
  Last DIIS Error            ...    5.4555e-04  Tolerance :   5.0000e-07
  Last Orbital Gradient      ...    3.5394e-06  Tolerance :   1.0000e-05
  Last Orbital Rotation      ...    2.8159e-06  Tolerance :   1.0000e-05


Total SCF time: 0 days 0 hours 0 min 5 sec 
Finished LeanSCF after   5.9 sec

Maximum memory used throughout the entire LEANSCF-calculation: 7.1 MB


           ************************************************************
           *        Program running with 4 parallel MPI-processes     *
           *              working on a common directory               *
           ************************************************************

------------------------------------------------------------------------------
                         ORCA PROPERTY INTEGRAL CALCULATIONS
------------------------------------------------------------------------------

GBWName                                   ... Explicit4H2O_SMD_water_Opt_KeepDens_restart.gbw
Number of atoms                           ...     12
Number of basis functions                 ...    136
Max core memory                           ...   2000 MB

Dipole integrals                          ... YES
Quadrupole integrals                      ...  NO
Linear momentum integrals                 ...  NO
Angular momentum integrals                ...  NO
Higher moments length integrals           ...  NO
Higher moments velocity integrals         ...  NO
Kinetic energy integrals                  ...  NO
GIAO right hand sides                     ...  NO
GIAO dipole derivative integrals          ...  NO
SOC integrals                             ...  NO
EPR diamagnetic integrals (GIAO)          ...  NO
EPR gauge integrals                       ...  NO
Field gradient integrals                  ...  NO (   0 nuclei)
Spin-dipole/Fermi contact integrals       ...  NO (   0 nuclei)
Contact density integrals                 ...  NO (   0 nuclei)
Nucleus-orbit integrals                   ...  NO (   0 nuclei)
Geometric perturbations                   ...  NO (  12 nuclei)

Choice of electric origin   ... Center of mass
Position of electric origin ... ( 61.1330,-41.2847,  0.8751) 
Choice of magnetic origin   ... GIAO
Position of magnetic origin ... (  0.0000,  0.0000,  0.0000) 

Calculating integrals                     ... Electric Dipole (Length)     done (  0.0 sec)

Property integrals calculated in   0.1 sec

Maximum memory used throughout the entire PROPINT-calculation: 6.1 MB


-------------------------------------------------------------------------------
                          DFT DISPERSION CORRECTION                            
                                                                               
                                DFTD4 V3.4.0                                   
-------------------------------------------------------------------------------
-------------------------   ----------------
Dispersion correction           -0.001697567
-------------------------   ----------------

------------------   -----------------
gCP correction             0.010741878
------------------   -----------------

-------------------------   --------------------
FINAL SINGLE POINT ENERGY      -305.739310238849
-------------------------   --------------------



           ************************************************************
           *        Program running with 4 parallel MPI-processes     *
           *              working on a common directory               *
           ************************************************************
------------------------------------------------------------------------------
                         ORCA SCF GRADIENT CALCULATION
------------------------------------------------------------------------------

Nuc. rep. gradient        (SHARK) ... done (  0.0 sec)
HCore & Overlap gradient  (SHARK) ... done (  0.1 sec)
Split-RIJ-J gradient      (SHARK) ... done (  0.2 sec)
XC gradient                       ... done (  1.8 sec)
CPCM gradient                     ... done (  0.3 sec)
SMD gradient                      ... done (  0.0 sec)
Dispersion correction             ... done (  0.1 sec)

-------------------
DISPERSION GRADIENT
-------------------

   1   O   :   -0.000026028    0.000015294    0.000016797
   2   H   :   -0.000020976    0.000012281    0.000025125
   3   H   :   -0.000021260    0.000012647    0.000023497
   4   O   :   -0.000001064    0.000023309   -0.000023876
   5   H   :    0.000003785    0.000016553   -0.000029619
   6   H   :    0.000003164    0.000017906   -0.000028160
   7   O   :    0.000005362   -0.000051048   -0.000012665
   8   H   :   -0.000012738   -0.000020712   -0.000015726
   9   H   :   -0.000009959   -0.000020482   -0.000020774
  10   O   :    0.000041008   -0.000018893    0.000021905
  11   H   :    0.000017873    0.000005704    0.000023895
  12   H   :    0.000020833    0.000007442    0.000019602

Difference to translation invariance:
           :    0.0000000000   -0.0000000000    0.0000000000

Difference to rotation invariance:
           :   -0.0000000000   -0.0000000000    0.0000000000

Norm of the Dispersion gradient    ...    0.0001260244
RMS gradient                       ...    0.0000210041
MAX gradient                       ...    0.0000510476
gCP correction                   ... done

------------------
CARTESIAN GRADIENT
------------------

   1   O   :   -0.000134165    0.000022373    0.000412873
   2   H   :   -0.000169155    0.000030704    0.000075640
   3   H   :    0.000313349   -0.000053782   -0.000243076
   4   O   :    0.000038407   -0.000053182    0.000091148
   5   H   :    0.000036056   -0.000010543    0.000001867
   6   H   :    0.000113009    0.000004987   -0.000154523
   7   O   :   -0.000045312    0.000182006    0.000261935
   8   H   :   -0.000043008   -0.000026193   -0.000107389
   9   H   :    0.000100916   -0.000220652   -0.000033204
  10   O   :   -0.000566866   -0.000071927   -0.000419312
  11   H   :    0.000451426   -0.000131869   -0.000001714
  12   H   :   -0.000094655    0.000328079    0.000115754

Difference to translation invariance:
           :    0.0000000000   -0.0000000000    0.0000000000

Difference to rotation invariance:
           :   -0.0005187232    0.0007793879   -0.0000693668

Norm of the Cartesian gradient     ...    0.0012109682
RMS gradient                       ...    0.0002018280
MAX gradient                       ...    0.0005668665

-------
TIMINGS
-------

Total SCF gradient time     ....        2.542 sec

One electron gradient       ....       0.066 sec  (  2.6%)
RI-J Coulomb gradient       ....       0.204 sec  (  8.0%)
XC gradient                 ....       1.786 sec  ( 70.3%)
CPCM gradient               ....       0.285 sec  ( 11.2%)
   A-Matrix (El+Nuc)        ....       0.021 sec  (  0.8%)
   Potential                ....       0.264 sec  ( 10.4%)
SMD gradient                ....       0.006 sec  (  0.2%)

Maximum memory used throughout the entire SCFGRAD-calculation: 25.8 MB
------------------------------------------------------------------------------
                         ORCA GEOMETRY RELAXATION STEP
------------------------------------------------------------------------------

Reading the OPT-File                    .... done
Getting information on internals        .... done
Copying old internal coords+grads       .... done
Making the new internal coordinates     .... (2022 redundants) done
Validating the new internal coordinates .... (2022 redundants) done
Calculating the B-matrix                .... done
Calculating the G,G- and P matrices     .... done
Transforming gradient to internals      .... done
Projecting the internal gradient        .... done
Number of atoms                         ....  12
Number of internal coordinates          .... 409
Current Energy                          ....  -305.739310239 Eh
Current gradient norm                   ....     0.001210968 Eh/bohr
Maximum allowed component of the step   ....  0.300
Current trust radius                    ....  0.300
Updating the Hessian (BFGS)             .... done
Forming the augmented Hessian           .... done
Diagonalizing the augmented Hessian     .... done
Last element of RFO vector              ....  0.999949400
Lowest eigenvalues of augmented Hessian:
 -0.000003305  0.013149268  0.026481219  0.031439783  0.035248260
Length of the computed step             ....  0.010060250
The final length of the internal step   ....  0.010060250
Converting the step to Cartesian space:
 Initial RMS(Int)=    0.0004974473
Transforming coordinates:
 Iter   0:  RMS(Cart)=    0.0009023054 RMS(Int)=    0.0004974718
done
Storing new coordinates                 .... done
The predicted energy change is          ....    -0.000001653
Previously predicted energy change      ....    -0.000005918
Actually observed energy change         ....    -0.000007430
Ratio of predicted to observed change   ....     1.255505355
New trust radius                        ....     0.300000000

                                .--------------------.
          ----------------------|Geometry convergence|-------------------------
          Item                value                   Tolerance       Converged
          ---------------------------------------------------------------------
          Energy change      -0.0000074301            0.0000050000      NO
          RMS gradient        0.0000201732            0.0001000000      YES
          MAX gradient        0.0001129014            0.0003000000      YES
          RMS step            0.0004974473            0.0020000000      YES
          MAX step            0.0033834231            0.0040000000      YES
          -------------------------------------------------------------------------
          ........................................................
          Max(Bonds)      0.0018      Max(Angles)    0.06
          Max(Dihed)        0.06      Max(Improp)    0.00
          ---------------------------------------------------------------------

       Everything but the energy has converged. However, the energy
       appears to be close enough to convergence to make sure that the
       final evaluation at the new geometry represents the equilibrium energy.
       Convergence will therefore be signaled now


                    ***********************HURRAY********************
                    ***        THE OPTIMIZATION HAS CONVERGED     ***
                    *************************************************


    ---------------------------------------------------------------------------
                         Redundant Internal Coordinates

                          --- Optimized Parameters ---  
                            (Angstroem and degrees)

        Definition                    OldVal   dE/dq     Step     FinalVal
    ----------------------------------------------------------------------------
     1. B(H   1,O   0)                0.9649  0.000036  0.0001    0.9650   
     2. B(H   2,O   0)                0.9775  0.000106 -0.0006    0.9769   
     3. B(H   4,O   3)                0.9651  0.000012 -0.0000    0.9651   
     4. B(H   4,H   2)                2.4252 -0.000018  0.0001    2.4252   
     5. B(H   4,H   1)                2.4534  0.000095 -0.0013    2.4521   
     6. B(H   5,O   3)                0.9768 -0.000039  0.0002    0.9769   
     7. B(O   6,H   1)                2.9155  0.000035 -0.0004    2.9151   
     8. B(O   6,H   5)                1.9154  0.000020 -0.0005    1.9149   
     9. B(O   6,H   2)                3.0406 -0.000020  0.0004    3.0410   
    10. B(H   7,H   5)                2.3247  0.000013 -0.0002    2.3245   
    11. B(H   7,O   6)                0.9661  0.000028 -0.0002    0.9659   
    12. B(H   8,H   1)                2.5802  0.000045 -0.0002    2.5800   
    13. B(H   8,O   6)                0.9669 -0.000025  0.0002    0.9671   
    14. B(H   8,H   2)                2.3880 -0.000003  0.0004    2.3884   
    15. B(H   8,H   5)                2.2922  0.000016 -0.0003    2.2919   
    16. B(H   8,O   0)                2.7954  0.000070 -0.0001    2.7952   
    17. B(O   9,H   2)                1.8943 -0.000073  0.0014    1.8958   
    18. B(O   9,H   8)                2.7277 -0.000061  0.0013    2.7290   
    19. B(H  10,H   8)                2.5579  0.000005  0.0007    2.5586   
    20. B(H  10,O   9)                0.9669 -0.000019  0.0001    0.9669   
    21. B(H  10,H   5)                2.4030 -0.000030  0.0010    2.4040   
    22. B(H  10,H   2)                2.3347  0.000002  0.0005    2.3352   
    23. B(H  10,O   6)                2.9050 -0.000011  0.0008    2.9058   
    24. B(H  10,H   7)                2.8528 -0.000001  0.0005    2.8532   
    25. B(H  10,H   4)                2.4779 -0.000046  0.0009    2.4788   
    26. B(H  11,H   8)                2.5094 -0.000049  0.0016    2.5109   
    27. B(H  11,H   2)                2.3018 -0.000113  0.0018    2.3036   
    28. B(H  11,O   9)                0.9659 -0.000073  0.0003    0.9662   
    29. A(H   1,O   0,H   2)          103.61 -0.000033    0.02    103.62   
    30. A(H   2,O   0,H   8)           55.86 -0.000024    0.02     55.88   
    31. A(H   1,O   0,H   8)           67.23 -0.000011   -0.00     67.23   
    32. A(O   6,H   1,H   8)           19.03 -0.000007    0.01     19.04   
    33. A(O   0,H   1,O   6)          110.93  0.000002    0.01    110.94   
    34. A(O   0,H   1,H   4)          100.73 -0.000012    0.02    100.74   
    35. A(O   0,H   1,H   8)           92.60  0.000008   -0.00     92.60   
    36. A(H   4,H   1,O   6)           74.23 -0.000023    0.02     74.25   
    37. A(H   4,H   1,H   8)           81.97 -0.000032    0.03     82.00   
    38. A(O   6,H   2,H  10)           63.85  0.000001    0.01     63.86   
    39. A(O   6,H   2,H   8)           15.21 -0.000003    0.00     15.22   
    40. A(O   9,H   2,H  11)           24.21 -0.000006   -0.01     24.19   
    41. A(O   0,H   2,H   4)          102.10  0.000032   -0.04    102.06   
    42. A(H   8,H   2,H  11)           64.67  0.000003    0.01     64.68   
    43. A(O   6,H   2,H  11)           73.37 -0.000002    0.01     73.38   
    44. A(O   9,H   2,H  10)           23.62 -0.000011    0.00     23.62   
    45. A(O   0,H   2,H  11)          153.75 -0.000006    0.02    153.77   
    46. A(O   0,H   2,H  10)          161.16  0.000024   -0.02    161.14   
    47. A(H   4,H   2,H  10)           62.71 -0.000010    0.02     62.73   
    48. A(O   0,H   2,H   8)          104.34  0.000009   -0.01    104.32   
    49. A(H   4,H   2,O   9)           82.01 -0.000018    0.02     82.03   
    50. A(H   8,H   2,H  10)           65.58  0.000001    0.01     65.58   
    51. A(H   4,H   2,H   8)           86.65 -0.000002   -0.01     86.64   
    52. A(O   0,H   2,O   6)          102.04  0.000016   -0.02    102.02   
    53. A(O   6,H   2,O   9)           81.47 -0.000010    0.01     81.48   
    54. A(H  10,H   2,H  11)           38.25 -0.000008   -0.01     38.24   
    55. A(H   8,H   2,O   9)           78.20 -0.000007    0.01     78.20   
    56. A(H   4,H   2,H  11)          100.95 -0.000017    0.01    100.96   
    57. A(H   4,H   2,O   6)           72.25  0.000001   -0.01     72.24   
    58. A(H   4,O   3,H   5)          103.44  0.000008   -0.00    103.44   
    59. A(O   3,H   4,H  10)           91.44 -0.000011    0.01     91.45   
    60. A(H   1,H   4,H   2)           36.46  0.000011    0.01     36.47   
    61. A(H   1,H   4,O   3)          107.65  0.000004   -0.02    107.63   
    62. A(H   2,H   4,O   3)          122.08  0.000000   -0.00    122.07   
    63. A(H   1,H   4,H  10)           87.82  0.000020    0.00     87.82   
    64. A(H   2,H   4,H  10)           56.86  0.000008    0.00     56.86   
    65. A(H   7,H   5,H  10)           74.21  0.000003   -0.00     74.21   
    66. A(O   6,H   5,H  10)           83.74  0.000000    0.01     83.75   
    67. A(H   8,H   5,H  10)           65.97  0.000004    0.01     65.98   
    68. A(O   3,H   5,H  10)           95.66 -0.000007    0.00     95.66   
    69. A(O   3,H   5,H   8)          155.77 -0.000008    0.02    155.78   
    70. A(H   7,H   5,H   8)           38.39  0.000000   -0.00     38.38   
    71. A(O   3,H   5,H   7)          154.74  0.000005   -0.01    154.74   
    72. A(O   6,H   5,H   8)           24.53 -0.000008    0.01     24.54   
    73. A(O   6,H   5,H   7)           23.93  0.000007   -0.00     23.93   
    74. A(H   1,O   6,H  10)           71.97  0.000019   -0.01     71.96   
    75. A(H   1,O   6,H   8)           60.48  0.000004    0.02     60.50   
    76. A(H   1,O   6,H   7)          149.27  0.000022   -0.02    149.25   
    77. A(H   8,O   6,H  10)           59.74  0.000006   -0.00     59.74   
    78. A(H   7,O   6,H  10)           77.30  0.000003   -0.02     77.28   
    79. A(H   7,O   6,H   8)          103.52  0.000007   -0.03    103.49   
    80. A(H   5,O   6,H  10)           55.31 -0.000007    0.01     55.33   
    81. A(H   2,O   6,H   5)           61.60  0.000009   -0.01     61.59   
    82. A(H   1,O   6,H   5)           59.43  0.000026   -0.03     59.40   
    83. A(H   5,O   6,H   8)          100.12  0.000007    0.00    100.12   
    84. A(H   5,O   6,H   7)          102.52 -0.000015    0.02    102.54   
    85. A(H   1,O   6,H   2)           29.61  0.000014   -0.01     29.60   
    86. A(H   2,O   6,H  10)           46.17  0.000003    0.00     46.17   
    87. A(H   2,O   6,H   8)           40.40  0.000001    0.01     40.41   
    88. A(H   2,O   6,H   7)          121.31  0.000006   -0.02    121.29   
    89. A(O   6,H   7,H  10)           83.41 -0.000009    0.02     83.43   
    90. A(H   5,H   7,H  10)           54.15 -0.000008    0.02     54.17   
    91. A(H   5,H   7,O   6)           53.55  0.000008   -0.02     53.53   
    92. A(H   1,H   8,H  11)           91.48 -0.000008    0.02     91.50   
    93. A(H   1,H   8,H   2)           35.52  0.000013   -0.00     35.52   
    94. A(H   2,H   8,O   6)          124.39  0.000002   -0.01    124.37   
    95. A(H  10,H   8,H  11)           34.88 -0.000012   -0.01     34.87   
    96. A(H   2,H   8,H  10)           56.21  0.000000   -0.00     56.21   
    97. A(O   0,H   8,O   9)           62.59  0.000005    0.01     62.60   
    98. A(O   0,H   8,H   1)           20.17  0.000002    0.00     20.17   
    99. A(O   0,H   8,H  10)           75.29  0.000017   -0.01     75.28   
   100. A(O   6,H   8,H  10)          101.20 -0.000002    0.00    101.21   
   101. A(O   0,H   8,H  11)           74.19 -0.000009    0.01     74.21   
   102. A(O   0,H   8,H   2)           19.80  0.000015   -0.01     19.79   
   103. A(H   2,H   8,H  11)           56.00 -0.000021    0.02     56.03   
   104. A(H   1,H   8,O   6)          100.49  0.000003   -0.02    100.46   
   105. A(O   0,H   8,O   6)          119.87  0.000005   -0.02    119.85   
   106. A(O   0,H   8,H   5)           74.75  0.000019   -0.02     74.73   
   107. A(H   5,H   8,O   9)           73.52 -0.000014    0.02     73.53   
   108. A(H   1,H   8,H   5)           62.71  0.000023   -0.03     62.68   
   109. A(H   5,H   8,H  10)           59.10 -0.000010    0.02     59.12   
   110. A(H   5,H   8,H  11)           92.90 -0.000024    0.02     92.92   
   111. A(H   2,H   8,H   5)           70.89  0.000003   -0.01     70.89   
   112. A(H   1,H   8,O   9)           76.28  0.000006    0.01     76.29   
   113. A(H   5,H   8,O   6)           55.34  0.000001   -0.01     55.33   
   114. A(O   9,H   8,H  10)           20.76  0.000000   -0.01     20.75   
   115. A(O   9,H   8,H  11)           20.72 -0.000011   -0.00     20.72   
   116. A(O   6,H   8,H  11)          132.93 -0.000003   -0.01    132.92   
   117. A(H   2,H   8,O   9)           42.83 -0.000009    0.02     42.84   
   118. A(O   6,H   8,O   9)          121.42 -0.000004   -0.00    121.42   
   119. A(H   1,H   8,H  10)           83.46  0.000018   -0.01     83.44   
   120. A(H   2,O   9,H  11)          102.26 -0.000002    0.02    102.28   
   121. A(H   2,O   9,H  10)          104.67  0.000056   -0.06    104.60   
   122. A(H   2,O   9,H   8)           58.97  0.000016   -0.02     58.95   
   123. A(H   8,O   9,H  11)           66.79  0.000002    0.02     66.82   
   124. A(H   8,O   9,H  10)           69.67  0.000034   -0.03     69.64   
   125. A(H  10,O   9,H  11)          103.65  0.000006    0.01    103.65   
   126. A(H   4,H  10,O   6)           74.09  0.000003   -0.03     74.06   
   127. A(H   4,H  10,H   8)           81.95  0.000001   -0.03     81.92   
   128. A(O   6,H  10,H   7)           19.29  0.000006   -0.01     19.28   
   129. A(H   2,H  10,H   4)           60.43  0.000002   -0.02     60.41   
   130. A(H   4,H  10,O   9)          103.49 -0.000035    0.04    103.53   
   131. A(O   6,H  10,H   8)           19.06 -0.000004   -0.00     19.05   
   132. A(H   2,H  10,O   6)           69.98 -0.000003   -0.01     69.97   
   133. A(O   6,H  10,O   9)          108.17 -0.000040    0.04    108.21   
   134. A(H   7,H  10,H   8)           32.00  0.000002   -0.01     31.99   
   135. A(H   2,H  10,H   7)           88.46  0.000002   -0.02     88.44   
   136. A(H   7,H  10,O   9)          118.93 -0.000026    0.02    118.95   
   137. A(H   2,H  10,H   8)           58.21 -0.000002   -0.00     58.21   
   138. A(H   5,H  10,O   6)           40.95  0.000006   -0.02     40.93   
   139. A(H   5,H  10,H   7)           51.64  0.000005   -0.02     51.62   
   140. A(H   8,H  10,O   9)           89.57 -0.000034    0.04     89.60   
   141. A(H   5,H  10,H   8)           54.93  0.000006   -0.03     54.91   
   142. A(H   2,H  10,H   5)           69.92  0.000010   -0.03     69.90   
   143. A(H   5,H  10,O   9)          121.63 -0.000035    0.03    121.66   
   144. A(H   4,H  10,H   7)           87.72  0.000006   -0.03     87.69   
   145. A(H   2,H  10,O   9)           51.72 -0.000045    0.06     51.78   
   146. A(H   4,H  10,H   5)           36.36  0.000003   -0.01     36.34   
   147. A(H   2,H  11,H   8)           59.33  0.000018   -0.03     59.30   
   148. A(H   8,H  11,O   9)           92.49  0.000009   -0.02     92.47   
   149. A(H   2,H  11,O   9)           53.53  0.000008   -0.01     53.53   
   150. D(H   8,H   1,O   0,H   2)     43.29 -0.000012    0.01     43.31   
   151. D(O   6,H   1,O   0,H   2)     38.06 -0.000010    0.01     38.07   
   152. D(H   4,H   1,O   0,H   2)    -39.02  0.000019   -0.02    -39.04   
   153. D(H   4,H   1,O   0,H   8)    -82.31  0.000031   -0.03    -82.35   
   154. D(O   6,H   1,O   0,H   8)     -5.24  0.000002   -0.00     -5.24   
   155. D(H   8,H   2,O   0,H   1)    -49.82  0.000001    0.00    -49.81   
   156. D(O   6,H   2,O   0,H   8)     15.45 -0.000001    0.00     15.45   
   157. D(H  10,H   2,O   0,H   1)      5.26 -0.000004    0.01      5.27   
   158. D(H  11,H   2,O   0,H   1)   -111.12 -0.000030    0.02   -111.10   
   159. D(O   6,H   2,O   0,H   1)    -34.37 -0.000000    0.00    -34.36   
   160. D(H  11,H   2,O   0,H   8)    -61.30 -0.000031    0.02    -61.28   
   161. D(H   4,H   2,O   0,H   1)     39.79  0.000009   -0.02     39.77   
   162. D(H   4,H   2,O   0,H   8)     89.61  0.000007   -0.02     89.59   
   163. D(H  10,H   2,O   0,H   8)     55.08 -0.000006    0.01     55.09   
   164. D(O   3,H   4,H   2,H  11)     67.28 -0.000006    0.02     67.30   
   165. D(H   1,H   4,O   3,H   5)    -35.24 -0.000006   -0.01    -35.25   
   166. D(H   1,H   4,H   2,H  11)    143.04  0.000012   -0.01    143.03   
   167. D(O   3,H   4,H   2,O   9)     82.43 -0.000017    0.02     82.44   
   168. D(H   2,H   4,H   1,O   6)    -84.41  0.000012   -0.02    -84.43   
   169. D(H   2,H   4,H   1,H   8)    -66.62  0.000010   -0.02    -66.63   
   170. D(H   2,H   4,O   3,H   5)      1.95  0.000010   -0.01      1.94   
   171. D(O   3,H   4,H   2,O   6)     -1.12 -0.000012    0.01     -1.11   
   172. D(O   3,H   4,H   2,H   8)      3.89 -0.000011    0.01      3.90   
   173. D(O   3,H   4,H   2,O   0)   -100.07 -0.000020    0.02   -100.04   
   174. D(H   1,H   4,H   2,O   9)    158.19  0.000001   -0.01    158.18   
   175. D(H   1,H   4,H   2,O   0)    -24.31 -0.000001   -0.00    -24.31   
   176. D(O   3,H   4,H   1,O   0)    144.99  0.000004    0.01    145.00   
   177. D(O   3,H   4,H   1,H   8)     53.85  0.000000    0.00     53.86   
   178. D(O   3,H   4,H   2,H  10)     68.05 -0.000010    0.02     68.07   
   179. D(O   3,H   4,H   1,O   6)     36.06  0.000002    0.00     36.06   
   180. D(H  10,H   4,O   3,H   5)     52.93  0.000011    0.00     52.93   
   181. D(H   2,H   4,H   1,O   0)     24.52  0.000014   -0.01     24.51   
   182. D(H   8,H   5,O   3,H   4)    -16.71  0.000003   -0.00    -16.71   
   183. D(H   7,H   5,O   3,H   4)   -120.22  0.000008   -0.01   -120.23   
   184. D(H  10,H   5,O   3,H   4)    -55.74 -0.000006    0.00    -55.74   
   185. D(H   7,O   6,H   5,H   8)   -106.43 -0.000006    0.02   -106.41   
   186. D(H   7,O   6,H   2,O   0)   -173.39  0.000017   -0.01   -173.40   
   187. D(H  10,O   6,H   1,H   4)     47.06 -0.000020    0.02     47.08   
   188. D(H   7,O   6,O   3,H   4)   -120.11 -0.000021    0.03   -120.08   
   189. D(H   8,O   6,H   2,H   4)    160.59 -0.000006    0.01    160.60   
   190. D(H  10,O   6,H   2,O   0)    166.74  0.000018   -0.01    166.72   
   191. D(H   7,O   6,H   2,H  11)    -20.09  0.000007    0.02    -20.07   
   192. D(H   7,O   6,H   2,H   4)     87.59 -0.000012    0.03     87.62   
   193. D(H  10,O   6,H   1,O   0)    -48.63  0.000001   -0.01    -48.63   
   194. D(H   7,O   6,H   2,H  10)     19.88 -0.000001    0.00     19.88   
   195. D(H   8,O   6,H   2,O   0)   -100.39  0.000023   -0.03   -100.42   
   196. D(H   8,O   6,H   2,H  11)     52.91  0.000013   -0.00     52.91   
   197. D(H   1,O   6,O   3,H   4)     33.07  0.000004    0.00     33.07   
   198. D(H   2,O   6,H   1,O   0)    -22.95 -0.000014    0.01    -22.94   
   199. D(H   7,O   6,H   2,H   8)    -73.00 -0.000006    0.02    -72.98   
   200. D(H  10,O   6,O   3,H   4)    -55.15 -0.000013    0.01    -55.15   
   201. D(H   7,O   6,H   2,O   9)      3.31  0.000004    0.00      3.32   
   202. D(H   8,O   6,O   3,H   4)    -13.76 -0.000016    0.01    -13.75   
   203. D(H   7,O   6,H   1,H   4)     47.18 -0.000019    0.02     47.20   
   204. D(H   7,O   6,H   1,H   8)    -64.75  0.000005    0.00    -64.74   
   205. D(H   2,O   6,O   3,H   4)     -0.89 -0.000009    0.01     -0.88   
   206. D(H   8,O   6,H   2,H  10)     92.87  0.000006   -0.02     92.86   
   207. D(H   8,O   6,H   1,O   0)     16.24 -0.000002   -0.01     16.24   
   208. D(H  10,O   6,H   1,H   8)    -64.87  0.000003    0.00    -64.87   
   209. D(H   8,O   6,H   1,H   4)    111.93 -0.000023    0.02    111.95   
   210. D(H   8,O   6,H   2,O   9)     76.31  0.000010   -0.02     76.29   
   211. D(H   7,O   6,H   1,O   0)    -48.50  0.000003   -0.01    -48.51   
   212. D(H   7,O   6,H   5,H  10)    -64.69 -0.000013    0.03    -64.65   
   213. D(H   1,O   6,H   5,H   8)     46.63  0.000019   -0.01     46.62   
   214. D(H  10,O   6,H   5,H   8)    -41.75  0.000007   -0.01    -41.75   
   215. D(H  10,O   6,H   5,H   7)     64.69  0.000013   -0.03     64.65   
   216. D(H   2,O   6,H   5,H   8)     12.58  0.000008   -0.00     12.58   
   217. D(H   1,O   6,H   5,H  10)     88.38  0.000012    0.00     88.38   
   218. D(H   8,O   6,H   5,H  10)     41.75 -0.000007    0.01     41.75   
   219. D(H   8,O   6,H   5,H   7)    106.43  0.000006   -0.02    106.41   
   220. D(H   1,O   6,H   5,H   7)    153.06  0.000025   -0.03    153.03   
   221. D(H   5,H   7,O   6,H   2)    -64.20 -0.000001   -0.00    -64.20   
   222. D(H   5,H   7,O   6,H   1)    -49.76 -0.000003    0.00    -49.76   
   223. D(H   5,H   7,O   6,H  10)    -49.64 -0.000001    0.00    -49.63   
   224. D(H  10,H   7,H   5,O   3)     68.94 -0.000019    0.02     68.96   
   225. D(H  10,H   7,O   6,H   2)    -14.56 -0.000000   -0.00    -14.57   
   226. D(H  10,H   7,O   6,H   8)    -54.16 -0.000004   -0.00    -54.17   
   227. D(H  10,H   7,H   5,H   8)    -71.07 -0.000003   -0.01    -71.08   
   228. D(H  10,H   7,O   6,H   1)     -0.12 -0.000002   -0.00     -0.12   
   229. D(H  10,H   7,H   5,O   6)   -110.96  0.000015   -0.04   -111.00   
   230. D(H  10,H   7,O   6,H   5)     49.64  0.000001   -0.00     49.63   
   231. D(O   6,H   7,H   5,H  10)    110.96 -0.000015    0.04    111.00   
   232. D(O   6,H   7,H   5,H   8)     39.89 -0.000017    0.02     39.92   
   233. D(O   6,H   7,H   5,O   3)    179.90 -0.000033    0.05    179.96   
   234. D(H   5,H   7,O   6,H   8)   -103.80 -0.000006   -0.00   -103.80   
   235. D(H  11,H   8,H   5,O   6)    142.56  0.000020   -0.02    142.53   
   236. D(H   2,H   8,H   5,H   7)    156.16 -0.000001   -0.01    156.15   
   237. D(H  11,H   8,H   5,O   3)    -34.33 -0.000000   -0.01    -34.33   
   238. D(O   6,H   8,H   5,H  10)   -133.56 -0.000010    0.01   -133.55   
   239. D(O   6,H   8,H   5,H   7)    -38.80 -0.000011   -0.00    -38.80   
   240. D(H   2,H   8,H   5,H  10)     61.40 -0.000001    0.00     61.40   
   241. D(H  10,H   8,H   2,O   0)    163.09  0.000023   -0.02    163.08   
   242. D(O   6,H   8,O   0,H   2)   -109.11  0.000014   -0.02   -109.13   
   243. D(H  11,H   8,H   2,H  10)     42.33 -0.000009   -0.01     42.31   
   244. D(H  11,H   8,H   2,O   9)     21.25 -0.000001   -0.02     21.24   
   245. D(H   1,H   8,O   0,H   2)   -126.36  0.000016   -0.01   -126.37   
   246. D(O   6,H   8,H   2,H  11)   -122.27  0.000013   -0.00   -122.27   
   247. D(H   5,H   8,O   0,H   2)    -75.86  0.000036   -0.04    -75.90   
   248. D(H  10,H   8,H   1,O   0)    -64.61 -0.000001   -0.00    -64.61   
   249. D(H  11,H   8,H   1,H   4)     69.87 -0.000021    0.00     69.87   
   250. D(H   2,H   8,H   1,H   4)     72.46 -0.000032    0.04     72.50   
   251. D(H   2,H   8,H   1,O   6)    136.83 -0.000017    0.02    136.85   
   252. D(H   2,H   8,H   1,O   0)    -28.01 -0.000019    0.02    -27.99   
   253. D(H  11,H   8,H   1,O   6)    134.24 -0.000005   -0.01    134.23   
   254. D(O   6,H   8,H   1,H   4)    -64.37 -0.000016    0.01    -64.36   
   255. D(O   6,H   8,H   1,O   0)   -164.84 -0.000002   -0.01   -164.85   
   256. D(H  11,H   8,H   1,O   0)    -30.60 -0.000007   -0.02    -30.62   
   257. D(O   6,H   8,H   2,O   9)   -101.01  0.000012   -0.02   -101.03   
   258. D(H   5,H   8,O   0,H   1)     50.50  0.000021   -0.04     50.46   
   259. D(O   6,H   8,H   2,H   4)    -18.49 -0.000006    0.01    -18.48   
   260. D(H  10,H   8,O   0,H   2)    -14.47  0.000020   -0.02    -14.49   
   261. D(O   6,H   8,H   2,H  10)    -79.94  0.000004   -0.02    -79.95   
   262. D(O   6,H   8,H   2,O   0)     83.16  0.000027   -0.03     83.12   
   263. D(H  10,H   8,O   0,H   1)    111.89  0.000005   -0.01    111.88   
   264. D(H  11,H   8,O   0,H   2)     21.71  0.000007   -0.02     21.69   
   265. D(H  10,H   8,H   2,H  11)    -42.33  0.000009    0.01    -42.31   
   266. D(H  11,H   8,O   0,H   1)    148.07 -0.000009   -0.01    148.05   
   267. D(H   2,H   8,O   0,H   1)    126.36 -0.000016    0.01    126.37   
   268. D(H  11,H   8,H   2,O   6)    122.27 -0.000013    0.00    122.27   
   269. D(H  11,H   8,H   2,O   0)   -154.58  0.000013   -0.03   -154.61   
   270. D(H   2,H   8,H   5,O   3)     18.08 -0.000011    0.01     18.09   
   271. D(H   2,H   8,H   5,O   6)   -165.04  0.000010   -0.01   -165.05   
   272. D(H  10,H   8,H   2,O   9)    -21.07  0.000008   -0.00    -21.08   
   273. D(O   6,H   8,O   0,H   1)     17.25 -0.000002   -0.01     17.24   
   274. D(O   6,H   8,H   5,O   3)   -176.88 -0.000020    0.01   -176.87   
   275. D(H  10,H   8,H   1,O   6)    100.23  0.000001    0.00    100.24   
   276. D(H  11,H   8,H   2,H   4)    103.78 -0.000019    0.01    103.79   
   277. D(H  10,H   8,O   6,H   5)    -39.34  0.000013   -0.02    -39.35   
   278. D(H  10,H   8,O   6,H   2)    -56.53  0.000001   -0.00    -56.54   
   279. D(H  10,H   8,O   6,H   1)    -85.33 -0.000019    0.02    -85.31   
   280. D(H  11,H   8,O   6,H   5)    -56.02  0.000042   -0.03    -56.05   
   281. D(H  11,H   8,O   6,H   2)    -73.22  0.000030   -0.02    -73.23   
   282. D(H  11,H   8,O   6,H   1)   -102.01  0.000010    0.01   -102.01   
   283. D(H  11,H   8,O   6,H  10)    -16.69  0.000029   -0.01    -16.70   
   284. D(H  11,H   8,O   6,H   7)     49.61  0.000030   -0.01     49.60   
   285. D(H   2,H   8,O   6,H   5)     17.20  0.000012   -0.01     17.18   
   286. D(H   2,H   8,O   6,H   1)    -28.79 -0.000020    0.02    -28.77   
   287. D(H  10,H   8,O   6,H   7)     66.29  0.000001    0.00     66.29   
   288. D(H   2,H   8,O   6,H  10)     56.53 -0.000001    0.00     56.54   
   289. D(H   2,H   8,O   6,H   7)    122.82 -0.000000    0.00    122.83   
   290. D(H  11,H   8,H   5,H  10)      9.00  0.000010   -0.01      8.98   
   291. D(H  11,H   8,H   5,H   7)    103.75  0.000009   -0.02    103.73   
   292. D(H   2,O   9,H   8,O   6)    108.33  0.000004   -0.01    108.32   
   293. D(H  11,O   9,H   8,H   5)   -158.70  0.000002   -0.00   -158.70   
   294. D(H  11,O   9,H   8,H   1)    136.13 -0.000023    0.04    136.17   
   295. D(H  11,O   9,H   8,H  10)   -115.63  0.000016   -0.01   -115.64   
   296. D(H  11,O   9,H   8,H   2)    121.83 -0.000019    0.03    121.86   
   297. D(H  11,O   9,H   8,O   6)   -129.84 -0.000015    0.02   -129.82   
   298. D(H  10,O   9,H   8,H   1)   -108.24 -0.000039    0.05   -108.19   
   299. D(H  10,O   9,H   8,H  11)    115.63 -0.000016    0.01    115.64   
   300. D(H  10,O   9,H   8,H   2)   -122.54 -0.000035    0.04   -122.50   
   301. D(H  10,O   9,H   8,O   6)    -14.21 -0.000032    0.03    -14.18   
   302. D(H   8,O   9,H   2,H  10)    -54.80 -0.000007    0.00    -54.80   
   303. D(H   8,O   9,H   2,H  11)     53.04  0.000016   -0.01     53.04   
   304. D(H  11,O   9,H   2,H   4)   -141.27 -0.000018    0.02   -141.25   
   305. D(H  11,O   9,H   2,O   6)    -68.14 -0.000014    0.00    -68.13   
   306. D(H  11,O   9,H   2,H   8)    -53.04 -0.000016    0.01    -53.04   
   307. D(H  10,O   9,H   8,H   5)    -43.07 -0.000015    0.01    -43.06   
   308. D(H  11,O   9,H   2,H  10)   -107.84 -0.000023    0.01   -107.84   
   309. D(H  10,O   9,H   2,H   4)    -33.43  0.000005    0.01    -33.41   
   310. D(H  10,O   9,H   2,O   6)     39.70  0.000009   -0.00     39.70   
   311. D(H  10,O   9,H   2,H   8)     54.80  0.000007   -0.00     54.80   
   312. D(H  10,O   9,H   2,H  11)    107.84  0.000023   -0.01    107.84   
   313. D(H  11,O   9,O   0,H   1)   -102.11 -0.000011    0.00   -102.10   
   314. D(H  10,O   9,O   0,H   1)      6.04  0.000012   -0.00      6.03   
   315. D(O   6,H  10,O   9,H   2)    -44.10  0.000005   -0.00    -44.11   
   316. D(O   6,H  10,O   9,H  11)     62.72  0.000024   -0.00     62.72   
   317. D(H   7,H  10,O   9,H   8)    -13.31  0.000014   -0.01    -13.32   
   318. D(H   7,H  10,O   9,H  11)     45.20  0.000031   -0.01     45.19   
   319. D(H   8,H  10,O   9,H   2)    -48.31 -0.000002    0.01    -48.31   
   320. D(H   8,H  10,O   9,H  11)     58.51  0.000017    0.01     58.52   
   321. D(H   2,H  10,O   9,H  11)    106.82  0.000019    0.00    106.82   
   322. D(H   7,H  10,H   8,O   6)    -34.67 -0.000007   -0.00    -34.68   
   323. D(H   2,H  10,H   8,H   5)     86.65  0.000011   -0.02     86.63   
   324. D(H   2,H  10,H   8,O   0)      5.85 -0.000004    0.00      5.85   
   325. D(H   2,H  10,H   8,O   9)    -43.60  0.000031   -0.04    -43.64   
   326. D(H   2,H  10,H   8,H   1)     24.63 -0.000003    0.01     24.64   
   327. D(H   2,H  10,H   8,H  11)    -77.50  0.000034   -0.04    -77.54   
   328. D(O   9,H  10,H   8,H   5)    130.25 -0.000020    0.02    130.27   
   329. D(O   9,H  10,H   8,O   0)     49.44 -0.000035    0.05     49.49   
   330. D(O   9,H  10,H   8,H   1)     68.23 -0.000034    0.05     68.28   
   331. D(O   9,H  10,H   8,H   2)     43.60 -0.000031    0.04     43.64   
   332. D(O   9,H  10,H   8,O   6)    167.67 -0.000028    0.03    167.70   
   333. D(H   5,H  10,H   7,O   6)    -49.12 -0.000015    0.03    -49.09   
   334. D(H   8,H  10,H   7,H   5)     83.33  0.000003   -0.02     83.31   
   335. D(H   8,H  10,H   7,O   6)     34.21 -0.000011    0.02     34.23   
   336. D(H   2,H  10,H   7,H   5)     65.38  0.000012   -0.03     65.35   
   337. D(H   2,H  10,H   7,O   6)     16.25 -0.000002    0.01     16.26   
   338. D(O   9,H  10,H   7,H   5)    109.07 -0.000028    0.02    109.10   
   339. D(O   9,H  10,H   7,O   6)     59.95 -0.000042    0.06     60.01   
   340. D(H   8,H  10,O   6,H   2)     48.54 -0.000002    0.02     48.55   
   341. D(H   8,H  10,O   6,H   7)   -114.14 -0.000004    0.02   -114.11   
   342. D(H   2,H  10,O   6,H   5)     82.10  0.000017   -0.03     82.07   
   343. D(H   2,H  10,O   6,H   1)     17.26 -0.000003    0.01     17.27   
   344. D(H   2,H  10,O   6,H   7)   -162.67 -0.000002    0.01   -162.67   
   345. D(O   9,H  10,O   6,H   5)    117.65 -0.000011    0.01    117.66   
   346. D(O   9,H  10,O   6,H   2)     35.55 -0.000029    0.04     35.59   
   347. D(O   9,H  10,O   6,H   1)     52.81 -0.000031    0.05     52.86   
   348. D(O   9,H  10,O   6,H   8)    -12.99 -0.000026    0.02    -12.96   
   349. D(O   9,H  10,O   6,H   7)   -127.12 -0.000030    0.05   -127.08   
   350. D(H   8,H  10,H   5,O   6)    -17.62  0.000009   -0.01    -17.63   
   351. D(H   2,H  10,O   6,H   8)    -48.54  0.000002   -0.02    -48.55   
   352. D(H   8,H  10,H   5,O   3)    163.56 -0.000008    0.01    163.58   
   353. D(H   2,H  10,H   5,H   7)   -104.64  0.000009   -0.01   -104.65   
   354. D(H   2,H  10,H   5,H   8)    -64.62  0.000008   -0.01    -64.63   
   355. D(H   8,H  10,O   6,H   1)     65.80 -0.000005    0.02     65.82   
   356. D(H   2,H  10,H   5,O   6)    -82.24  0.000017   -0.02    -82.26   
   357. D(H   2,H  10,H   5,O   3)     98.94  0.000000   -0.00     98.94   
   358. D(O   9,H  10,H   5,H   7)   -103.71  0.000010    0.00   -103.71   
   359. D(O   9,H  10,H   5,H   8)    -63.69  0.000010    0.00    -63.69   
   360. D(O   9,H  10,H   5,O   6)    -81.31  0.000019   -0.01    -81.31   
   361. D(O   9,H  10,H   5,O   3)     99.88  0.000001    0.01     99.89   
   362. D(H   7,H  10,H   4,O   3)    -38.65 -0.000007    0.01    -38.64   
   363. D(O   6,H  10,H   7,H   5)     49.12  0.000015   -0.03     49.09   
   364. D(H   8,H  10,H   4,H   1)     37.34 -0.000003    0.00     37.34   
   365. D(H   8,H  10,H   4,H   2)     57.90 -0.000002    0.01     57.91   
   366. D(H   8,H  10,H   4,O   3)    -70.27 -0.000008    0.02    -70.25   
   367. D(O   9,H  10,H   8,H  11)    -33.90  0.000003    0.00    -33.90   
   368. D(H   2,H  10,H   4,H   1)    -20.56 -0.000001   -0.00    -20.56   
   369. D(H   2,H  10,H   4,O   3)   -128.17 -0.000006    0.01   -128.16   
   370. D(O   9,H  10,H   4,H   1)    -50.26  0.000027   -0.02    -50.29   
   371. D(H   2,H  10,H   8,O   6)    124.07  0.000003   -0.02    124.05   
   372. D(O   9,H  10,H   4,H   2)    -29.70  0.000028   -0.02    -29.72   
   373. D(O   9,H  10,H   4,O   3)   -157.88  0.000022   -0.01   -157.88   
   374. D(H   7,H  10,H   2,O   9)    129.62 -0.000010    0.01    129.63   
   375. D(H   7,H  10,H   2,O   0)    -49.67  0.000008   -0.01    -49.68   
   376. D(H   8,H  10,H   2,H   4)    -99.33 -0.000001    0.02    -99.31   
   377. D(H   8,H  10,H   2,O   6)    -16.73  0.000004   -0.00    -16.73   
   378. D(H   8,H  10,H   2,H  11)     79.45  0.000004    0.02     79.47   
   379. D(H   2,H  10,O   9,H   8)     48.31  0.000002   -0.01     48.31   
   380. D(H   8,H  10,H   2,O   9)    118.54 -0.000005    0.00    118.54   
   381. D(H   8,H  10,H   2,O   0)    -60.75  0.000012   -0.01    -60.76   
   382. D(O   9,H  10,H   2,H   4)    142.13  0.000004    0.02    142.15   
   383. D(H   7,H  10,O   9,H   2)    -61.62  0.000012   -0.01    -61.63   
   384. D(O   9,H  10,H   2,O   6)   -135.27  0.000009   -0.01   -135.27   
   385. D(O   9,H  10,H   2,H   8)   -118.54  0.000005   -0.00   -118.54   
   386. D(O   9,H  10,H   2,H  11)    -39.09  0.000009    0.01    -39.07   
   387. D(O   6,H  10,O   9,H   8)      4.21  0.000008   -0.01      4.20   
   388. D(O   9,H  10,H   2,O   0)   -179.29  0.000017   -0.01   -179.30   
   389. D(H   2,H  11,H   8,O   6)    107.64 -0.000012    0.00    107.64   
   390. D(O   9,H  11,H   8,H   5)     20.41 -0.000000    0.00     20.41   
   391. D(O   9,H  11,H   8,O   0)    -52.85 -0.000027    0.03    -52.82   
   392. D(O   9,H  11,H   8,H  10)     33.98  0.000017   -0.01     33.96   
   393. D(O   9,H  11,H   8,H   2)    -44.16 -0.000016    0.01    -44.14   
   394. D(O   9,H  11,H   8,O   6)     63.49 -0.000028    0.01     63.50   
   395. D(H   8,H  11,H   2,H  10)    -82.05 -0.000001    0.00    -82.04   
   396. D(H   8,H  11,H   2,O   9)   -120.07  0.000017   -0.01   -120.09   
   397. D(H   8,H  11,H   2,O   0)     70.10  0.000037   -0.04     70.06   
   398. D(O   9,H  11,H   2,H   4)     39.13 -0.000023    0.02     39.15   
   399. D(O   9,H  11,H   8,H   1)    -42.34 -0.000023    0.04    -42.30   
   400. D(O   9,H  11,H   2,O   6)    106.68 -0.000016    0.01    106.70   
   401. D(O   9,H  11,H   2,H   8)    120.07 -0.000017    0.01    120.09   
   402. D(O   9,H  11,H   2,H  10)     38.03 -0.000018    0.02     38.04   
   403. D(H   2,H  11,H   8,H  10)     78.13  0.000033   -0.03     78.11   
   404. D(O   9,H  11,H   2,O   0)   -169.83  0.000021   -0.02   -169.85   
   405. D(H   8,H  11,O   9,H   2)     48.16  0.000023   -0.03     48.13   
   406. D(H   8,H  11,O   9,H  10)    -60.46 -0.000038    0.03    -60.43   
   407. D(H   2,H  11,O   9,H   8)    -48.16 -0.000023    0.03    -48.13   
   408. D(H   2,H  11,O   9,H  10)   -108.62 -0.000062    0.06   -108.56   
   409. D(H   2,H  11,H   8,H   1)      1.82 -0.000007    0.02      1.84   
    ----------------------------------------------------------------------------

Geometry step timings:
Preparation and reading OPT file:      0.013 s (18.841 %)
Internal coordinates            :      0.001 s ( 1.449 %)
B/P matrices and projection     :      0.017 s (24.638 %)
Hessian update/contruction      :      0.007 s (10.145 %)
Making the step                 :      0.021 s (30.435 %)
Converting the step to Cartesian:      0.001 s ( 1.449 %)
Storing new data                :      0.001 s ( 1.449 %)
Checking convergence            :      0.000 s ( 0.000 %)
Final printing                  :      0.008 s (11.594 %)
Total time                      :      0.069 s
                 *******************************************************
                 *** FINAL ENERGY EVALUATION AT THE STATIONARY POINT ***
                 ***               (AFTER    2 CYCLES)               ***
                 *******************************************************
---------------------------------
CARTESIAN COORDINATES (ANGSTROEM)
---------------------------------
  O     31.011067  -21.173704    1.813073
  H     30.673886  -21.243969    0.911629
  H     31.957310  -21.399145    1.723023
  O     32.607938  -20.769365   -1.188856
  H     32.546791  -20.291687   -0.352521
  H     32.356493  -21.682098   -0.947876
  O     31.903720  -23.485226   -0.489038
  H     32.699836  -23.971581   -0.739345
  H     31.963453  -23.435464    0.474884
  O     33.801618  -21.837573    1.705838
  H     34.018971  -21.940584    0.769281
  H     33.800498  -22.743892    2.040689

----------------------------
CARTESIAN COORDINATES (A.U.)
----------------------------
  NO LB      ZA    FRAG     MASS         X           Y           Z
   0 O     8.0000    0    15.999   58.602424  -40.012503    3.426211
   1 H     1.0000    0     1.008   57.965243  -40.145284    1.722729
   2 H     1.0000    0     1.008   60.390563  -40.438524    3.256042
   3 O     8.0000    0    15.999   61.620073  -39.248412   -2.246612
   4 H     1.0000    0     1.008   61.504521  -38.345732   -0.666169
   5 H     1.0000    0     1.008   61.144910  -40.973226   -1.791226
   6 O     8.0000    0    15.999   60.289294  -44.380646   -0.924147
   7 H     1.0000    0     1.008   61.793734  -45.299723   -1.397159
   8 H     1.0000    0     1.008   60.402172  -44.286609    0.897400
   9 O     8.0000    0    15.999   63.875801  -41.267033    3.223566
  10 H     1.0000    0     1.008   64.286539  -41.461695    1.453730
  11 H     1.0000    0     1.008   63.873685  -42.979727    3.856343

--------------------------------
INTERNAL COORDINATES (ANGSTROEM)
--------------------------------
 O      0   0   0     0.000000000000     0.00000000     0.00000000
 H      1   0   0     0.965002500319     0.00000000     0.00000000
 H      1   2   0     0.976886909539   103.62324872     0.00000000
 O      2   1   3     2.894450332790   115.62535118   332.62609184
 H      4   2   1     0.965075113882    53.83847062   321.31503633
 H      4   2   1     0.976922034285    59.72251413   100.77640449
 O      6   4   2     1.914891441646   178.66600671   207.88383176
 H      7   6   4     0.965916262258   102.54185031   359.19687343
 H      7   6   4     0.967051563050   100.12411466   105.60680662
 O      3   1   2     1.895781470099   175.23025816   188.64192511
 H     10   3   1     0.966949918230   104.60160634   177.28336157
 H     10   3   1     0.966198759036   102.27847172    69.44768901

---------------------------
INTERNAL COORDINATES (A.U.)
---------------------------
 O      0   0   0     0.000000000000     0.00000000     0.00000000
 H      1   0   0     1.823590444151     0.00000000     0.00000000
 H      1   2   0     1.846048722841   103.62324872     0.00000000
 O      2   1   3     5.469718437210   115.62535118   332.62609184
 H      4   2   1     1.823727663900    53.83847062   321.31503633
 H      4   2   1     1.846115098991    59.72251413   100.77640449
 O      6   4   2     3.618620400900   178.66600671   207.88383176
 H      7   6   4     1.825317203969   102.54185031   359.19687343
 H      7   6   4     1.827462611545   100.12411466   105.60680662
 O      3   1   2     3.582507788249   175.23025816   188.64192511
 H     10   3   1     1.827270530672   104.60160634   177.28336157
 H     10   3   1     1.825851045512   102.27847172    69.44768901

---------------------
BASIS SET INFORMATION
---------------------
There are 2 groups of distinct atoms

 Group   1 Type O   : 11s6p2d contracted to 5s3p2d pattern {62111/411/11}
 Group   2 Type H   : 4s1p contracted to 2s1p pattern {31/1}

Atom   0O    basis set group =>   1
Atom   1H    basis set group =>   2
Atom   2H    basis set group =>   2
Atom   3O    basis set group =>   1
Atom   4H    basis set group =>   2
Atom   5H    basis set group =>   2
Atom   6O    basis set group =>   1
Atom   7H    basis set group =>   2
Atom   8H    basis set group =>   2
Atom   9O    basis set group =>   1
Atom  10H    basis set group =>   2
Atom  11H    basis set group =>   2
---------------------------------
AUXILIARY/J BASIS SET INFORMATION
---------------------------------
There are 2 groups of distinct atoms

 Group   1 Type O   : 8s3p3d contracted to 6s3p3d pattern {311111/111/111}
 Group   2 Type H   : 5s2p1d contracted to 3s1p1d pattern {311/2/1}

Atom   0O    basis set group =>   1
Atom   1H    basis set group =>   2
Atom   2H    basis set group =>   2
Atom   3O    basis set group =>   1
Atom   4H    basis set group =>   2
Atom   5H    basis set group =>   2
Atom   6O    basis set group =>   1
Atom   7H    basis set group =>   2
Atom   8H    basis set group =>   2
Atom   9O    basis set group =>   1
Atom  10H    basis set group =>   2
Atom  11H    basis set group =>   2


           ************************************************************
           *        Program running with 4 parallel MPI-processes     *
           *              working on a common directory               *
           ************************************************************
------------------------------------------------------------------------------
                             ORCA STARTUP CALCULATIONS
                           -- RI-GTO INTEGRALS CHOSEN --
------------------------------------------------------------------------------
------------------------------------------------------------------------------
                   ___                                                        
                  /   \      - P O W E R E D   B Y -                         
                 /     \                                                     
                 |  |  |   _    _      __       _____    __    __             
                 |  |  |  | |  | |    /  \     |  _  \  |  |  /  |          
                  \  \/   | |  | |   /    \    | | | |  |  | /  /          
                 / \  \   | |__| |  /  /\  \   | |_| |  |  |/  /          
                |  |  |   |  __  | /  /__\  \  |    /   |      \           
                |  |  |   | |  | | |   __   |  |    \   |  |\   \          
                \     /   | |  | | |  |  |  |  | |\  \  |  | \   \       
                 \___/    |_|  |_| |__|  |__|  |_| \__\ |__|  \__/        
                                                                              
                      - O R C A' S   B I G   F R I E N D -                    
                                      &                                       
                       - I N T E G R A L  F E E D E R -                       
                                                                              
 v1 FN, 2020, v2 2021, v3 2022-2024                                           
------------------------------------------------------------------------------


----------------------
SHARK INTEGRAL PACKAGE
----------------------

Number of atoms                             ...     12
Number of basis functions                   ...    136
Number of shells                            ...     64
Maximum angular momentum                    ...      2
Integral batch strategy                     ... SHARK/LIBINT Hybrid
RI-J (if used) integral strategy            ... SPLIT-RIJ (Revised 2003 algorithm where possible)
Printlevel                                  ...      1
Contraction scheme used                     ... SEGMENTED contraction
Prescreening option                         ... SCHWARTZ
   Thresh                                   ... 2.500e-11
   Tcut                                     ... 2.500e-12
   Tpresel                                  ... 2.500e-12 
Coulomb Range Separation                    ... NOT USED
Exchange Range Separation                   ... NOT USED
Multipole approximations                    ... NOT USED
Finite Nucleus Model                        ... NOT USED
CABS basis                                  ... NOT available
Auxiliary Coulomb fitting basis             ... AVAILABLE
   # of basis functions in Aux-J            ...    208
   # of shells in Aux-J                     ...     88
   Maximum angular momentum in Aux-J        ...      2
Auxiliary J/K fitting basis                 ... NOT available
Auxiliary Correlation fitting basis         ... NOT available
Auxiliary 'external' fitting basis          ... NOT available

Checking pre-screening integrals            ... done (  0.0 sec) Dimension = 64
   => SHARK Basis and OBASIS are compatible. Storing Pre-screening
Shell pair information
Shell pair cut-off parameter TPreSel        ...   2.5e-12
Total number of shell pairs                 ...      2080
Shell pairs after pre-screening             ...      1945
Total number of primitive shell pairs       ...      6898
Primitive shell pairs kept                  ...      4755
          la=0 lb=0:    613 shell pairs
          la=1 lb=0:    664 shell pairs
          la=1 lb=1:    205 shell pairs
          la=2 lb=0:    268 shell pairs
          la=2 lb=1:    159 shell pairs
          la=2 lb=2:     36 shell pairs

Checking whether 4 symmetric matrices of dimension 136 fit in memory
:Max Core in MB      =   2000.00
 MB in use           =      3.34
 MB left             =   1996.66
 MB needed           =      0.28
 Data fit in memory  = YES
Calculating RI/J V-Matrix + Cholesky decomp.... done (  0.0 sec)
Calculating Nuclear repulsion               ... done (  0.0 sec) ENN=    139.162123552903 Eh

Diagonalization of the overlap matrix:
Smallest eigenvalue                        ... 7.874e-04
Time for diagonalization                   ...    0.004 sec
Threshold for overlap eigenvalues          ... 1.000e-07
Number of eigenvalues below threshold      ... 0
Time for construction of square roots      ...    0.005 sec
Total time needed                          ...    0.011 sec

-------------------
DFT GRID GENERATION
-------------------

General Integration Accuracy     IntAcc      ... 4.388
Radial Grid Type                 RadialGrid  ... OptM3 with GC (2021)
Angular Grid (max. ang.)         AngularGrid ... 4 (Lebedev-302)
Angular grid pruning method      GridPruning ... 4 (adaptive)
Weight generation scheme         WeightScheme... mBecke (2022)
Basis function cutoff            BFCut       ... 1.0000e-11
Integration weight cutoff        WCut        ... 1.0000e-14
Partially contracted basis set               ... off
Rotationally invariant grid construction     ... off
Angular grids for H and He will be reduced by one unit
Diffuse basis detected: some atoms will have their outermost
                        angular grid increased by 1.

Total number of grid points                  ...    51727
Total number of batches                      ...      816
Average number of points per batch           ...       63
Average number of grid points per atom       ...     4311
Grids setup in   0.7 sec
Initializing property integral containers    ... done (  0.1 sec)

SHARK setup successfully completed in   1.0 seconds

Maximum memory used throughout the entire STARTUP-calculation: 13.6 MB


           ************************************************************
           *        Program running with 4 parallel MPI-processes     *
           *              working on a common directory               *
           ************************************************************
-------------------------------------------------------------------------------
                                 ORCA GUESS
                   Start orbitals & Density for SCF / CASSCF
-------------------------------------------------------------------------------

------------
SCF SETTINGS
------------
Hamiltonian:
 Density Functional     Method          .... DFT(GTOs)
  Functional kind                       .... Exchange
  Functional name                       .... Re-regularized SCAN exchange by Furness et al
  Functional family                     .... MGGA
  Functional refs                              
    [ 0] J. W. Furness, A. D. Kaplan, J. Ning, J. P. Perdew, and J. Sun.,  J. Phys. Chem. Lett. 11, 8208-8215 (2020), doi: 10.1021/acs.jpclett.0c02405
    [ 1] J. W. Furness, A. D. Kaplan, J. Ning, J. P. Perdew, and J. Sun.,  J. Phys. Chem. Lett. 11, 9248-9248 (2020), doi: 10.1021/acs.jpclett.0c03077
  Functional external parameters        .... 6
    Parameter  0 _c1        =  6.670000e-01 : c1 parameter        
    Parameter  1 _c2        =  8.000000e-01 : c2 parameter        
    Parameter  2 _d         =  1.240000e+00 : d parameter         
    Parameter  3 _k1        =  6.500000e-02 : k1 parameter        
    Parameter  4 _eta       =  1.000000e-03 : eta parameter       
    Parameter  5 _dp2       =  3.610000e-01 : dp2 parameter       
  Functional kind                       .... Correlation
  Functional name                       .... Re-regularized SCAN correlation by Furness et al
  Functional family                     .... MGGA
  Functional refs                              
    [ 0] J. W. Furness, A. D. Kaplan, J. Ning, J. P. Perdew, and J. Sun.,  J. Phys. Chem. Lett. 11, 8208-8215 (2020), doi: 10.1021/acs.jpclett.0c02405
    [ 1] J. W. Furness, A. D. Kaplan, J. Ning, J. P. Perdew, and J. Sun.,  J. Phys. Chem. Lett. 11, 9248-9248 (2020), doi: 10.1021/acs.jpclett.0c03077
  Functional external parameters        .... 1
    Parameter  0 _eta       =  1.000000e-03 : Regularization parameter
 Gradients option       PostSCFGGA      .... off
 RI-approximation to the Coulomb term is turned on
   Number of AuxJ basis functions       .... 208


General Settings:
 Integral files         IntName         .... Explicit4H2O_SMD_water_Opt_KeepDens_restart
 Hartree-Fock type      HFTyp           .... RHF
 Total Charge           Charge          ....    0
 Multiplicity           Mult            ....    1
 Number of Electrons    NEL             ....   40
 Basis Dimension        Dim             ....  136
 Nuclear Repulsion      ENuc            ....    139.1621235529 Eh

Convergence Acceleration:
 AO-DIIS                CNVDIIS         .... on
   Start iteration      DIISMaxIt       ....    12
   Startup error        DIISStart       ....  0.200000
   # of expansion vecs  DIISMaxEq       ....     5
   Bias factor          DIISBfac        ....   1.050
   Max. coefficient     DIISMaxC        ....  10.000
 MO-DIIS                CNVKDIIS        .... off
 Trust-Rad. Augm. Hess. CNVTRAH         .... auto
   Auto Start mean grad. ratio tolernc. ....  1.125000
   Auto Start start iteration           ....     1
   Auto Start num. interpolation iter.  ....    10
   Max. Number of Micro iterations      ....    24
   Max. Number of Macro iterations      .... Maxiter - #DIIS iter
   Number of Davidson start vectors     ....     2
   Converg. threshold    (grad. norm)   ....   1.000e-05
   Grad. Scal. Fac. for Micro threshold ....   0.100
   Minimum threshold for Micro iter.    ....   1.000e-02
   NR start threshold (gradient norm)   ....   1.000e-04
   Initial trust radius                 ....   0.400
   Minimum AH scaling param. (alpha)    ....   1.000
   Maximum AH scaling param. (alpha)    .... 1000.000
   Quad. conv. algorithm                .... NR
   White noise on init. David. guess    .... on
   Maximum white noise                  ....   0.010
   Pseudo random numbers                .... off
   Inactive MOs                         .... canonical
   Orbital update algorithm             .... Taylor
   Preconditioner                       .... Diag
   Full preconditioner red. dimension   ....   250
   COSX micro iterations for RIJONX calc.... off
 SOSCF                 CNVSOSCF           .... on
   Start iteration     SOSCFMaxIt         ....   150
   Startup grad/error  SOSCFStart         ....  0.003300
   Hessian update      SOSCFHessUp        .... L-BFGS
   Autom. constraints  SOSCFAutoConstrain .... off
 Level Shifting         CNVShift        .... on
   Level shift para.    LevelShift      ....    0.2500
   Turn off err/grad.   ShiftErr        ....    0.0010
 Zerner damping         CNVZerner       .... off
 Static damping         CNVDamp         .... on
   Fraction old density DampFac         ....    0.7000
   Max. Damping (<1)    DampMax         ....    0.9800
   Min. Damping (>=0)   DampMin         ....    0.0000
   Turn off err/grad.   DampErr         ....    0.1000

SCF Procedure:
 Maximum # iterations   MaxIter         ....   125
 SCF integral mode      SCFMode         .... Direct
   Integral package                     .... SHARK and LIBINT hybrid scheme
 Reset frequency        DirectResetFreq ....    20
 Integral Threshold     Thresh          ....  2.500e-11 Eh
 Primitive CutOff       TCut            ....  2.500e-12 Eh

Convergence Tolerance:
 Convergence Check Mode ConvCheckMode   .... Total+1el-Energy
 Convergence forced     ConvForced      .... 0
 Energy Change          TolE            ....  1.000e-08 Eh
 1-El. energy change                    ....  1.000e-05 Eh
 Orbital Gradient       TolG            ....  1.000e-05
 Orbital Rotation angle TolX            ....  1.000e-05
 DIIS Error             TolErr          ....  5.000e-07

---------------------
INITIAL GUESS: MOREAD
---------------------
Guess MOs are being read from file: Explicit4H2O_SMD_water_Opt_KeepDens_restart.gbw
Input Geometry matches current geometry (good)
Input basis set matches current basis set (good)
Occupation numbers will be reassigned to an Aufbau configuration
MOs were renormalized
MOs were reorthogonalized (Cholesky)
                      ------------------
                      INITIAL GUESS DONE (   0.1 sec)
                      ------------------
             **** ENERGY FILE WAS UPDATED (Explicit4H2O_SMD_water_Opt_KeepDens_restart.en.tmp) ****
Finished Guess after   0.2 sec
Maximum memory used throughout the entire GUESS-calculation: 6.1 MB


           ************************************************************
           *        Program running with 4 parallel MPI-processes     *
           *              working on a common directory               *
           ************************************************************

-------------------------------------------------------------------------------------------
                                      ORCA LEAN-SCF
                              memory conserving SCF solver
-------------------------------------------------------------------------------------------

--------------------
CPCM SOLVATION MODEL
--------------------
CPCM parameters:
  Epsilon                                         ...      78.3550
  Refrac                                          ...       1.3328
  Rsolv                                           ...       1.3000
  Surface type                                    ... GAUSSIAN VDW
  Discretization scheme                           ... Constant charge density
    Threshold for H atoms                         ...       5.0000 (charges/Ang^2)
    Threshold for non-H atoms                     ...       5.0000 (charges/Ang^2)
  Epsilon function type                           ...         CPCM
Solvent:                                          ... WATER
SMD-CDS solvent descriptors:
  Soln                                            ...       1.3328
  Soln25                                          ...       1.3323
  Sola                                            ...       0.0000
  Solb                                            ...       0.0000
  Solg                                            ...       0.0000
  Solc                                            ...       0.0000
  Solh                                            ...       0.0000
Radii:
  Scheme                                          ... Element-dependent radii
  Radius for O  used is    2.8724 Bohr (=   1.5200 Ang.)
  Radius for H  used is    2.2677 Bohr (=   1.2000 Ang.)
Calculating surface                               ...        done! (  0.0s)
Cavity surface points                             ...          951
Cavity Volume                                     ...     496.6164
Cavity Surface-area                               ...     466.7176
Calculating surface distance matrix               ...        done! (  0.0s)
Performing Cholesky decomposition & store         ...        done! (  0.0s)
Overall time for CPCM initialization              ...                 0.1s

----------------------------------------D-I-I-S--------------------------------------------
Iteration    Energy (Eh)           Delta-E    RMSDP     MaxDP     DIISErr   Damp  Time(sec)
-------------------------------------------------------------------------------------------
               ***  Starting incremental Fock matrix formation  ***
                              *** Initializing SOSCF ***
---------------------------------------S-O-S-C-F--------------------------------------
Iteration    Energy (Eh)           Delta-E    RMSDP     MaxDP     MaxGrad    Time(sec)
--------------------------------------------------------------------------------------
    1    -305.7535913024630645     0.00e+00  1.75e-05  1.99e-04  1.33e-05     1.0
               *** Restarting incremental Fock matrix formation ***
    2    -305.7535916721809031    -3.70e-07  8.53e-06  8.32e-05  2.61e-05     1.0
    3    -305.7535916524353183     1.97e-08  4.78e-06  5.95e-05  3.34e-05     0.9
    4    -305.7535917039425613    -5.15e-08  6.28e-07  3.94e-06  2.43e-06     0.9
                  *** Gradient check signals convergence ***

               *****************************************************
               *                     SUCCESS                       *
               *           SCF CONVERGED AFTER   4 CYCLES          *
               *****************************************************


SMD CDS free energy correction energy :                 3.28707     Kcal/mol
Total Energy after SMD CDS correction =              -305.748353429 Eh
             **** ENERGY FILE WAS UPDATED (Explicit4H2O_SMD_water_Opt_KeepDens_restart.en.tmp) ****

----------------
TOTAL SCF ENERGY
----------------

Total Energy       :       -305.74835342948404 Eh           -8319.83567 eV

Components:
Nuclear Repulsion  :        139.16212355290264 Eh            3786.79390 eV
Electronic Energy  :       -444.85216182319709 Eh          -12105.04273 eV
One Electron Energy:       -696.29635601794121 Eh          -18947.18710 eV
Two Electron Energy:        251.44419419474411 Eh            6842.14437 eV
CPCM Dielectric    :         -0.06355343500033 Eh              -1.72938 eV
SMD CDS (Gcds)     :          0.00523827581079 Eh               0.14254 eV

Virial components:
Potential Energy   :       -610.21347421121186 Eh          -16604.75280 eV
Kinetic Energy     :        304.46512078172782 Eh            8284.91713 eV
Virial Ratio       :          2.00421471150607

DFT components:
N(Alpha)           :       20.000021484121 electrons
N(Beta)            :       20.000021484121 electrons
N(Total)           :       40.000042968241 electrons
E(X)               :      -35.920711026007 Eh       
E(C)               :       -1.288216093324 Eh       
E(XC)              :      -37.208927119331 Eh       

CPCM Solvation Model Properties:
Surface-charge          :         -0.04407609715319
Corrected charge        :         -0.00000000000000
Outlying charge corr.   :          0.00017805253873 Eh               0.00485 eV
Free-energy (cav+disp)  :          0.00523827581079 Eh               0.14254 eV

---------------
SCF CONVERGENCE
---------------

  Last Energy change         ...    5.1507e-08  Tolerance :   1.0000e-08
  Last MAX-Density change    ...    3.9423e-06  Tolerance :   1.0000e-07
  Last RMS-Density change    ...    6.2850e-07  Tolerance :   5.0000e-09
  Last DIIS Error            ...    2.1517e-04  Tolerance :   5.0000e-07
  Last Orbital Gradient      ...    2.4265e-06  Tolerance :   1.0000e-05
  Last Orbital Rotation      ...    4.0924e-06  Tolerance :   1.0000e-05


----------------
ORBITAL ENERGIES
----------------

  NO   OCC          E(Eh)            E(eV) 
   0   2.0000     -18.959323      -515.9094 
   1   2.0000     -18.958811      -515.8955 
   2   2.0000     -18.940012      -515.3839 
   3   2.0000     -18.939523      -515.3706 
   4   2.0000      -0.982902       -26.7461 
   5   2.0000      -0.978404       -26.6237 
   6   2.0000      -0.960428       -26.1346 
   7   2.0000      -0.958213       -26.0743 
   8   2.0000      -0.494209       -13.4481 
   9   2.0000      -0.493215       -13.4211 
  10   2.0000      -0.480197       -13.0668 
  11   2.0000      -0.478418       -13.0184 
  12   2.0000      -0.375476       -10.2172 
  13   2.0000      -0.365750        -9.9526 
  14   2.0000      -0.360844        -9.8191 
  15   2.0000      -0.344399        -9.3716 
  16   2.0000      -0.289649        -7.8817 
  17   2.0000      -0.282624        -7.6906 
  18   2.0000      -0.273457        -7.4411 
  19   2.0000      -0.271805        -7.3962 
  20   0.0000       0.033961         0.9241 
  21   0.0000       0.105678         2.8757 
  22   0.0000       0.117560         3.1990 
  23   0.0000       0.138429         3.7669 
  24   0.0000       0.163654         4.4533 
  25   0.0000       0.191217         5.2033 
  26   0.0000       0.215464         5.8631 
  27   0.0000       0.251816         6.8523 
  28   0.0000       0.293995         8.0000 
  29   0.0000       0.347965         9.4686 
  30   0.0000       0.367635        10.0039 
*Only the first 10 virtual orbitals were printed.

                    ********************************
                    * MULLIKEN POPULATION ANALYSIS *
                    ********************************

-----------------------
MULLIKEN ATOMIC CHARGES
-----------------------
   0 O :   -0.758073
   1 H :    0.348050
   2 H :    0.389544
   3 O :   -0.756901
   4 H :    0.348374
   5 H :    0.387373
   6 O :   -0.699527
   7 H :    0.362130
   8 H :    0.357699
   9 O :   -0.697512
  10 H :    0.355595
  11 H :    0.363248
Sum of atomic charges:    0.0000000

--------------------------------
MULLIKEN REDUCED ORBITAL CHARGES
--------------------------------
  0 O s       :     3.778137  s :     3.778137
      pz      :     1.539393  p :     4.963511
      px      :     1.481783
      py      :     1.942336
      dz2     :     0.006369  d :     0.016425
      dxz     :     0.002423
      dyz     :     0.002478
      dx2y2   :     0.003147
      dxy     :     0.002007

  1 H s       :     0.606323  s :     0.606323
      pz      :     0.022073  p :     0.045628
      px      :     0.011169
      py      :     0.012386

  2 H s       :     0.562486  s :     0.562486
      pz      :     0.008455  p :     0.047970
      px      :     0.027002
      py      :     0.012513

  3 O s       :     3.778581  s :     3.778581
      pz      :     1.590899  p :     4.961827
      px      :     1.934770
      py      :     1.436158
      dz2     :     0.005483  d :     0.016493
      dxz     :     0.003043
      dyz     :     0.004164
      dx2y2   :     0.002163
      dxy     :     0.001641

  4 H s       :     0.605955  s :     0.605955
      pz      :     0.020290  p :     0.045671
      px      :     0.012326
      py      :     0.013055

  5 H s       :     0.564933  s :     0.564933
      pz      :     0.009410  p :     0.047694
      px      :     0.012689
      py      :     0.025594

  6 O s       :     3.780509  s :     3.780509
      pz      :     1.438064  p :     4.898208
      px      :     1.642478
      py      :     1.817667
      dz2     :     0.006906  d :     0.020810
      dxz     :     0.001992
      dyz     :     0.001634
      dx2y2   :     0.004473
      dxy     :     0.005804

  7 H s       :     0.592801  s :     0.592801
      pz      :     0.010010  p :     0.045068
      px      :     0.020118
      py      :     0.014939

  8 H s       :     0.597304  s :     0.597304
      pz      :     0.024287  p :     0.044997
      px      :     0.009648
      py      :     0.011063

  9 O s       :     3.779741  s :     3.779741
      pz      :     1.441672  p :     4.896592
      px      :     1.913497
      py      :     1.541423
      dz2     :     0.005480  d :     0.021179
      dxz     :     0.002279
      dyz     :     0.002707
      dx2y2   :     0.007452
      dxy     :     0.003260

 10 H s       :     0.599418  s :     0.599418
      pz      :     0.023752  p :     0.044988
      px      :     0.012378
      py      :     0.008858

 11 H s       :     0.591848  s :     0.591848
      pz      :     0.010972  p :     0.044904
      px      :     0.011749
      py      :     0.022183



                     *******************************
                     * LOEWDIN POPULATION ANALYSIS *
                     *******************************

----------------------
LOEWDIN ATOMIC CHARGES
----------------------
   0 O :   -0.567404
   1 H :    0.266581
   2 H :    0.266495
   3 O :   -0.566059
   4 H :    0.266217
   5 H :    0.266803
   6 O :   -0.519559
   7 H :    0.278380
   8 H :    0.273670
   9 O :   -0.517107
  10 H :    0.273780
  11 H :    0.278204

-------------------------------
LOEWDIN REDUCED ORBITAL CHARGES
-------------------------------
  0 O s       :     3.547395  s :     3.547395
      pz      :     1.576282  p :     4.964098
      px      :     1.484802
      py      :     1.903014
      dz2     :     0.022850  d :     0.055912
      dxz     :     0.008200
      dyz     :     0.002667
      dx2y2   :     0.016153
      dxy     :     0.006042

  1 H s       :     0.608618  s :     0.608618
      pz      :     0.065448  p :     0.124801
      px      :     0.026923
      py      :     0.032430

  2 H s       :     0.597383  s :     0.597383
      pz      :     0.021423  p :     0.136122
      px      :     0.080966
      py      :     0.033733

  3 O s       :     3.547554  s :     3.547554
      pz      :     1.616409  p :     4.962403
      px      :     1.898232
      py      :     1.447761
      dz2     :     0.016342  d :     0.056102
      dxz     :     0.004061
      dyz     :     0.016699
      dx2y2   :     0.013069
      dxy     :     0.005932

  4 H s       :     0.608853  s :     0.608853
      pz      :     0.060652  p :     0.124930
      px      :     0.032187
      py      :     0.032092

  5 H s       :     0.598024  s :     0.598024
      pz      :     0.025760  p :     0.135172
      px      :     0.034167
      py      :     0.075246

  6 O s       :     3.544367  s :     3.544367
      pz      :     1.474410  p :     4.907800
      px      :     1.656214
      py      :     1.777176
      dz2     :     0.025653  d :     0.067392
      dxz     :     0.004894
      dyz     :     0.006902
      dx2y2   :     0.014432
      dxy     :     0.015511

  7 H s       :     0.598219  s :     0.598219
      pz      :     0.023127  p :     0.123401
      px      :     0.058293
      py      :     0.041980

  8 H s       :     0.602337  s :     0.602337
      pz      :     0.070527  p :     0.123993
      px      :     0.024557
      py      :     0.028909

  9 O s       :     3.543482  s :     3.543482
      pz      :     1.473502  p :     4.904006
      px      :     1.857234
      py      :     1.573270
      dz2     :     0.023703  d :     0.069619
      dxz     :     0.006123
      dyz     :     0.008497
      dx2y2   :     0.023829
      dxy     :     0.007466

 10 H s       :     0.602298  s :     0.602298
      pz      :     0.067687  p :     0.123922
      px      :     0.033733
      py      :     0.022502

 11 H s       :     0.598420  s :     0.598420
      pz      :     0.025864  p :     0.123377
      px      :     0.031314
      py      :     0.066199



                      *****************************
                      * MAYER POPULATION ANALYSIS *
                      *****************************

  NA   - Mulliken gross atomic population
  ZA   - Total nuclear charge
  QA   - Mulliken gross atomic charge
  VA   - Mayer's total valence
  BVA  - Mayer's bonded valence
  FA   - Mayer's free valence

  ATOM       NA         ZA         QA         VA         BVA        FA
  0 O      8.7581     8.0000    -0.7581     1.7246     1.7246     0.0000
  1 H      0.6520     1.0000     0.3480     0.8951     0.8951    -0.0000
  2 H      0.6105     1.0000     0.3895     0.8900     0.8900     0.0000
  3 O      8.7569     8.0000    -0.7569     1.7251     1.7251     0.0000
  4 H      0.6516     1.0000     0.3484     0.8964     0.8964     0.0000
  5 H      0.6126     1.0000     0.3874     0.8922     0.8922    -0.0000
  6 O      8.6995     8.0000    -0.6995     1.8234     1.8234    -0.0000
  7 H      0.6379     1.0000     0.3621     0.8836     0.8836    -0.0000
  8 H      0.6423     1.0000     0.3577     0.8950     0.8950    -0.0000
  9 O      8.6975     8.0000    -0.6975     1.8256     1.8256    -0.0000
 10 H      0.6444     1.0000     0.3556     0.8974     0.8974    -0.0000
 11 H      0.6368     1.0000     0.3632     0.8830     0.8830    -0.0000

  Mayer bond orders larger than 0.100000
B(  0-O ,  1-H ) :   0.8807 B(  0-O ,  2-H ) :   0.8165 B(  3-O ,  4-H ) :   0.8781 
B(  3-O ,  5-H ) :   0.8182 B(  6-O ,  7-H ) :   0.8761 B(  6-O ,  8-H ) :   0.8661 
B(  9-O , 10-H ) :   0.8671 B(  9-O , 11-H ) :   0.8743 

-------
TIMINGS
-------

Total SCF time: 0 days 0 hours 0 min 4 sec 

Total time                  ....       4.922 sec
Sum of individual times     ....       4.254 sec  ( 86.4%)

SCF preparation             ....       0.332 sec  (  6.7%)
Fock matrix formation       ....       3.194 sec  ( 64.9%)
  Startup                   ....       0.012 sec  (  0.4% of F)
  Split-RI-J                ....       0.257 sec  (  8.0% of F)
  XC integration            ....       2.477 sec  ( 77.6% of F)
    Basis function eval.    ....       0.479 sec  ( 19.3% of XC)
    Density eval.           ....       0.724 sec  ( 29.2% of XC)
    XC-Functional eval.     ....       0.274 sec  ( 11.1% of XC)
    XC-Potential eval.      ....       0.767 sec  ( 31.0% of XC)
  CPCM terms                ....       0.697 sec  ( 21.8% of F)
Diagonalization             ....       0.000 sec  (  0.0%)
Density matrix formation    ....       0.152 sec  (  3.1%)
Total Energy calculation    ....       0.087 sec  (  1.8%)
Population analysis         ....       0.107 sec  (  2.2%)
Orbital Transformation      ....       0.029 sec  (  0.6%)
Orbital Orthonormalization  ....       0.000 sec  (  0.0%)
DIIS solution               ....       0.054 sec  (  1.1%)
SOSCF solution              ....       0.299 sec  (  6.1%)
Finished LeanSCF after   5.1 sec

Maximum memory used throughout the entire LEANSCF-calculation: 7.1 MB


           ************************************************************
           *        Program running with 4 parallel MPI-processes     *
           *              working on a common directory               *
           ************************************************************

------------------------------------------------------------------------------
                         ORCA PROPERTY INTEGRAL CALCULATIONS
------------------------------------------------------------------------------

GBWName                                   ... Explicit4H2O_SMD_water_Opt_KeepDens_restart.gbw
Number of atoms                           ...     12
Number of basis functions                 ...    136
Max core memory                           ...   2000 MB

Dipole integrals                          ... YES
Quadrupole integrals                      ...  NO
Linear momentum integrals                 ...  NO
Angular momentum integrals                ...  NO
Higher moments length integrals           ...  NO
Higher moments velocity integrals         ...  NO
Kinetic energy integrals                  ...  NO
GIAO right hand sides                     ...  NO
GIAO dipole derivative integrals          ...  NO
SOC integrals                             ...  NO
EPR diamagnetic integrals (GIAO)          ...  NO
EPR gauge integrals                       ...  NO
Field gradient integrals                  ...  NO (   0 nuclei)
Spin-dipole/Fermi contact integrals       ...  NO (   0 nuclei)
Contact density integrals                 ...  NO (   0 nuclei)
Nucleus-orbit integrals                   ...  NO (   0 nuclei)
Geometric perturbations                   ... YES (  12 nuclei)

Choice of electric origin   ... Center of mass
Position of electric origin ... ( 61.1331,-41.2847,  0.8750) 
Choice of magnetic origin   ... GIAO
Position of magnetic origin ... (  0.0000,  0.0000,  0.0000) 

Calculating integrals                     ... Electric Dipole (Length)     done (  0.0 sec)
Calculating integrals                     ... Geometrical perturbation right hand sides

-----------------------
GEOMETRIC PERTURBATIONS (12 nuclei)
-----------------------

MaxCore                            ...   2000 MB
Number of batches                  ...      1

BATCH   0: Atoms    0 -   11 ( 36 perturbations)
   => H(core) and overlap derivative integrals     ... done (     0.1 sec)
   => Making and storing internal U-coefficients   ... done (     0.3 sec)
   => RI-J derivative integrals                    ... done (     0.6 sec)
   => RI-J response operators                      ... done (     0.1 sec)
   => XC derivative integrals                      ... done (    26.7 sec)
   => XC response operators                        ... done (     9.8 sec)
   => CPCM derivative integrals                    ... done (     2.7 sec)
   => CPCM response operators                      ... done (     3.7 sec)
   => Completing and storing right hand sides      ... done (     0.0 sec)
   => Total time for right hand sides =  42.5 sec

  geometrical perturbations done ( 42.6 sec)

Property integrals calculated in  42.6 sec

Maximum memory used throughout the entire PROPINT-calculation: 43.0 MB


-------------------------------------------------------------------------------
                          DFT DISPERSION CORRECTION                            
                                                                               
                                DFTD4 V3.4.0                                   
-------------------------------------------------------------------------------
The R2SCAN3C composite method is recognized
Using three-body term ABC
Active option DFTDOPT                   ...         5   

-------------------------   ----------------
Dispersion correction           -0.001697390
-------------------------   ----------------

------------------   -----------------
gCP correction             0.010737874
------------------   -----------------

-------------------------   --------------------
FINAL SINGLE POINT ENERGY      -305.739312945762
-------------------------   --------------------

                                *** OPTIMIZATION RUN DONE ***



           ************************************************************
           *        Program running with 4 parallel MPI-processes     *
           *              working on a common directory               *
           ************************************************************
------------------------------------------------------------------------------
                            ORCA SCF RESPONSE CALCULATION
------------------------------------------------------------------------------

GBWName                                 ... Explicit4H2O_SMD_water_Opt_KeepDens_restart.gbw
Number of atoms                         ...     12
Number of basis functions               ...    136
Max core memory                         ...   2000 MB

Electric field perturbation             ...  NO
Quadrupolar field perturbation          ...  NO
Magnetic field perturbation (no GIAO)   ...  NO
Magnetic field perturbation (with GIAO) ...  NO
Linear momentum (velocity) perturbation ...  NO
Spin-orbit coupling perturbation        ...  NO
Choice of electric origin               ... Center of mass
Position of electric origin             ...    61.133074   -41.284687     0.874981
Choice of magnetic origin               ... GIAO
Position of magnetic origin             ...     0.000000     0.000000     0.000000
Nuclear geometric perturbations         ... YES (  36 perturbations)
Nucleus-orbit perturbations             ...  NO (   0 perturbations)
Spin-dipole/Fermi contact perturbations ...  NO (   0 perturbations)

Total number of real perturbations      ...     36
Total number of imaginary perturbations ...      0
Total number of triplet perturbations   ...      0
Total number of SOC perturbations       ...      0

Using XC Grid                  ... (Explicit4H2O_SMD_water_Opt_KeepDens_restart.grid_cpscf.tmp) 
Recalculating density on grid  ... (Explicit4H2O_SMD_water_Opt_KeepDens_restart.grho_cpscf0.tmp) done
Calculating the xc-kernel      ... (Explicit4H2O_SMD_water_Opt_KeepDens_restart.fxc_cpscf0.tmp) done

                                **********************
                                * REAL PERTURBATIONS *
                                **********************



-------------------
SHARK CP-SCF DRIVER
-------------------

Dimension of the orbital basis          ...    136
Dimension of the CPSCF-problem          ...   2320
Number of operators                     ...      1
Max. number of iterations               ...    128
Convergence Tolerance                   ... 1.0e-04
Number of perturbations                 ...     36
Perturbation type                       ... REAL

----------------------------
POPLE LINEAR EQUATION SOLVER
----------------------------

  ITERATION   0:   ||err||_max =   2.9369e-01 (   4.9 sec   0/ 36 done)
  ITERATION   1:   ||err||_max =   3.1357e-02 (   5.0 sec   0/ 36 done)
  ITERATION   2:   ||err||_max =   7.4143e-03 (   5.1 sec   0/ 36 done)
  ITERATION   3:   ||err||_max =   2.6353e-03 (   5.7 sec   1/ 36 done)
  ITERATION   4:   ||err||_max =   3.1434e-04 (   6.6 sec   9/ 36 done)
  ITERATION   5:   ||err||_max =   1.2767e-04 (   5.3 sec  32/ 36 done)
  ITERATION   6:   ||err||_max =   2.7919e-05 (   1.1 sec  36/ 36 done)

CP-SCF equations solved in  38.4 sec
Response densities calculated in   0.0 sec

Maximum memory used throughout the entire SCFRESP-calculation: 17.1 MB


           ************************************************************
           *        Program running with 4 parallel MPI-processes     *
           *              working on a common directory               *
           ************************************************************

------------------------------------------------------------------------------
                              ORCA PROPERTY CALCULATIONS
------------------------------------------------------------------------------

GBWName                                 ... Explicit4H2O_SMD_water_Opt_KeepDens_restart.gbw
Number of atoms                         ...     12
Number of basis functions               ...    136
Max core memory                         ...   2000 MB

Electric properties:
Dipole moment                           ... YES
Quadrupole moment                       ...  NO
Static polarizability (Dipole/Dipole)   ...  NO
Static polarizability (Dipole/Quad.)    ...  NO
Static polarizability (Quad./Quad.)     ...  NO
Static polarizability (Velocity)        ...  NO
Static hyperpolarizability              ...  NO

Atomic electric properties:
Dipole moment                           ...  NO
Quadrupole moment                       ...  NO
Static polarizability                   ...  NO

Choice of electric origin               ... Center of mass
Position of electric origin             ...    61.133074   -41.284687     0.874981

General magnetic properties:
Magnetizability                         ...  NO

EPR properties:
g-Tensor (aka g-matrix)                 ...  NO
Zero-Field splitting spin-orbit         ...  NO
Zero-field splitting spin-spin          ...  NO
Hyperfine couplings                     ...  NO (   0 nuclei)
Quadrupole couplings                    ...  NO (   0 nuclei)
Contact density                         ...  NO (   0 nuclei)

NMR properties:
Chemical shifts                         ...  NO (   0 nuclei)
Spin-rotation constants                 ...  NO (   0 nuclei)
Spin-spin couplings                     ...  NO (   0 nuclei,    0 pairs)

Choice of magnetic origin               ... GIAO
Position of magnetic origin             ...     0.000000     0.000000     0.000000

Properties with geometric perturbations:
SCF Hessian                             ... YES
IR spectrum                             ... YES
VCD spectrum                            ...  NO
X-ray spectroscopy properties:
SCF XES/XAS/RIXS spectra                ...  NO

SCF SOC stabilization energy            ...  NO
Diagonal Born-Oppenheimer correction    ...  NO

-------------
DIPOLE MOMENT
-------------

Method             : SCF
Type of density    : Electron Density
Multiplicity       :   1
Irrep              :   0
Energy             :  -305.7483534294840410 Eh
Basis              : AO
                                X                 Y                 Z
Electronic contribution:      0.106572053      -0.158884754       0.035705223
Nuclear contribution   :      1.139127398      -1.811784363       0.164582038
                        -----------------------------------------
Total Dipole Moment    :      1.245699451      -1.970669117       0.200287261
                        -----------------------------------------
Magnitude (a.u.)       :      2.339961299
Magnitude (Debye)      :      5.947708949



--------------------
Rotational spectrum 
--------------------
 
Rotational constants in cm-1:             0.111269             0.085033             0.084045 
Rotational constants in MHz :          3335.764611          2549.216241          2519.598206 

Dipole components along the rotational axes: 
x,y,z [a.u.] :    -0.291907    -2.267680    -0.497830 
x,y,z [Debye]:    -0.741969    -5.763985    -1.265384 

 

Dipole moment calculation done in   0.0 sec 

-----------
SCF HESSIAN
-----------

Occupied/Occupied contributions to the Hessian:
   => Occupied/Occupied contributions              ... done (  0.0 sec)
Perturbed density contributions to the Hessian:
   => Perturbed density contributions              ... done (  0.0 sec)
Explicit contributions to the Hessian:
   => Nuclear repulsion Hessian                    ... done (  0.0 sec)
   => HCore and overlap Hessian                    ... done (  1.1 sec)
   => RI-J Hessian                                 ... done (  1.1 sec)
   => XC-Hessian                                   ... done ( 16.6 sec)
   => CPCM-Hessian                                 ... done (  1.7 sec)
   => Van der Waals-Hessian                        ... done (  1.6 sec)
   => GCP-Hessian                                  ... done (  0.1 sec)
   => SMD-Hessian                                  ... done (  0.2 sec)
   => Explicit contributions done
Dipole derivatives                                 ... done (  0.0 sec)
Mass weighting the Hessian           ... done
Calculating normal modes             ... done
Scaling frequencies                  ... done

-----------------------
VIBRATIONAL FREQUENCIES
-----------------------

Scaling factor for frequencies =  1.000000000  (already applied!)

     0:       0.00 cm**-1
     1:       0.00 cm**-1
     2:       0.00 cm**-1
     3:       0.00 cm**-1
     4:       0.00 cm**-1
     5:       0.00 cm**-1
     6:      25.67 cm**-1
     7:      50.84 cm**-1
     8:      91.94 cm**-1
     9:      98.86 cm**-1
    10:     105.10 cm**-1
    11:     122.54 cm**-1
    12:     130.30 cm**-1
    13:     167.49 cm**-1
    14:     180.93 cm**-1
    15:     190.40 cm**-1
    16:     230.97 cm**-1
    17:     264.22 cm**-1
    18:     294.95 cm**-1
    19:     328.44 cm**-1
    20:     417.03 cm**-1
    21:     445.82 cm**-1
    22:     575.91 cm**-1
    23:     606.08 cm**-1
    24:    1600.96 cm**-1
    25:    1606.97 cm**-1
    26:    1624.60 cm**-1
    27:    1640.57 cm**-1
    28:    3531.48 cm**-1
    29:    3537.86 cm**-1
    30:    3760.22 cm**-1
    31:    3764.99 cm**-1
    32:    3827.33 cm**-1
    33:    3831.84 cm**-1
    34:    3856.41 cm**-1
    35:    3857.87 cm**-1


------------
NORMAL MODES
------------

These modes are the Cartesian displacements weighted by the diagonal matrix
M(i,i)=1/sqrt(m[i]) where m[i] is the mass of the displaced atom
Thus, these vectors are normalized but *not* orthogonal

                  0          1          2          3          4          5    
      0       0.000000   0.000000   0.000000   0.000000   0.000000   0.000000
      1       0.000000   0.000000   0.000000   0.000000   0.000000   0.000000
      2       0.000000   0.000000   0.000000   0.000000   0.000000   0.000000
      3       0.000000   0.000000   0.000000   0.000000   0.000000   0.000000
      4       0.000000   0.000000   0.000000   0.000000   0.000000   0.000000
      5       0.000000   0.000000   0.000000   0.000000   0.000000   0.000000
      6       0.000000   0.000000   0.000000   0.000000   0.000000   0.000000
      7       0.000000   0.000000   0.000000   0.000000   0.000000   0.000000
      8       0.000000   0.000000   0.000000   0.000000   0.000000   0.000000
      9       0.000000   0.000000   0.000000   0.000000   0.000000   0.000000
     10       0.000000   0.000000   0.000000   0.000000   0.000000   0.000000
     11       0.000000   0.000000   0.000000   0.000000   0.000000   0.000000
     12       0.000000   0.000000   0.000000   0.000000   0.000000   0.000000
     13       0.000000   0.000000   0.000000   0.000000   0.000000   0.000000
     14       0.000000   0.000000   0.000000   0.000000   0.000000   0.000000
     15       0.000000   0.000000   0.000000   0.000000   0.000000   0.000000
     16       0.000000   0.000000   0.000000   0.000000   0.000000   0.000000
     17       0.000000   0.000000   0.000000   0.000000   0.000000   0.000000
     18       0.000000   0.000000   0.000000   0.000000   0.000000   0.000000
     19       0.000000   0.000000   0.000000   0.000000   0.000000   0.000000
     20       0.000000   0.000000   0.000000   0.000000   0.000000   0.000000
     21       0.000000   0.000000   0.000000   0.000000   0.000000   0.000000
     22       0.000000   0.000000   0.000000   0.000000   0.000000   0.000000
     23       0.000000   0.000000   0.000000   0.000000   0.000000   0.000000
     24       0.000000   0.000000   0.000000   0.000000   0.000000   0.000000
     25       0.000000   0.000000   0.000000   0.000000   0.000000   0.000000
     26       0.000000   0.000000   0.000000   0.000000   0.000000   0.000000
     27       0.000000   0.000000   0.000000   0.000000   0.000000   0.000000
     28       0.000000   0.000000   0.000000   0.000000   0.000000   0.000000
     29       0.000000   0.000000   0.000000   0.000000   0.000000   0.000000
     30       0.000000   0.000000   0.000000   0.000000   0.000000   0.000000
     31       0.000000   0.000000   0.000000   0.000000   0.000000   0.000000
     32       0.000000   0.000000   0.000000   0.000000   0.000000   0.000000
     33       0.000000   0.000000   0.000000   0.000000   0.000000   0.000000
     34       0.000000   0.000000   0.000000   0.000000   0.000000   0.000000
     35       0.000000   0.000000   0.000000   0.000000   0.000000   0.000000
                  6          7          8          9         10         11    
      0       0.007227  -0.043187  -0.045685  -0.075260   0.113898  -0.018669
      1      -0.013900  -0.297356   0.034746   0.111384   0.134541   0.000824
      2      -0.082333  -0.038471   0.252019  -0.073879  -0.043566   0.028363
      3       0.126725   0.058598  -0.113185  -0.189107   0.052804   0.002370
      4       0.307547  -0.009174   0.297731   0.016562  -0.229819   0.193835
      5      -0.152481  -0.099113   0.256279  -0.023918   0.008116   0.005213
      6       0.019882   0.015861  -0.051279  -0.103368   0.089149  -0.011313
      7       0.031525  -0.045837   0.064944   0.035571   0.003493   0.047934
      8      -0.049285  -0.044186   0.108682  -0.161867   0.006448  -0.005442
      9      -0.122178   0.203109   0.056989   0.077638  -0.089303   0.016260
     10       0.028573  -0.045199  -0.072911   0.048554  -0.066171  -0.015360
     11       0.003048   0.037097  -0.086178   0.350388   0.141087   0.010851
     12       0.824097   0.465060   0.540548   0.146376  -0.106401   0.217453
     13      -0.154521  -0.074120  -0.240415  -0.054787  -0.148608  -0.022994
     14       0.176583   0.072635   0.045356   0.413922   0.186337   0.029826
     15      -0.048717   0.062982   0.056361  -0.013020  -0.041505  -0.003525
     16       0.019379  -0.005576  -0.090429   0.045226  -0.103126  -0.000938
     17       0.046422   0.041394  -0.146857   0.226759   0.047722   0.042186
     18       0.016759  -0.279732   0.054507   0.028954  -0.090751  -0.010440
     19       0.007479   0.075048  -0.024506  -0.177122  -0.164734  -0.042644
     20       0.019619   0.028693  -0.144391   0.031117  -0.264884  -0.019327
     21       0.050388  -0.435730   0.119820   0.214707  -0.202220   0.133395
     22       0.040101  -0.129108  -0.012080   0.063715  -0.231493   0.096659
     23       0.063275  -0.070085   0.038583   0.153610  -0.489532   0.167101
     24      -0.040560  -0.165197  -0.112727  -0.124882   0.142142  -0.220156
     25       0.007363   0.039463   0.068293  -0.155389  -0.238712   0.002261
     26       0.023279   0.023466  -0.137600   0.039316  -0.274422  -0.008567
     27       0.034629   0.099345  -0.083740  -0.026738   0.054234   0.004177
     28      -0.027791   0.256770   0.064067   0.031078   0.136224   0.012982
     29       0.037151  -0.033719  -0.050872  -0.332847   0.178519   0.003392
     30       0.115394   0.107876  -0.120803  -0.086171   0.134671   0.197480
     31      -0.185123   0.056693  -0.311049  -0.346305   0.190899   0.588736
     32       0.073757  -0.009743  -0.018146  -0.304154   0.190711  -0.014616
     33      -0.038328   0.215378  -0.034159   0.082566   0.120576  -0.178053
     34       0.023226   0.338074   0.200867   0.174893   0.124707  -0.203979
     35       0.175817   0.187198   0.320669   0.056633   0.147555  -0.585178
                 12         13         14         15         16         17    
      0      -0.042677  -0.198369   0.312475  -0.013164  -0.011511   0.022047
      1       0.021827   0.073167  -0.064167   0.028158   0.005261  -0.023180
      2       0.021259  -0.024871  -0.051253   0.005801   0.002926   0.007320
      3      -0.082281  -0.263794   0.164228  -0.244236  -0.003429  -0.107495
      4       0.003969  -0.357532  -0.495355  -0.858658  -0.014975   0.050741
      5       0.037538   0.032637   0.039603   0.161614   0.001583   0.050305
      6      -0.054666  -0.201672   0.311852  -0.015516  -0.021631   0.050542
      7      -0.008085   0.094805  -0.122131   0.037532  -0.042347   0.171764
      8      -0.015721  -0.000578  -0.084853  -0.029683   0.018694  -0.170158
      9       0.011737  -0.077744  -0.033060   0.008852   0.019505   0.002301
     10      -0.005553  -0.339287  -0.155046   0.052339  -0.031816  -0.004673
     11       0.001751   0.135913   0.094078  -0.039559  -0.012859   0.003006
     12       0.243107  -0.102873   0.285678   0.321504   0.079047  -0.059312
     13      -0.079171  -0.282391  -0.141651  -0.095996   0.099698   0.127607
     14       0.060852   0.099225   0.108097   0.068739  -0.083591  -0.077832
     15       0.044233  -0.089005  -0.077269   0.023176  -0.224140  -0.017369
     16      -0.018761  -0.342808  -0.131477   0.034941   0.064081   0.031749
     17      -0.012815   0.179852   0.170637  -0.098195   0.093672   0.119897
     18       0.019509   0.093064   0.053482  -0.018744  -0.043373   0.002516
     19       0.017854   0.352717   0.188254  -0.021207  -0.019231  -0.002311
     20       0.046292  -0.091501   0.013614   0.012972   0.012656   0.004285
     21      -0.309964   0.015995   0.051893   0.046439   0.343716  -0.002133
     22      -0.241079   0.155966   0.178738   0.042470   0.775182   0.071399
     23      -0.497064   0.040471   0.024513   0.096632  -0.308196  -0.154146
     24       0.649528  -0.225531  -0.083552  -0.085552   0.226545   0.055413
     25      -0.062137   0.058038  -0.020462   0.040553  -0.092412  -0.212920
     26       0.010725  -0.055317   0.032594   0.013750   0.000012   0.011208
     27      -0.027819   0.235520  -0.364225   0.020996   0.001744   0.031565
     28      -0.014683  -0.038041   0.061301  -0.007616  -0.004591   0.026189
     29      -0.030355  -0.026382  -0.066438   0.007325   0.011939  -0.002911
     30       0.117120   0.044738  -0.028673   0.080331  -0.037417   0.021820
     31       0.168455  -0.026622   0.212863  -0.003299   0.003092  -0.208730
     32      -0.016264  -0.071318  -0.005851   0.020827   0.001627   0.020114
     33       0.015899  -0.010702  -0.126914  -0.093455   0.171171  -0.868845
     34      -0.071828  -0.070139   0.037884  -0.017708   0.007254   0.031497
     35      -0.185423  -0.116391  -0.126030  -0.020013   0.043484   0.014916
                 18         19         20         21         22         23    
      0       0.002750  -0.010977  -0.033923   0.019923   0.004601  -0.005738
      1       0.006168   0.014696   0.005244  -0.011437  -0.001191  -0.025817
      2       0.009332   0.005898   0.014699  -0.006718  -0.002640   0.002774
      3      -0.344376   0.141550   0.414884  -0.324676  -0.051260  -0.013917
      4       0.084908  -0.098771  -0.199855   0.035835   0.006932  -0.002767
      5       0.133878  -0.042431  -0.138970   0.119841   0.018051   0.004443
      6      -0.061381  -0.015968   0.054572   0.007101  -0.001653   0.201210
      7      -0.128051  -0.082313   0.209593   0.069542  -0.007290   0.910705
      8      -0.323989   0.184681   0.413345  -0.325556  -0.045858  -0.152946
      9      -0.006576   0.006183  -0.008144   0.000447  -0.031370   0.000484
     10       0.000229   0.006290  -0.018319  -0.021407   0.001162   0.003343
     11      -0.017099  -0.015752   0.002512   0.012560  -0.002610   0.002597
     12       0.004248   0.207813   0.077617   0.166622   0.030195  -0.043863
     13       0.244361   0.199503   0.371813   0.330117   0.026549  -0.065388
     14      -0.156562  -0.111320  -0.216198  -0.178257  -0.012454   0.037449
     15       0.114552  -0.076426   0.050226  -0.233932   0.892524   0.015721
     16       0.040889   0.086545   0.072987   0.123174  -0.195354  -0.021686
     17       0.263664   0.206698   0.402896   0.308271   0.214579  -0.073469
     18       0.007746   0.024359  -0.001876   0.004799  -0.025505   0.002421
     19       0.014592   0.010570  -0.014528  -0.017374  -0.005163   0.001245
     20      -0.000711   0.003305  -0.023210  -0.021507  -0.000177   0.001622
     21      -0.036768  -0.102180  -0.019487  -0.034250   0.068923  -0.006742
     22      -0.052650  -0.145246  -0.076241  -0.151505   0.163486   0.016098
     23      -0.010256  -0.092238   0.040265   0.115388  -0.035653  -0.054709
     24      -0.195329  -0.222273   0.066084   0.143789   0.058407  -0.049201
     25      -0.364672  -0.608097   0.216657   0.463725   0.077239  -0.169594
     26       0.030199   0.048857  -0.037206  -0.053738  -0.008243   0.014919
     27      -0.021101   0.012504  -0.015111   0.010201   0.004202  -0.015671
     28      -0.010914   0.006853  -0.007449  -0.005482   0.000666  -0.022026
     29      -0.003077   0.007710  -0.030510   0.023487   0.003245   0.006758
     30       0.536552  -0.526084   0.335117  -0.373082  -0.250689  -0.039891
     31      -0.018907   0.067181  -0.063761   0.041482   0.015671   0.037937
     32       0.129035  -0.124807   0.058864  -0.071929  -0.056568  -0.004536
     33       0.255206   0.084580  -0.041697   0.087018   0.016543   0.230370
     34       0.034201  -0.028438   0.025155  -0.028305  -0.015396  -0.018755
     35       0.117444  -0.087879   0.056466  -0.038184  -0.039227   0.010580
                 24         25         26         27         28         29    
      0       0.001059  -0.007008   0.024777   0.016151   0.056702  -0.004469
      1      -0.000596   0.003197  -0.013185  -0.008314  -0.014578   0.001097
      2      -0.002508   0.012850  -0.045814  -0.030129  -0.012392   0.000970
      3      -0.027406   0.140100  -0.485683  -0.321886   0.076486  -0.005234
      4       0.007822  -0.037468   0.140211   0.084712   0.003964   0.000087
      5       0.009418  -0.047858   0.167440   0.112766   0.130893  -0.009705
      6       0.004950  -0.021233   0.080807   0.051572  -0.953606   0.074348
      7      -0.001070  -0.011085   0.081329   0.046797   0.221505  -0.017084
      8       0.030828  -0.167766   0.597528   0.399940   0.066099  -0.005337
      9      -0.001645   0.000520   0.009492  -0.014054  -0.001185  -0.016103
     10      -0.001494   0.000297   0.011772  -0.017577  -0.004011  -0.053353
     11       0.004168  -0.001195  -0.034093   0.049448   0.001791   0.021153
     12       0.017596  -0.006411  -0.099455   0.157792  -0.000277   0.001685
     13       0.040062  -0.014349  -0.308483   0.462299  -0.009125  -0.098629
     14      -0.020917   0.007452   0.167320  -0.251125  -0.012033  -0.116801
     15       0.011142  -0.006502  -0.053493   0.076073   0.018805   0.248617
     16      -0.017282   0.006446   0.122045  -0.175612   0.071410   0.924376
     17      -0.051937   0.011586   0.399804  -0.582722  -0.016372  -0.214301
     18      -0.008847  -0.047145  -0.008066  -0.006751   0.000297   0.002988
     19       0.005003   0.025395   0.004096   0.003905  -0.000043   0.000119
     20      -0.007281  -0.039527  -0.008845  -0.003018   0.000034   0.002038
     21       0.031925   0.169523   0.028834   0.025057  -0.003340  -0.039026
     22      -0.009420  -0.051922  -0.014566   0.002960   0.001837   0.023509
     23       0.122974   0.648697   0.117589   0.079972   0.000766   0.013437
     24       0.107667   0.582316   0.108246   0.071528  -0.001323  -0.002442
     25      -0.071406  -0.351416  -0.060592  -0.069563  -0.000082  -0.004169
     26      -0.003186  -0.020548  -0.004061   0.001270  -0.002307  -0.050715
     27       0.013667  -0.002273  -0.000359  -0.001664  -0.000702   0.000161
     28      -0.057229   0.009851   0.001477   0.006348  -0.002626   0.000018
     29      -0.033750   0.006521  -0.001507   0.002220  -0.001993  -0.000194
     30      -0.044627   0.000472   0.010884   0.027046  -0.011968  -0.001542
     31       0.685332  -0.115817  -0.020716  -0.079600   0.005006   0.000746
     32      -0.090505   0.014034   0.003609   0.013329   0.048468   0.002266
     33      -0.168445   0.029085  -0.000347   0.013076   0.000482   0.000134
     34       0.228064  -0.039262  -0.005260  -0.023795   0.042885  -0.001609
     35       0.628237  -0.106718  -0.016637  -0.067408  -0.016162   0.000756
                 30         31         32         33         34         35    
      0      -0.002472   0.000220   0.003427  -0.031265  -0.000153   0.000659
      1       0.000949  -0.000291   0.000127  -0.001952   0.000022  -0.000035
      2       0.002546  -0.001253   0.005673  -0.055114   0.000035   0.000876
      3      -0.016310   0.008089  -0.037621   0.363556  -0.000224  -0.005876
      4      -0.002369   0.001387  -0.007087   0.066184   0.000063  -0.000998
      5      -0.037190   0.019499  -0.094557   0.910007  -0.000281  -0.014598
      6       0.057861  -0.012045  -0.015694   0.128459   0.002813  -0.004438
      7      -0.014210   0.004918   0.005223  -0.034139  -0.000578   0.002754
      8      -0.003358   0.001561   0.003432  -0.035443   0.000511   0.001591
      9       0.000372   0.001013   0.001008   0.000110  -0.000121  -0.000022
     10       0.001018   0.001615  -0.039818  -0.004092   0.000104  -0.000383
     11      -0.000426  -0.003457  -0.049268  -0.005153   0.000393  -0.000258
     12      -0.000263  -0.002472  -0.055819  -0.005941   0.000567  -0.000383
     13       0.002637   0.027674   0.505299   0.051739  -0.004191   0.003126
     14       0.002832   0.043334   0.839965   0.087302  -0.006019   0.005090
     15      -0.006120  -0.013213   0.038101   0.003788   0.001572   0.000042
     16      -0.019311  -0.056288   0.122131   0.012667   0.002959   0.003185
     17       0.003587   0.013023  -0.055929  -0.005582   0.000597  -0.000789
     18       0.007006   0.032722  -0.001080  -0.001059  -0.012434  -0.034684
     19      -0.003459  -0.016262   0.000848   0.000655   0.008785   0.024581
     20       0.007926   0.033912  -0.001737   0.000232   0.017633   0.049788
     21      -0.108533  -0.506548   0.017658   0.017824   0.211639   0.590925
     22       0.067671   0.314685  -0.011001  -0.011100  -0.130023  -0.362880
     23       0.042919   0.197539  -0.007329  -0.006553  -0.067678  -0.188695
     24      -0.002626  -0.013623   0.000517  -0.000770  -0.014155  -0.040315
     25      -0.012222  -0.054921   0.002107   0.001241  -0.009995  -0.028589
     26      -0.169649  -0.738812   0.034150   0.002676  -0.212577  -0.603471
     27       0.010000  -0.002239  -0.000094   0.000691  -0.008616   0.002968
     28      -0.038587   0.008492  -0.000554  -0.001281  -0.038447   0.013972
     29      -0.030266   0.006950   0.000318  -0.001340   0.052430  -0.018387
     30      -0.167649   0.037668   0.001094  -0.006865   0.135916  -0.046821
     31       0.044604  -0.010525  -0.000807   0.001730  -0.067676   0.023843
     32       0.727830  -0.164059  -0.001347   0.029775  -0.579512   0.200073
     33       0.007046  -0.001259   0.000014   0.000262   0.000328   0.000154
     34       0.569332  -0.124629   0.009422   0.017558   0.678220  -0.245730
     35      -0.246057   0.054107  -0.003929  -0.008041  -0.253859   0.092585


-----------
IR SPECTRUM
-----------

 Mode   freq       eps      Int      T**2         TX        TY        TZ
       cm**-1   L/(mol*cm) km/mol    a.u.
----------------------------------------------------------------------------
  6:     25.67   0.037339  188.69  0.453991  ( 0.632121  0.052010  0.227398)
  7:     50.84   0.001210    6.11  0.007426  ( 0.065662  0.052147  0.019891)
  8:     91.94   0.004609   23.29  0.015643  ( 0.069691 -0.011708  0.103196)
  9:     98.86   0.001197    6.05  0.003780  (-0.016868 -0.023705  0.054160)
 10:    105.10   0.005336   26.97  0.015843  ( 0.038077 -0.115703 -0.031720)
 11:    122.54   0.028828  145.69  0.073412  ( 0.039887  0.236479 -0.126091)
 12:    130.30   0.034319  173.44  0.082195  ( 0.192832 -0.096609 -0.188886)
 13:    167.49   0.015892   80.31  0.029609  (-0.125296 -0.116349  0.019312)
 14:    180.93   0.008830   44.62  0.015230  ( 0.088593 -0.083156  0.021604)
 15:    190.40   0.025900  130.89  0.042450  ( 0.002458 -0.198073  0.056670)
 16:    230.97   0.040490  204.62  0.054706  ( 0.125900  0.189178 -0.055382)
 17:    264.22   0.037923  191.65  0.044790  (-0.207055  0.009266 -0.042809)
 18:    294.95   0.006349   32.08  0.006717  ( 0.058060 -0.038277  0.043370)
 19:    328.44   0.029138  147.25  0.027685  (-0.107018 -0.125918 -0.019421)
 20:    417.03   0.064961  328.29  0.048611  ( 0.170029  0.097536  0.100933)
 21:    445.82   0.049094  248.10  0.034365  (-0.097010  0.156235 -0.023346)
 22:    575.91   0.021147  106.87  0.011459  ( 0.106594  0.008544  0.004824)
 23:    606.08   0.022132  111.85  0.011395  ( 0.038380  0.094620 -0.031136)
 24:   1600.96   0.024426  123.44  0.004761  (-0.004441  0.057055  0.038551)
 25:   1606.97   0.028188  142.45  0.005474  ( 0.058000 -0.040572  0.021536)
 26:   1624.60   0.046914  237.09  0.009012  (-0.025474 -0.006376  0.091225)
 27:   1640.57   0.003776   19.08  0.000718  ( 0.007850  0.016507 -0.019598)
 28:   3531.48   0.135857  686.56  0.012005  (-0.103326  0.036417  0.001670)
 29:   3537.86   0.129605  654.97  0.011432  ( 0.030882  0.099445 -0.024270)
 30:   3760.22   0.005395   27.27  0.000448  (-0.004910  0.015433  0.013619)
 31:   3764.99   0.008983   45.40  0.000745  (-0.016197 -0.000573 -0.021953)
 32:   3827.33   0.023035  116.41  0.001878  (-0.001551  0.036831  0.022787)
 33:   3831.84   0.026301  132.91  0.002142  ( 0.032367  0.000373  0.033079)
 34:   3856.41   0.042934  216.97  0.003474  ( 0.012695  0.020227 -0.053888)
 35:   3857.87   0.023010  116.29  0.001861  ( 0.021193 -0.029126 -0.023746)

* The epsilon (eps) is given for a Dirac delta lineshape.
** The dipole moment derivative (T) already includes vibrational overlap.

The first frequency considered to be a vibration is 6
The total number of vibrations considered is 30


--------------------------
THERMOCHEMISTRY AT 298.15K
--------------------------

Temperature         ...   298.15 K
Pressure            ...     1.00 atm
Total Mass          ...    72.06 AMU
Quasi RRHO          ...     True
Cut-Off Frequency   ...     1.00 cm^-1

Throughout the following assumptions are being made:
  (1) The electronic state is orbitally nondegenerate
  (2) There are no thermally accessible electronically excited states
  (3) Hindered rotations indicated by low frequency modes are not
      treated as such but are treated as vibrations and this may
      cause some error
  (4) All equations used are the standard statistical mechanics
      equations for an ideal gas
  (5) All vibrations are strictly harmonic

freq.      25.67  E(vib)   ...       0.56 
freq.      50.84  E(vib)   ...       0.52 
freq.      91.94  E(vib)   ...       0.47 
freq.      98.86  E(vib)   ...       0.46 
freq.     105.10  E(vib)   ...       0.45 
freq.     122.54  E(vib)   ...       0.43 
freq.     130.30  E(vib)   ...       0.43 
freq.     167.49  E(vib)   ...       0.38 
freq.     180.93  E(vib)   ...       0.37 
freq.     190.40  E(vib)   ...       0.36 
freq.     230.97  E(vib)   ...       0.32 
freq.     264.22  E(vib)   ...       0.29 
freq.     294.95  E(vib)   ...       0.27 
freq.     328.44  E(vib)   ...       0.24 
freq.     417.03  E(vib)   ...       0.18 
freq.     445.82  E(vib)   ...       0.17 
freq.     575.91  E(vib)   ...       0.11 
freq.     606.08  E(vib)   ...       0.10 
freq.    1600.96  E(vib)   ...       0.00 
freq.    1606.97  E(vib)   ...       0.00 
freq.    1624.60  E(vib)   ...       0.00 
freq.    1640.57  E(vib)   ...       0.00 
freq.    3531.48  E(vib)   ...       0.00 
freq.    3537.86  E(vib)   ...       0.00 
freq.    3760.22  E(vib)   ...       0.00 
freq.    3764.99  E(vib)   ...       0.00 
freq.    3827.33  E(vib)   ...       0.00 
freq.    3831.84  E(vib)   ...       0.00 
freq.    3856.41  E(vib)   ...       0.00 
freq.    3857.87  E(vib)   ...       0.00 

------------
INNER ENERGY
------------

The inner energy is: U= E(el) + E(ZPE) + E(vib) + E(rot) + E(trans)
    E(el)   - is the total energy from the electronic structure calculation
              = E(kin-el) + E(nuc-el) + E(el-el) + E(nuc-nuc)
    E(ZPE)  - the the zero temperature vibrational energy from the frequency calculation
    E(vib)  - the the finite temperature correction to E(ZPE) due to population
              of excited vibrational states
    E(rot)  - is the rotational thermal energy
    E(trans)- is the translational thermal energy

Summary of contributions to the inner energy U:
Electronic energy                ...   -305.73931295 Eh
Zero point energy                ...      0.09287765 Eh      58.28 kcal/mol
Thermal vibrational correction   ...      0.00977933 Eh       6.14 kcal/mol
Thermal rotational correction    ...      0.00141627 Eh       0.89 kcal/mol
Thermal translational correction ...      0.00141627 Eh       0.89 kcal/mol
-----------------------------------------------------------------------
Total thermal energy                   -305.63382342 Eh


Summary of corrections to the electronic energy:
(perhaps to be used in another calculation)
Total thermal correction                  0.01261187 Eh       7.91 kcal/mol
Non-thermal (ZPE) correction              0.09287765 Eh      58.28 kcal/mol
-----------------------------------------------------------------------
Total correction                          0.10548953 Eh      66.20 kcal/mol


--------
ENTHALPY
--------

The enthalpy is H = U + kB*T
                kB is Boltzmann's constant
Total thermal energy              ...   -305.63382342 Eh 
Thermal Enthalpy correction       ...      0.00094421 Eh       0.59 kcal/mol
-----------------------------------------------------------------------
Total Enthalpy                    ...   -305.63287921 Eh


Note: Only C1 symmetry has been detected, increase convergence thresholds 
      if your molecule has a higher symmetry. Symmetry factor of 1.0 is   
      used for the rotational entropy correction. 
 

Note: Rotational entropy computed according to Herzberg 
Infrared and Raman Spectra, Chapter V,1, Van Nostrand Reinhold, 1945 
Point Group:  C1, Symmetry Number:   1  
Rotational constants in cm-1:     0.111269     0.085033     0.084045 

Vibrational entropy computed according to the QRRHO of S. Grimme
Chem.Eur.J. 2012 18 9955 using a reference frequency of 100.0 cm-1


-------
ENTROPY
-------

The entropy contributions are T*S = T*(S(el)+S(vib)+S(rot)+S(trans))
     S(el)   - electronic entropy
     S(vib)  - vibrational entropy
     S(rot)  - rotational entropy
     S(trans)- translational entropy
The entropies will be listed as multiplied by the temperature to get
units of energy

Electronic entropy                ...      0.00000000 Eh      0.00 kcal/mol
Vibrational entropy               ...      0.01852822 Eh     11.63 kcal/mol
Rotational entropy                ...      0.01288009 Eh      8.08 kcal/mol
Translational entropy             ...      0.01840717 Eh     11.55 kcal/mol
-----------------------------------------------------------------------
Final entropy term                ...      0.04981547 Eh     31.26 kcal/mol

In case the symmetry of your molecule has not been determined correctly
or in case you have a reason to use a different symmetry number we print 
out the resulting rotational entropy values for sn=1,12:

 non-linear molecules -----------------------------------
|  sn= 1 | S(rot)=       0.01288009 Eh      8.08 kcal/mol|
|  sn= 2 | S(rot)=       0.01222563 Eh      7.67 kcal/mol|
|  sn= 3 | S(rot)=       0.01184280 Eh      7.43 kcal/mol|
|  sn= 4 | S(rot)=       0.01157117 Eh      7.26 kcal/mol|
|  sn= 5 | S(rot)=       0.01136048 Eh      7.13 kcal/mol|
|  sn= 6 | S(rot)=       0.01118834 Eh      7.02 kcal/mol|
|  sn= 7 | S(rot)=       0.01104279 Eh      6.93 kcal/mol|
|  sn= 8 | S(rot)=       0.01091672 Eh      6.85 kcal/mol|
|  sn= 9 | S(rot)=       0.01080551 Eh      6.78 kcal/mol|
|  sn=10 | S(rot)=       0.01070603 Eh      6.72 kcal/mol|
|  sn=11 | S(rot)=       0.01061604 Eh      6.66 kcal/mol|
|  sn=12 | S(rot)=       0.01053388 Eh      6.61 kcal/mol|
 linear molecules ---------------------------------------
|  Dinfh | S(rot)=       0.00766398 Eh      4.81 kcal/mol|
|  Cinfv | S(rot)=       0.00831844 Eh      5.22 kcal/mol|
 --------------------------------------------------------


-------------------
GIBBS FREE ENERGY
-------------------

The Gibbs free energy is G = H - T*S

Total enthalpy                    ...   -305.63287921 Eh 
Total entropy correction          ...     -0.04981547 Eh    -31.26 kcal/mol
-----------------------------------------------------------------------
Final Gibbs free energy         ...   -305.68269468 Eh

For completeness - the Gibbs free energy minus the electronic energy
G-E(el)                           ...      0.05661826 Eh     35.53 kcal/mol


Maximum memory used throughout the entire PROP-calculation: 26.1 MB

--------------------------------
SUGGESTED CITATIONS FOR THIS RUN
--------------------------------

Below you find a list of papers that are relevant to this ORCA run
We neither can nor want to force you to cite these papers, but we appreciate if you do
You receive ORCA, which is the product of decades of hard work by many enthusiastic individuals, for free
The only thing we kindly ask in return is that you cite our papers,
We deeply appreciate it, if you show your appreciation for ORCA by not just citing the generic ORCA reference.

Please note that relegating all ORCA citations to the supporting information does *not* help us.
SI sections are not indexed - citations you put there will not count into any citation statistics
But we need these citations in order to attract the funding resources that allow us to do what we are doing

Therefore, if you are a happy ORCA user, please consider citing a few of the papers listed below in the main body of your paper

In addition to the list printed below, the program has created the file Explicit4H2O_SMD_water_Opt_KeepDens_restart.bibtex that contains the list in bibtex format
You can import this file easily into all common literature databanks and citation aid programs

It goes without saying that in many instances, there are alternative algorithms to achieve similar
results as the ones you have gotten from ORCA. It is, of course, also the case that in some instances
ORCA just re-implements algorithms worked out by others. We are fully aware of that and we are also
fully appreciative of our colleagues work. Hence this citation list should not be read as indicating
that the listed papers, which are focused on our own work, are the only ones worth citing. It simply
meant to make it easier for users to cite ORCA specific papers. It is not a substitute for doing your
own literature research and citing the relevant literature in a scientifically appropriate manner.

List of essential papers. We consider these as the minimum necessary citations

  1. Grimme, S.; Hansen, A.; Ehlert, S.; Mewes, J.
     r2SCAN-3c: A 'Swiss army knife' composite electronic-structure method
     J. Chem. Phys. 2021 154 , 064103
     doi.org/10.1063/5.0040021
  2. Neese, F.
     Software update: the ORCA program system, version 6.0
     WIRES Comput. Molec. Sci. 2025 15(1), e70019
     doi.org/10.1002/wcms.70019

List of papers to cite with high priority. The work reported in these papers was absolutely
necessary for this run to complete.
Our perspective: the developers of density functionals and basis sets usually get cited in chemistry papers
Good! But without the algorithms to do something with them, the functionals or basis sets would not do anything.
Hence, in our opinion, the algorithm design and method developments papers are equally worthy of getting cited

  1. Neese, F.
     An improvement of the resolution of the identity approximation for the formation of the Coulomb matrix
     J. Comp. Chem. 2003 24(14), 1740-1747
     doi.org/10.1002/jcc.10318
  2. Bykov, D.; Petrenko, T.; Izsak, R.; Kossmann, S.; Becker, U.; Valeev, E.; Neese, F.
     Efficient implementation of the analytic second derivatives of Hartree-Fock and hybrid DFT energies: a detailed analysis of different approximations
     Molec. Phys. 2015 113 , 1961-1977
     doi.org/10.1080/00268976.2015.1025114
  3. Caldeweyher, E.; Bannwarth, C.; Grimme, S.
     Extension of the D3 dispersion coefficient model
     J. Chem. Phys. 2017 147 , 034112
     doi.org/10.1063/1.4993215
  4. Lehtola, S.; Steigemann, C.; Oliveira, M.; Marques, M.
     Recent developments in Libxc - A comprehensive library of functionals for density functional theory
     Software X 2018 7 , 
     doi.org/10.1016/j.softx.2017.11.002
  5. Caldeweyher, E.; Ehlert, S.; Hansen, A.; Neugebauer, H.; Spicher, S.; Bannwarth, C.; Grimme, S.
     A generally applicable atomic-charge dependent London dispersion correction
     J. Chem. Phys. 2019 150 , 154122
     doi.org/10.1063/1.5090222
  6. Garcia-Rates, M.; Neese, F.
     Efficient implementation of the analytical second derivatives of hartree-fock and hybrid DFT energies within the framework of the conductor-like polarizable continuum model
     J. Comput. Chem. 2019 40 , 1816-1828
     doi.org/10.1002/jcc.25833
  7. Garcia-Rates, M.; Neese, F.
     Effect of the Solute Cavity on the Solvation Energy and its Derivatives within the Framework of the Gaussian Charge Scheme
     J. Comput. Chem. 2020 41 , 922-939
     doi.org/10.1002/jcc.26139
  8. Neese, F.
     The SHARK Integral Generation and Digestion System
     J. Comp. Chem. 2022 44(3), 381
     doi.org/10.1002/jcc.26942

List of suggested additional citations. These are papers that are important in the 'surrounding' of 
of this run, or papers that preceded the highly important papers. If you like your results we are grateful for a citation.

  1. Neese, F.
     The ORCA program system
     WIRES Comput. Molec. Sci. 2012 2(1), 73-78
     doi.org/10.1002/wcms.81
  2. Neese, F.
     Software update: the ORCA program system, version 4.0
     WIRES Comput. Molec. Sci. 2018 8(1), 1-6
     doi.org/10.1002/wcms.1327
  3. Neese, F.; Wennmohs, F.; Becker, U.; Riplinger, C.
     The ORCA quantum chemistry program package
     J. Chem. Phys. 2020 152(22), 224108
     doi.org/10.1063/5.0004608
  4. Neese, F.
     Software update: The ORCA program system窶之ersion 5.0
     WIRES Comput. Molec. Sci. 2022 12(1), e1606
     doi.org/10.1002/wcms.1606

List of optional additional citations

  1. Neese, F.
     Approximate second-order SCF convergence for spin unrestricted wavefunctions
     Chem. Phys. Lett. 2000 325(1-3), 93-98
     doi.org/10.1016/s0009-2614(00)00662-x

Timings for individual modules:

Sum of individual times          ...      138.870 sec (=   2.315 min)
Startup calculation              ...        2.763 sec (=   0.046 min)   2.0 %
SCF iterations                   ...       23.861 sec (=   0.398 min)  17.2 %
Property integrals               ...       43.383 sec (=   0.723 min)  31.2 %
SCF Response                     ...       39.775 sec (=   0.663 min)  28.6 %
Property calculations            ...       23.083 sec (=   0.385 min)  16.6 %
SCF Gradient evaluation          ...        5.850 sec (=   0.097 min)   4.2 %
Geometry relaxation              ...        0.155 sec (=   0.003 min)   0.1 %
                             ****ORCA TERMINATED NORMALLY****
TOTAL RUN TIME: 0 days 0 hours 2 minutes 20 seconds 661 msec
