12
Coordinates from ORCA-job Explicit4H2O_SMD_water_Opt_KeepDens E -305.725214188274
  O      30.887870    -20.794570      1.590250
  H      30.314700    -20.850300      0.784730
  H      31.062410    -21.737790      1.835750
  O      32.511770    -20.242160     -1.260490
  H      32.910940    -19.876520     -0.431270
  H      32.530650    -21.223770     -1.132710
  O      31.691780    -24.005960     -0.157800
  H      32.476680    -23.938930     -0.757780
  H      32.056050    -24.372490      0.686890
  O      33.957290    -22.116540      1.612520
  H      34.285220    -22.376300      0.715180
  H      34.656220    -22.438960      2.235510
12
Coordinates from ORCA-job Explicit4H2O_SMD_water_Opt_KeepDens E -305.730032370809
  O      30.885967    -20.810152      1.593291
  H      30.333138    -20.874916      0.805944
  H      31.056988    -21.729517      1.830144
  O      32.519562    -20.262280     -1.261858
  H      32.902652    -19.906306     -0.451827
  H      32.543834    -21.216592     -1.123770
  O      31.692379    -23.989220     -0.162087
  H      32.461607    -23.922340     -0.740024
  H      32.053197    -24.348026      0.656920
  O      33.961765    -22.114320      1.615617
  H      34.282890    -22.370804      0.742691
  H      34.647602    -22.429818      2.215739
12
Coordinates from ORCA-job Explicit4H2O_SMD_water_Opt_KeepDens E -305.730129242198
  O      30.882206    -20.814157      1.594981
  H      30.333409    -20.882090      0.804661
  H      31.057026    -21.733098      1.830714
  O      32.525986    -20.271163     -1.263719
  H      32.901246    -19.914532     -0.449734
  H      32.544498    -21.224994     -1.119888
  O      31.688837    -23.979051     -0.163700
  H      32.459079    -23.910129     -0.740546
  H      32.052060    -24.335189      0.655931
  O      33.963561    -22.111333      1.615578
  H      34.282878    -22.370448      0.742779
  H      34.650793    -22.428105      2.213723
12
Coordinates from ORCA-job Explicit4H2O_SMD_water_Opt_KeepDens E -305.730626118753
  O      30.858010    -20.840027      1.602875
  H      30.337875    -20.930702      0.794244
  H      31.059998    -21.754537      1.835177
  O      32.568082    -20.322127     -1.273871
  H      32.889192    -19.959699     -0.437590
  H      32.550661    -21.271815     -1.096443
  O      31.665245    -23.920145     -0.171933
  H      32.440322    -23.838298     -0.742578
  H      32.042359    -24.257606      0.651067
  O      33.975561    -22.093937      1.615181
  H      34.283002    -22.369557      0.742541
  H      34.671273    -22.415841      2.202109
12
Coordinates from ORCA-job Explicit4H2O_SMD_water_Opt_KeepDens E -305.730915596109
  O      30.840176    -20.856649      1.607981
  H      30.341482    -20.960721      0.787028
  H      31.063004    -21.767168      1.838659
  O      32.598081    -20.357899     -1.277847
  H      32.879064    -19.989145     -0.429067
  H      32.552556    -21.303419     -1.080226
  O      31.651183    -23.883787     -0.179040
  H      32.428630    -23.791939     -0.745783
  H      32.035376    -24.204032      0.648295
  O      33.984332    -22.083285      1.614249
  H      34.282627    -22.369425      0.741762
  H      34.685070    -22.406821      2.194769
12
Coordinates from ORCA-job Explicit4H2O_SMD_water_Opt_KeepDens E -305.731324802133
  O      30.811827    -20.880846      1.615357
  H      30.347724    -21.002106      0.776304
  H      31.069047    -21.783100      1.844310
  O      32.643310    -20.414307     -1.278586
  H      32.862277    -20.032665     -0.416509
  H      32.552347    -21.351768     -1.055763
  O      31.633102    -23.832491     -0.191846
  H      32.412871    -23.724712     -0.753351
  H      32.024612    -24.121148      0.644256
  O      33.997971    -22.068785      1.612106
  H      34.281184    -22.369951      0.739606
  H      34.705309    -22.392412      2.184896
12
Coordinates from ORCA-job Explicit4H2O_SMD_water_Opt_KeepDens E -305.731637398026
  O      30.771403    -20.911432      1.624042
  H      30.356883    -21.049337      0.761995
  H      31.078492    -21.799005      1.850700
  O      32.701788    -20.490344     -1.267948
  H      32.840506    -20.089100     -0.397889
  H      32.545392    -21.414583     -1.023713
  O      31.615808    -23.769977     -0.211219
  H      32.398235    -23.647791     -0.766402
  H      32.009422    -24.006033      0.640367
  O      34.016133    -22.051731      1.605906
  H      34.276876    -22.372685      0.733521
  H      34.730643    -22.372273      2.171420
12
Coordinates from ORCA-job Explicit4H2O_SMD_water_Opt_KeepDens E -305.731942095792
  O      30.754173    -20.916643      1.625564
  H      30.359213    -21.052680      0.754585
  H      31.082739    -21.797220      1.850000
  O      32.719747    -20.507164     -1.250817
  H      32.834368    -20.097472     -0.382585
  H      32.534261    -21.425493     -1.012961
  O      31.620134    -23.763223     -0.220164
  H      32.405714    -23.659329     -0.772900
  H      31.999554    -23.963223      0.646044
  O      34.022302    -22.049204      1.596630
  H      34.272311    -22.376858      0.724068
  H      34.737062    -22.365782      2.163317
12
Coordinates from ORCA-job Explicit4H2O_SMD_water_Opt_KeepDens E -305.732549592789
  O      30.712512    -20.928985      1.627562
  H      30.367889    -21.059062      0.736334
  H      31.094472    -21.788360      1.845863
  O      32.761660    -20.540974     -1.201726
  H      32.821697    -20.114211     -0.339415
  H      32.498941    -21.445424     -0.985430
  O      31.634568    -23.750063     -0.242800
  H      32.432893    -23.717585     -0.783369
  H      31.971824    -23.847043      0.655603
  O      34.035460    -22.042459      1.569635
  H      34.260283    -22.390396      0.697702
  H      34.749382    -22.349727      2.140821
12
Coordinates from ORCA-job Explicit4H2O_SMD_water_Opt_KeepDens E -305.732960265529
  O      30.681226    -20.943870      1.630088
  H      30.378302    -21.075120      0.724349
  H      31.106145    -21.783803      1.846027
  O      32.794438    -20.580670     -1.167986
  H      32.808147    -20.140819     -0.310471
  H      32.470757    -21.467883     -0.961285
  O      31.640973    -23.723089     -0.263779
  H      32.451099    -23.749909     -0.786441
  H      31.952376    -23.736544      0.649149
  O      34.045501    -22.034146      1.552078
  H      34.253623    -22.400861      0.683477
  H      34.758993    -22.337575      2.125574
12
Coordinates from ORCA-job Explicit4H2O_SMD_water_Opt_KeepDens E -305.733484338738
  O      30.642068    -20.965423      1.634678
  H      30.396008    -21.099008      0.711589
  H      31.126480    -21.774095      1.848897
  O      32.829143    -20.643976     -1.121187
  H      32.786772    -20.184231     -0.273831
  H      32.421799    -21.499564     -0.927455
  O      31.654467    -23.672938     -0.300253
  H      32.481341    -23.808743     -0.779345
  H      31.930946    -23.560281      0.619226
  O      34.057503    -22.022667      1.530303
  H      34.248227    -22.416482      0.669038
  H      34.766824    -22.326881      2.109120
12
Coordinates from ORCA-job Explicit4H2O_SMD_water_Opt_KeepDens E -305.733849068444
  O      30.640015    -20.953904      1.644325
  H      30.405715    -21.090387      0.716502
  H      31.141865    -21.749081      1.861576
  O      32.808498    -20.676212     -1.106165
  H      32.773404    -20.204395     -0.262682
  H      32.362068    -21.507528     -0.910902
  O      31.691633    -23.644393     -0.343480
  H      32.528438    -23.886051     -0.763527
  H      31.932655    -23.470437      0.573104
  O      34.053034    -22.024255      1.528606
  H      34.252748    -22.420607      0.672292
  H      34.751508    -22.347041      2.111131
12
Coordinates from ORCA-job Explicit4H2O_SMD_water_Opt_KeepDens E -305.734273780495
  O      30.631062    -20.939482      1.659712
  H      30.419771    -21.084940      0.727730
  H      31.159125    -21.715133      1.883579
  O      32.786844    -20.745169     -1.089472
  H      32.755330    -20.252736     -0.258442
  H      32.285029    -21.547019     -0.881436
  O      31.739401    -23.587898     -0.406427
  H      32.571519    -23.933994     -0.754690
  H      31.955206    -23.352468      0.506968
  O      34.048342    -22.024012      1.534258
  H      34.255344    -22.422909      0.680042
  H      34.734608    -22.368529      2.118957
12
Coordinates from ORCA-job Explicit4H2O_SMD_water_Opt_KeepDens E -305.734516932484
  O      30.665001    -20.895132      1.678098
  H      30.422181    -21.050600      0.756261
  H      31.167124    -21.680329      1.915223
  O      32.716615    -20.762054     -1.119198
  H      32.749181    -20.268438     -0.291310
  H      32.233357    -21.571172     -0.881125
  O      31.792759    -23.566733     -0.451731
  H      32.622125    -23.944355     -0.767215
  H      31.985413    -23.380195      0.466796
  O      34.025688    -22.037909      1.566351
  H      34.260821    -22.404344      0.705620
  H      34.701315    -22.413029      2.143010
12
Coordinates from ORCA-job Explicit4H2O_SMD_water_Opt_KeepDens E -305.734823414033
  O      30.665984    -20.897239      1.677581
  H      30.424726    -21.059971      0.757091
  H      31.170187    -21.682451      1.920707
  O      32.714240    -20.770777     -1.126535
  H      32.743553    -20.273799     -0.301057
  H      32.255514    -21.591719     -0.884449
  O      31.782773    -23.554056     -0.447151
  H      32.613457    -23.910573     -0.784055
  H      31.988198    -23.382400      0.478678
  O      34.024585    -22.040190      1.574036
  H      34.255482    -22.396379      0.707060
  H      34.702882    -22.414735      2.148874
12
Coordinates from ORCA-job Explicit4H2O_SMD_water_Opt_KeepDens E -305.735144259761
  O      30.678026    -20.895310      1.680310
  H      30.435910    -21.075517      0.763783
  H      31.181079    -21.679297      1.936802
  O      32.692258    -20.794283     -1.151011
  H      32.727000    -20.292256     -0.328236
  H      32.288150    -21.640741     -0.891331
  O      31.779628    -23.508398     -0.444611
  H      32.606719    -23.843749     -0.816614
  H      31.998776    -23.391236      0.493448
  O      34.015335    -22.048550      1.597434
  H      34.243329    -22.372372      0.715953
  H      34.695370    -22.432582      2.164853
12
Coordinates from ORCA-job Explicit4H2O_SMD_water_Opt_KeepDens E -305.735259616812
  O      30.690197    -20.890962      1.683082
  H      30.446811    -21.080922      0.768442
  H      31.193562    -21.672468      1.947267
  O      32.667514    -20.804410     -1.164868
  H      32.712674    -20.302114     -0.342539
  H      32.293873    -21.662873     -0.895044
  O      31.794201    -23.475705     -0.451135
  H      32.612795    -23.833558     -0.823601
  H      32.006085    -23.385612      0.491556
  O      34.005324    -22.055661      1.611388
  H      34.236551    -22.357193      0.722423
  H      34.681994    -22.452811      2.173810
12
Coordinates from ORCA-job Explicit4H2O_SMD_water_Opt_KeepDens E -305.735412566455
  O      30.713825    -20.889886      1.680853
  H      30.465191    -21.089577      0.769169
  H      31.212635    -21.670413      1.953138
  O      32.631469    -20.784245     -1.189359
  H      32.692761    -20.294323     -0.360322
  H      32.319135    -21.668378     -0.914156
  O      31.811662    -23.446387     -0.440830
  H      32.612920    -23.837285     -0.819885
  H      32.009665    -23.408822      0.505188
  O      33.987963    -22.067747      1.627340
  H      34.223517    -22.333618      0.729144
  H      34.660836    -22.483610      2.180500
12
Coordinates from ORCA-job Explicit4H2O_SMD_water_Opt_KeepDens E -305.735530469424
  O      30.728132    -20.888138      1.680772
  H      30.489603    -21.094996      0.767434
  H      31.239807    -21.657847      1.957550
  O      32.596704    -20.775700     -1.194534
  H      32.667893    -20.293796     -0.361541
  H      32.306521    -21.668174     -0.920022
  O      31.854839    -23.413202     -0.456375
  H      32.624872    -23.892995     -0.795513
  H      32.015708    -23.374563      0.493582
  O      33.970885    -22.077808      1.635735
  H      34.212941    -22.319809      0.732098
  H      34.633675    -22.517263      2.181594
12
Coordinates from ORCA-job Explicit4H2O_SMD_water_Opt_KeepDens E -305.735619217349
  O      30.728838    -20.895740      1.674544
  H      30.500315    -21.102022      0.758970
  H      31.248902    -21.660267      1.949976
  O      32.598719    -20.751499     -1.193270
  H      32.661061    -20.278750     -0.354385
  H      32.318032    -21.649505     -0.927023
  O      31.855886    -23.422494     -0.446287
  H      32.616150    -23.917781     -0.779807
  H      32.012202    -23.379493      0.504454
  O      33.966441    -22.078077      1.631642
  H      34.204586    -22.318284      0.728372
  H      34.630449    -22.520378      2.173594
12
Coordinates from ORCA-job Explicit4H2O_SMD_water_Opt_KeepDens E -305.735692897998
  O      30.730601    -20.904774      1.668345
  H      30.521878    -21.115256      0.749412
  H      31.268492    -21.656959      1.946398
  O      32.595124    -20.735405     -1.191379
  H      32.644746    -20.269875     -0.347890
  H      32.333511    -21.640959     -0.931484
  O      31.861598    -23.418650     -0.442386
  H      32.605574    -23.942427     -0.764903
  H      32.013774    -23.370342      0.511072
  O      33.956130    -22.078874      1.632407
  H      34.188560    -22.311221      0.725498
  H      34.621593    -22.529546      2.165690
12
Coordinates from ORCA-job Explicit4H2O_SMD_water_Opt_KeepDens E -305.735784952526
  O      30.731520    -20.917410      1.660990
  H      30.556933    -21.132110      0.735889
  H      31.299474    -21.647100      1.943588
  O      32.593727    -20.719335     -1.183600
  H      32.621809    -20.261271     -0.335137
  H      32.351596    -21.632741     -0.933673
  O      31.866911    -23.418067     -0.441536
  H      32.591267    -23.975923     -0.748388
  H      32.020688    -23.354372      0.513289
  O      33.938642    -22.077017      1.634370
  H      34.160111    -22.300977      0.721862
  H      34.608902    -22.537966      2.153126
12
Coordinates from ORCA-job Explicit4H2O_SMD_water_Opt_KeepDens E -305.735881623266
  O      30.733877    -20.931148      1.654548
  H      30.602039    -21.146464      0.722045
  H      31.337335    -21.630608      1.942940
  O      32.593773    -20.707429     -1.171568
  H      32.596388    -20.256607     -0.318652
  H      32.369417    -21.628179     -0.933789
  O      31.870078    -23.422495     -0.443701
  H      32.576357    -24.009228     -0.737878
  H      32.034100    -23.340233      0.509835
  O      33.914658    -22.072373      1.639194
  H      34.120063    -22.286578      0.719693
  H      34.593495    -22.542949      2.138112
12
Coordinates from ORCA-job Explicit4H2O_SMD_water_Opt_KeepDens E -305.735986819565
  O      30.736903    -20.938786      1.652673
  H      30.634745    -21.149125      0.715269
  H      31.363323    -21.614725      1.946325
  O      32.598638    -20.708623     -1.160737
  H      32.583967    -20.260303     -0.306258
  H      32.379729    -21.632234     -0.931186
  O      31.862385    -23.434668     -0.445786
  H      32.568814    -24.017782     -0.747448
  H      32.048302    -23.342761      0.502815
  O      33.895080    -22.065036      1.646067
  H      34.084438    -22.272442      0.721239
  H      34.585257    -22.537802      2.127808
12
Coordinates from ORCA-job Explicit4H2O_SMD_water_Opt_KeepDens E -305.736120473809
  O      30.747885    -20.943926      1.654743
  H      30.669346    -21.144839      0.712979
  H      31.395479    -21.594756      1.955022
  O      32.599085    -20.717710     -1.153587
  H      32.577361    -20.271735     -0.297674
  H      32.383366    -21.643640     -0.931762
  O      31.854542    -23.448029     -0.449096
  H      32.567085    -24.015302     -0.772443
  H      32.064777    -23.357983      0.492045
  O      33.868810    -22.057698      1.661057
  H      34.040987    -22.246912      0.728477
  H      34.572859    -22.531761      2.121019
12
Coordinates from ORCA-job Explicit4H2O_SMD_water_Opt_KeepDens E -305.736242628366
  O      30.760279    -20.948301      1.660352
  H      30.696183    -21.139412      0.715428
  H      31.429065    -21.575871      1.962665
  O      32.600262    -20.731921     -1.151048
  H      32.579650    -20.288369     -0.293857
  H      32.374379    -21.656765     -0.935311
  O      31.851101    -23.457956     -0.453543
  H      32.569906    -24.004690     -0.801424
  H      32.076647    -23.374662      0.482201
  O      33.843252    -22.052572      1.678462
  H      34.001499    -22.216913      0.738826
  H      34.559358    -22.526858      2.118029
12
Coordinates from ORCA-job Explicit4H2O_SMD_water_Opt_KeepDens E -305.736430220463
  O      30.780713    -20.951606      1.674546
  H      30.716082    -21.130879      0.728271
  H      31.473553    -21.553335      1.973850
  O      32.601611    -20.758893     -1.157977
  H      32.599676    -20.316627     -0.300064
  H      32.346530    -21.676466     -0.944961
  O      31.848113    -23.469098     -0.462475
  H      32.580846    -23.972318     -0.847160
  H      32.085188    -23.406342      0.469507
  O      33.810525    -22.047252      1.706357
  H      33.958173    -22.170524      0.758644
  H      34.540571    -22.520951      2.122242
12
Coordinates from ORCA-job Explicit4H2O_SMD_water_Opt_KeepDens E -305.736656490774
  O      30.815809    -20.967822      1.696442
  H      30.765295    -21.131082      0.744919
  H      31.560919    -21.518139      1.979447
  O      32.601502    -20.787172     -1.166894
  H      32.619543    -20.354149     -0.305562
  H      32.310263    -21.696419     -0.961963
  O      31.854638    -23.478292     -0.478765
  H      32.590622    -23.949649     -0.895612
  H      32.095883    -23.437636      0.452482
  O      33.749493    -22.041086      1.748504
  H      33.879289    -22.096173      0.786763
  H      34.498325    -22.516671      2.121020
12
Coordinates from ORCA-job Explicit4H2O_SMD_water_Opt_KeepDens E -305.736877992656
  O      30.832030    -20.981985      1.712150
  H      30.755462    -21.138006      0.764293
  H      31.597478    -21.514046      1.976247
  O      32.608617    -20.799882     -1.184861
  H      32.656587    -20.367825     -0.323720
  H      32.278511    -21.694694     -0.974676
  O      31.852118    -23.481354     -0.489750
  H      32.597744    -23.927679     -0.911796
  H      32.077736    -23.462217      0.449019
  O      33.730889    -22.033622      1.764983
  H      33.871277    -22.062944      0.806302
  H      34.483131    -22.510035      2.132589
12
Coordinates from ORCA-job Explicit4H2O_SMD_water_Opt_KeepDens E -305.737163510632
  O      30.850312    -21.013444      1.717672
  H      30.769757    -21.167026      0.769641
  H      31.646250    -21.515857      1.959122
  O      32.612717    -20.779156     -1.197841
  H      32.663197    -20.353710     -0.333798
  H      32.293827    -21.677219     -0.986891
  O      31.842797    -23.481036     -0.490877
  H      32.582817    -23.945804     -0.898538
  H      32.054319    -23.473245      0.453939
  O      33.708362    -22.024404      1.774521
  H      33.853056    -22.039060      0.820169
  H      34.464171    -22.504329      2.133660
12
Coordinates from ORCA-job Explicit4H2O_SMD_water_Opt_KeepDens E -305.737408364849
  O      30.882326    -21.049405      1.725157
  H      30.779574    -21.207630      0.779760
  H      31.705031    -21.521396      1.936743
  O      32.593588    -20.749448     -1.224750
  H      32.660254    -20.324627     -0.360642
  H      32.321621    -21.660221     -1.002526
  O      31.842407    -23.461584     -0.497806
  H      32.567660    -23.979030     -0.866723
  H      32.020227    -23.474911      0.456059
  O      33.684838    -22.020746      1.789387
  H      33.851923    -22.009599      0.838535
  H      34.432131    -22.515694      2.147587
12
Coordinates from ORCA-job Explicit4H2O_SMD_water_Opt_KeepDens E -305.737557713791
  O      30.891202    -21.084574      1.731922
  H      30.777652    -21.240055      0.786079
  H      31.741831    -21.523962      1.912548
  O      32.602499    -20.745477     -1.230158
  H      32.664542    -20.309853     -0.370824
  H      32.326811    -21.654467     -1.000212
  O      31.831220    -23.454053     -0.508136
  H      32.553665    -23.997595     -0.848410
  H      31.990824    -23.447739      0.448043
  O      33.681314    -22.008837      1.793284
  H      33.860206    -21.997614      0.847353
  H      34.419814    -22.510063      2.159291
12
Coordinates from ORCA-job Explicit4H2O_SMD_water_Opt_KeepDens E -305.737733487089
  O      30.898223    -21.123307      1.736977
  H      30.754173    -21.279632      0.794758
  H      31.767962    -21.531004      1.885507
  O      32.605682    -20.746639     -1.239153
  H      32.662303    -20.286482     -0.391289
  H      32.338524    -21.652766     -0.990168
  O      31.817979    -23.437987     -0.523870
  H      32.537911    -24.015175     -0.818669
  H      31.951735    -23.398702      0.433627
  O      33.694764    -21.996661      1.793897
  H      33.901978    -21.992401      0.853566
  H      34.410346    -22.513534      2.185598
12
Coordinates from ORCA-job Explicit4H2O_SMD_water_Opt_KeepDens E -305.737780213283
  O      30.922919    -21.156462      1.754953
  H      30.748214    -21.300509      0.815076
  H      31.823825    -21.516127      1.860586
  O      32.611797    -20.767440     -1.243860
  H      32.672538    -20.289399     -0.407272
  H      32.324698    -21.663236     -0.982596
  O      31.806658    -23.439248     -0.546530
  H      32.534929    -24.013151     -0.825303
  H      31.930197    -23.374770      0.410281
  O      33.681636    -21.982958      1.810769
  H      33.902834    -21.958188      0.867859
  H      34.381334    -22.512802      2.206818
12
Coordinates from ORCA-job Explicit4H2O_SMD_water_Opt_KeepDens E -305.737878295871
  O      30.901379    -21.155065      1.749047
  H      30.714687    -21.297705      0.811904
  H      31.795385    -21.518735      1.856280
  O      32.624963    -20.772963     -1.233749
  H      32.667625    -20.284408     -0.402929
  H      32.326912    -21.664716     -0.968571
  O      31.797207    -23.446068     -0.543417
  H      32.535787    -24.003683     -0.820743
  H      31.927853    -23.357536      0.409497
  O      33.712004    -21.977480      1.794501
  H      33.940691    -21.984027      0.855656
  H      34.397087    -22.511903      2.213303
12
Coordinates from ORCA-job Explicit4H2O_SMD_water_Opt_KeepDens E -305.737927536414
  O      30.904035    -21.155830      1.749084
  H      30.716318    -21.294510      0.812773
  H      31.799915    -21.515791      1.854140
  O      32.629267    -20.770477     -1.232960
  H      32.667888    -20.287432     -0.398841
  H      32.332972    -21.664246     -0.972593
  O      31.791142    -23.453431     -0.536887
  H      32.535284    -23.993496     -0.830003
  H      31.930204    -23.374650      0.415817
  O      33.708670    -21.972878      1.794216
  H      33.932172    -21.981942      0.855479
  H      34.393713    -22.509607      2.210555
12
Coordinates from ORCA-job Explicit4H2O_SMD_water_Opt_KeepDens E -305.738022565303
  O      30.910249    -21.175808      1.750094
  H      30.705464    -21.304974      0.817499
  H      31.822226    -21.505405      1.831480
  O      32.640638    -20.764987     -1.230335
  H      32.658942    -20.285253     -0.393612
  H      32.348397    -21.661373     -0.975550
  O      31.779072    -23.459728     -0.529665
  H      32.530528    -23.984980     -0.829545
  H      31.919235    -23.380680      0.424332
  O      33.712741    -21.955382      1.789243
  H      33.940210    -21.980600      0.853177
  H      34.373877    -22.515122      2.213662
12
Coordinates from ORCA-job Explicit4H2O_SMD_water_Opt_KeepDens E -305.737773327299
  O      30.945048    -21.205472      1.757198
  H      30.642307    -21.280630      0.848821
  H      31.910958    -21.408121      1.724395
  O      32.662125    -20.740407     -1.187986
  H      32.570039    -20.301348     -0.330169
  H      32.396609    -21.652438     -0.982383
  O      31.783798    -23.513117     -0.491202
  H      32.567889    -23.960984     -0.826705
  H      31.936086    -23.438049      0.466513
  O      33.745452    -21.860147      1.742596
  H      33.989683    -21.996997      0.819800
  H      34.191585    -22.616579      2.179902
12
Coordinates from ORCA-job Explicit4H2O_SMD_water_Opt_KeepDens E -305.737975699189
  O      30.919961    -21.121729      1.766061
  H      30.691721    -21.223521      0.829637
  H      31.820064    -21.450323      1.806587
  O      32.618013    -20.764949     -1.190097
  H      32.601879    -20.311976     -0.342091
  H      32.342027    -21.682512     -0.973053
  O      31.824119    -23.492710     -0.524434
  H      32.586110    -23.987921     -0.843611
  H      31.979139    -23.421378      0.425792
  O      33.723650    -21.935271      1.756490
  H      33.951788    -22.005882      0.811397
  H      34.283108    -22.576118      2.198103
12
Coordinates from ORCA-job Explicit4H2O_SMD_water_Opt_KeepDens E -305.738391636644
  O      30.918121    -21.162301      1.759209
  H      30.681336    -21.265127      0.828997
  H      31.843096    -21.450262      1.791055
  O      32.630435    -20.765299     -1.195998
  H      32.603298    -20.302954     -0.350253
  H      32.350286    -21.672922     -0.971036
  O      31.810994    -23.471268     -0.525487
  H      32.569460    -23.993359     -0.819208
  H      31.948776    -23.386465      0.426273
  O      33.734872    -21.923261      1.753663
  H      33.971787    -22.006583      0.821288
  H      34.279117    -22.574490      2.202278
12
Coordinates from ORCA-job Explicit4H2O_SMD_water_Opt_KeepDens E -305.738538147634
  O      30.924232    -21.172808      1.757401
  H      30.677612    -21.269640      0.831139
  H      31.860199    -21.442767      1.770527
  O      32.631565    -20.756541     -1.190003
  H      32.585829    -20.303186     -0.338437
  H      32.358241    -21.667320     -0.974075
  O      31.820166    -23.466953     -0.520435
  H      32.573783    -24.002048     -0.801085
  H      31.944359    -23.380831      0.435704
  O      33.741510    -21.903695      1.742422
  H      33.979706    -22.012087      0.816402
  H      34.244380    -22.596414      2.191218
12
Coordinates from ORCA-job Explicit4H2O_SMD_water_Opt_KeepDens E -305.738442878290
  O      30.966665    -21.179849      1.766462
  H      30.657911    -21.252341      0.855107
  H      31.922941    -21.385451      1.718840
  O      32.618455    -20.750275     -1.165189
  H      32.529650    -20.320794     -0.303733
  H      32.380022    -21.677069     -0.974671
  O      31.853324    -23.474925     -0.505377
  H      32.614574    -23.998976     -0.784467
  H      31.962785    -23.402555      0.457451
  O      33.756572    -21.851290      1.717803
  H      34.003599    -22.005109      0.794831
  H      34.075083    -22.675655      2.143722
12
Coordinates from ORCA-job Explicit4H2O_SMD_water_Opt_KeepDens E -305.738749715784
  O      30.954734    -21.171731      1.771517
  H      30.662933    -21.249660      0.854400
  H      31.904554    -21.398327      1.737781
  O      32.618667    -20.762133     -1.175528
  H      32.555022    -20.316654     -0.321709
  H      32.355301    -21.679746     -0.970260
  O      31.847322    -23.475253     -0.519572
  H      32.609816    -23.998510     -0.796809
  H      31.959967    -23.395456      0.437868
  O      33.747298    -21.877770      1.729549
  H      33.996680    -22.000766      0.801699
  H      34.129286    -22.648283      2.171843
12
Coordinates from ORCA-job Explicit4H2O_SMD_water_Opt_KeepDens E -305.738814611072
  O      30.952895    -21.168444      1.772010
  H      30.665093    -21.245309      0.853935
  H      31.896805    -21.396424      1.734958
  O      32.619174    -20.760639     -1.167794
  H      32.546283    -20.318060     -0.313068
  H      32.357724    -21.680988     -0.967187
  O      31.855451    -23.474058     -0.516400
  H      32.616537    -24.002883     -0.788115
  H      31.965437    -23.389880      0.441769
  O      33.755876    -21.872813      1.718144
  H      34.001296    -22.007754      0.792148
  H      34.109009    -22.657038      2.160379
12
Coordinates from ORCA-job Explicit4H2O_SMD_water_Opt_KeepDens E -305.738877057800
  O      30.957533    -21.179845      1.776039
  H      30.655349    -21.254299      0.864988
  H      31.906073    -21.391161      1.720413
  O      32.627421    -20.766903     -1.159268
  H      32.537165    -20.316398     -0.307410
  H      32.358363    -21.682539     -0.955260
  O      31.863648    -23.469889     -0.514766
  H      32.629163    -24.006423     -0.765063
  H      31.961809    -23.368782      0.441871
  O      33.777044    -21.855419      1.698912
  H      34.022826    -22.008179      0.783886
  H      34.045186    -22.674454      2.136438
12
Coordinates from ORCA-job Explicit4H2O_SMD_water_Opt_KeepDens E -305.739005660823
  O      30.973888    -21.177943      1.784991
  H      30.658333    -21.248067      0.876219
  H      31.921539    -21.384518      1.711125
  O      32.618157    -20.762151     -1.158586
  H      32.530034    -20.313654     -0.307307
  H      32.357591    -21.682973     -0.956005
  O      31.881530    -23.471774     -0.512781
  H      32.647207    -24.011395     -0.752160
  H      31.964778    -23.378217      0.447484
  O      33.778447    -21.849855      1.694138
  H      34.028264    -21.997569      0.775760
  H      33.981811    -22.696175      2.117901
12
Coordinates from ORCA-job Explicit4H2O_SMD_water_Opt_KeepDens E -305.739113654304
  O      30.991100    -21.180828      1.794575
  H      30.660007    -21.249428      0.890081
  H      31.940970    -21.384307      1.708465
  O      32.610504    -20.758610     -1.170055
  H      32.534802    -20.304422     -0.322169
  H      32.358306    -21.679123     -0.959267
  O      31.888149    -23.476317     -0.508334
  H      32.660714    -24.005340     -0.746408
  H      31.960939    -23.398633      0.453801
  O      33.776417    -21.848696      1.698933
  H      34.031543    -21.977482      0.774316
  H      33.928129    -22.711104      2.106842
12
Coordinates from ORCA-job Explicit4H2O_SMD_water_Opt_KeepDens E -305.739185675403
  O      31.006722    -21.177068      1.807149
  H      30.661175    -21.240047      0.907665
  H      31.954619    -21.387123      1.701105
  O      32.611201    -20.761788     -1.170926
  H      32.535884    -20.302722     -0.325023
  H      32.356343    -21.679995     -0.954844
  O      31.899617    -23.486305     -0.501477
  H      32.683245    -23.996510     -0.740256
  H      31.965794    -23.416987      0.461097
  O      33.784105    -21.836421      1.695094
  H      34.032789    -21.963772      0.768650
  H      33.850087    -22.725551      2.072547
12
Coordinates from ORCA-job Explicit4H2O_SMD_water_Opt_KeepDens E -305.739247312775
  O      31.008211    -21.178381      1.810058
  H      30.663425    -21.243827      0.911690
  H      31.957048    -21.391034      1.708334
  O      32.613208    -20.765115     -1.178272
  H      32.540936    -20.298497     -0.336216
  H      32.361273    -21.680484     -0.952630
  O      31.897547    -23.486850     -0.492512
  H      32.689788    -23.981194     -0.742269
  H      31.964504    -23.428494      0.470285
  O      33.792297    -21.834844      1.697560
  H      34.029383    -21.953868      0.767594
  H      33.823959    -22.731701      2.057157
12
Coordinates from ORCA-job Explicit4H2O_SMD_water_Opt_KeepDens E -305.739302808104
  O      31.009958    -21.173711      1.813995
  H      30.672920    -21.244049      0.913593
  H      31.958266    -21.399597      1.722721
  O      32.609216    -20.769686     -1.188628
  H      32.547886    -20.291890     -0.352035
  H      32.357665    -21.681818     -0.948036
  O      31.903995    -23.485349     -0.488068
  H      32.700493    -23.972075     -0.739306
  H      31.963877    -23.435147      0.475067
  O      33.800131    -21.837509      1.704285
  H      34.018449    -21.940813      0.768310
  H      33.798724    -22.742645      2.038883
