59
Coordinates from ORCA-job Apixaban_SMD_water_Opt E -1542.147588320021
  C          23.90963917680784    -17.52307566400906     -0.12530454862855
  C          24.18560963687570    -18.60945422470292      0.90781001345212
  C          25.49217710317755    -19.34873665713333      0.73885519225553
  N          26.46845745146830    -18.77988688173561     -0.01603111076956
  C          26.28889084573542    -17.54965281437869     -0.82649684411011
  C          25.16414766711575    -16.68045438862745     -0.30075844256556
  C          27.72359100363904    -19.45163967000070     -0.16897251227567
  C          28.54113878572620    -19.67225939493313      0.93983830239471
  C          29.76696037649830    -20.30183762816250      0.78833900274564
  C          30.19735538408412    -20.70035684869157     -0.47983675993186
  C          29.38488963763178    -20.47095039640343     -1.58925178192720
  C          28.14835422994960    -19.85353512497850     -1.43200127868224
  N          31.44698686848217    -21.36991362575406     -0.63053311014360
  C          31.52183390295726    -22.47868121752807     -1.61764013359591
  C          32.52767850795200    -23.54983171084459     -1.21083466330978
  C          33.80394669623687    -22.87981331584314     -0.84121200238344
  C          33.79230056256171    -21.58058146239672     -0.36763915221484
  C          32.59160023464688    -20.76599231000608     -0.16601630745223
  O          25.66307558673331    -20.44123012050145      1.31270077856048
  O          32.60490391921591    -19.65969230763139      0.38835106013361
  C          35.15997357094597    -23.24377734131664     -0.83880125888614
  N          35.92943690516257    -22.22758455749365     -0.40027216834174
  N          35.09189027154284    -21.22991020579598     -0.11056336587948
  C          35.61530148624261    -20.00036382801743      0.40502245942033
  C          35.75035457551756    -24.53638226931390     -1.23481000326675
  N          37.09185189258601    -24.59924141120600     -1.26644420254991
  O          35.01813706392362    -25.50143785446870     -1.51808967059560
  C          35.37614002826803    -19.65002228950365      1.73230217782752
  C          35.90655578676571    -18.47473006567068      2.23135271665498
  C          36.68351546557541    -17.64998227749085      1.40691417992453
  C          36.93085434264181    -18.01117002200942      0.08037304597767
  C          36.38973152087927    -19.19453365273358     -0.41568707724496
  O          37.15838361471617    -16.51266741561371      1.99385984414192
  C          37.96495152314233    -15.63744052395947      1.18832829624869
  H          23.63754926286341    -17.98016407805590     -1.08574009612742
  H          23.06103773912625    -16.91119499541265      0.19772101750320
  H          24.22519287286705    -18.16973360839378      1.91486798018555
  H          23.39612871005783    -19.36722775241982      0.93059877704691
  H          27.24245343459851    -17.01171475495858     -0.80780467578855
  H          26.08550187762171    -17.83399003390939     -1.86785205398173
  H          25.45260192857614    -16.23409635678017      0.65992784809671
  H          25.00474086615776    -15.86367616126051     -1.01284934706809
  H          28.21075142417708    -19.35968171902346      1.92541326499348
  H          30.38977664750246    -20.49063053827214      1.65625398689759
  H          29.70875968994430    -20.77073608747380     -2.58077999436054
  H          27.51816003136824    -19.68809541679163     -2.30050942582814
  H          30.52303913795789    -22.91281980208576     -1.69277327353991
  H          31.79648499082127    -22.07086807721100     -2.59984633657299
  H          32.15072587767995    -24.13380034672413     -0.36024213625976
  H          32.65891467823876    -24.23941690590372     -2.04838629653693
  H          37.65674590564541    -23.80118109952491     -1.01838723778508
  H          37.53887602270114    -25.47174813794632     -1.50630547003081
  H          34.77565180112780    -20.29537350111870      2.36570637676679
  H          35.73335009210859    -18.18191312171080      3.26232769177672
  H          37.53022516357880    -17.38975333725322     -0.57389602747153
  H          36.56900045255961    -19.48186441241086     -1.44736440763317
  H          37.39857032139366    -15.26548368750798      0.32688395296770
  H          38.23233262850751    -14.80345657299959      1.83850556701168
  H          38.87481281741209    -16.14556201599418      0.84868364075571
