59
Coordinates from ORCA-job Apixaban_SMD_water_Opt E -1542.144096422944
  C      23.764281    -17.629654     -0.033447
  C      24.212616    -18.480789      1.149285
  C      25.515057    -19.248826      0.976457
  N      26.389669    -18.823460     -0.008845
  C      26.012066    -17.853157     -1.054375
  C      24.964850    -16.865439     -0.572305
  C      27.650985    -19.470009     -0.165128
  C      28.478078    -19.697659      0.938888
  C      29.716351    -20.292717      0.777195
  C      30.163986    -20.666057     -0.492992
  C      29.347040    -20.428520     -1.596100
  C      28.096429    -19.842825     -1.431825
  N      31.424052    -21.308998     -0.652795
  C      31.530940    -22.372194     -1.676775
  C      32.530016    -23.455863     -1.281705
  C      33.795389    -22.785770     -0.879340
  C      33.775655    -21.512857     -0.340876
  C      32.557914    -20.722939     -0.101772
  O      25.780696    -20.170407      1.734370
  O      32.533095    -19.680470      0.540358
  C      35.151924    -23.140900     -0.915120
  N      35.919128    -22.147396     -0.435699
  N      35.081038    -21.167453     -0.079047
  C      35.630213    -19.952939      0.435246
  C      35.735121    -24.412602     -1.398595
  N      37.091924    -24.482143     -1.346023
  O      35.022728    -25.317655     -1.821758
  C      35.200067    -19.435921      1.655850
  C      35.779766    -18.283247      2.149397
  C      36.798514    -17.642402      1.435078
  C      37.237546    -18.170910      0.219361
  C      36.646158    -19.329474     -0.274854
  O      37.298630    -16.515072      2.010912
  C      38.342809    -15.829917      1.326470
  H      23.355427    -18.270203     -0.826972
  H      22.961101    -16.949289      0.271816
  H      24.371850    -17.842550      2.030097
  H      23.460688    -19.219387      1.441862
  H      26.926696    -17.333555     -1.362039
  H      25.621436    -18.381635     -1.939330
  H      25.388854    -16.226154      0.213722
  H      24.686415    -16.216279     -1.410559
  H      28.139206    -19.419799      1.928999
  H      30.348554    -20.464950      1.639973
  H      29.679552    -20.694212     -2.594622
  H      27.472081    -19.682897     -2.304774
  H      30.533316    -22.802053     -1.800867
  H      31.836836    -21.933639     -2.640184
  H      32.138710    -24.055505     -0.448262
  H      32.698138    -24.140304     -2.117229
  H      37.624162    -23.739202     -0.922722
  H      37.537203    -25.347440     -1.600608
  H      34.410277    -19.930622      2.207218
  H      35.460395    -17.860026      3.095908
  H      38.025028    -17.696010     -0.353192
  H      36.976438    -19.752502     -1.217954
  H      38.010214    -15.476074      0.341407
  H      38.595678    -14.972319      1.951801
  H      39.229014    -16.467755      1.208024
59
Coordinates from ORCA-job Apixaban_SMD_water_Opt E -1542.146231854607
  C      23.766608    -17.623398     -0.084616
  C      24.175512    -18.516284      1.078989
  C      25.482818    -19.270111      0.924345
  N      26.388125    -18.815107     -0.008150
  C      26.044080    -17.806866     -1.034857
  C      24.981276    -16.838763     -0.553988
  C      27.651519    -19.462309     -0.152729
  C      28.475477    -19.685314      0.956308
  C      29.713264    -20.286299      0.802144
  C      30.164673    -20.663990     -0.466539
  C      29.352335    -20.428680     -1.574378
  C      28.104745    -19.834558     -1.417920
  N      31.421943    -21.314203     -0.622787
  C      31.514493    -22.391867     -1.635332
  C      32.517019    -23.467613     -1.239026
  C      33.788027    -22.794169     -0.858244
  C      33.773546    -21.514520     -0.333015
  C      32.558592    -20.719088     -0.104236
  O      25.711015    -20.248329      1.639976
  O      32.545084    -19.634158      0.477650
  C      35.145926    -23.146408     -0.907273
  N      35.917197    -22.142519     -0.453726
  N      35.082200    -21.165251     -0.088015
  C      35.638408    -19.955723      0.433589
  C      35.732459    -24.421757     -1.374337
  N      37.082755    -24.480277     -1.367242
  O      35.013624    -25.354636     -1.749546
  C      35.299894    -19.511396      1.711292
  C      35.889998    -18.366421      2.212333
  C      36.829609    -17.663028      1.447694
  C      37.181794    -18.121350      0.176172
  C      36.582234    -19.273228     -0.323598
  O      37.351217    -16.548142      2.034438
  C      38.324564    -15.801724      1.296929
  H      23.386544    -18.234999     -0.913533
  H      22.953723    -16.956664      0.222080
  H      24.302771    -17.911926      1.988918
  H      23.414676    -19.267269      1.314612
  H      26.967031    -17.276241     -1.290523
  H      25.687967    -18.306823     -1.947078
  H      25.375854    -16.225253      0.266983
  H      24.730292    -16.165345     -1.380465
  H      28.142498    -19.388391      1.943682
  H      30.336221    -20.466224      1.671267
  H      29.686135    -20.702836     -2.570132
  H      27.486483    -19.672118     -2.294705
  H      30.517684    -22.825192     -1.739465
  H      31.805209    -21.964884     -2.605630
  H      32.136401    -24.059934     -0.395371
  H      32.667147    -24.154246     -2.074746
  H      37.625871    -23.719592     -0.988728
  H      37.530899    -25.349963     -1.615676
  H      34.587318    -20.066068      2.309911
  H      35.645037    -18.004027      3.206105
  H      37.907693    -17.597497     -0.434349
  H      36.843353    -19.637010     -1.312284
  H      37.903000    -15.412755      0.361995
  H      38.610495    -14.967295      1.939208
  H      39.209664    -16.410962      1.076622
59
Coordinates from ORCA-job Apixaban_SMD_water_Opt E -1542.147117131821
  C      23.814445    -17.588452     -0.050486
  C      24.217950    -18.526255      1.077988
  C      25.507674    -19.288302      0.881338
  N      26.418287    -18.807439     -0.015736
  C      26.089717    -17.754347     -1.009017
  C      25.033782    -16.797580     -0.495885
  C      27.681085    -19.454763     -0.168546
  C      28.511813    -19.671388      0.936223
  C      29.745663    -20.281640      0.778016
  C      30.183936    -20.669558     -0.492147
  C      29.365184    -20.438767     -1.596942
  C      28.121911    -19.837110     -1.435522
  N      31.437836    -21.326581     -0.652586
  C      31.515646    -22.424003     -1.649720
  C      32.518762    -23.495018     -1.245461
  C      33.793193    -22.823609     -0.868425
  C      33.780658    -21.533655     -0.369139
  C      32.577371    -20.719807     -0.178946
  O      25.744455    -20.286381      1.586550
  O      32.575032    -19.617704      0.386143
  C      35.151704    -23.181244     -0.890603
  N      35.920124    -22.173576     -0.434349
  N      35.083851    -21.183309     -0.115770
  C      35.622949    -19.968047      0.411181
  C      35.747813    -24.465729     -1.310830
  N      37.088999    -24.523043     -1.316190
  O      35.026209    -25.425364     -1.641480
  C      35.281251    -19.551620      1.697264
  C      35.843016    -18.396709      2.209807
  C      36.757056    -17.658619      1.445299
  C      37.109089    -18.086767      0.162646
  C      36.535486    -19.246597     -0.349122
  O      37.255276    -16.535603      2.041403
  C      38.206824    -15.754512      1.298090
  H      23.425624    -18.166990     -0.898153
  H      23.010821    -16.926809      0.288250
  H      24.363528    -17.955499      2.007354
  H      23.446128    -19.273041      1.291198
  H      27.019003    -17.223125     -1.235936
  H      25.737742    -18.221810     -1.937297
  H      25.431374    -16.211283      0.342982
  H      24.786843    -16.100638     -1.303317
  H      28.193206    -19.356508      1.924350
  H      30.369956    -20.465257      1.646681
  H      29.689032    -20.724857     -2.592521
  H      27.497903    -19.675892     -2.308525
  H      30.518550    -22.858742     -1.734666
  H      31.794712    -22.010195     -2.627195
  H      32.138944    -24.080875     -0.397175
  H      32.656720    -24.181547     -2.082928
  H      37.638837    -23.743978     -0.985380
  H      37.541006    -25.399570     -1.538269
  H      34.591433    -20.137847      2.296377
  H      35.596107    -18.057766      3.211781
  H      37.813670    -17.533294     -0.446789
  H      36.793007    -19.581887     -1.349181
  H      37.764105    -15.369601      0.372705
  H      38.477310    -14.919670      1.946143
  H      39.102395    -16.341223      1.065470
59
Coordinates from ORCA-job Apixaban_SMD_water_Opt E -1542.147316480819
  C      23.839618    -17.571160     -0.053105
  C      24.225774    -18.536078      1.060212
  C      25.521946    -19.286872      0.867788
  N      26.441002    -18.792901     -0.009329
  C      26.130487    -17.712875     -0.981048
  C      25.065830    -16.769255     -0.460556
  C      27.700569    -19.446476     -0.166973
  C      28.530033    -19.665548      0.936427
  C      29.760723    -20.281843      0.777163
  C      30.193438    -20.673434     -0.492759
  C      29.375791    -20.439011     -1.597294
  C      28.134578    -19.833482     -1.434011
  N      31.444381    -21.338199     -0.650647
  C      31.517577    -22.443342     -1.641881
  C      32.523421    -23.514132     -1.237699
  C      33.799391    -22.843182     -0.866835
  C      33.787581    -21.549999     -0.376974
  C      32.587018    -20.734871     -0.183633
  O      25.736589    -20.319461      1.531304
  O      32.596755    -19.620926      0.359069
  C      35.157025    -23.202740     -0.880974
  N      35.926338    -22.190181     -0.435267
  N      35.089295    -21.196885     -0.129114
  C      35.619398    -19.978252      0.399408
  C      35.753515    -24.489594     -1.287037
  N      37.093839    -24.544843     -1.313182
  O      35.027897    -25.455553     -1.592565
  C      35.276035    -19.572868      1.687944
  C      35.820823    -18.411090      2.203293
  C      36.718335    -17.655621      1.437049
  C      37.070566    -18.072062      0.150564
  C      36.513003    -19.238916     -0.363829
  O      37.199224    -16.526479      2.035630
  C      38.132699    -15.726596      1.289143
  H      23.465119    -18.130333     -0.920211
  H      23.030133    -16.917991      0.289029
  H      24.354351    -17.987433      2.004901
  H      23.451759    -19.288431      1.242415
  H      27.065358    -17.178789     -1.177012
  H      25.794858    -18.159032     -1.926495
  H      25.449816    -16.202637      0.397733
  H      24.830635    -16.053319     -1.255391
  H      28.212264    -19.351685      1.925100
  H      30.385900    -20.466512      1.644625
  H      29.697563    -20.727425     -2.592889
  H      27.508422    -19.669571     -2.305193
  H      30.519374    -22.878105     -1.718672
  H      31.791086    -22.032773     -2.623002
  H      32.147315    -24.097899     -0.386583
  H      32.655662    -24.202155     -2.075905
  H      37.649064    -23.757907     -1.012094
  H      37.545169    -25.420980     -1.531635
  H      34.591462    -20.168562      2.283664
  H      35.569243    -18.078876      3.205907
  H      37.762964    -17.504671     -0.459547
  H      36.770869    -19.565169     -1.366817
  H      37.675802    -15.347115      0.368239
  H      38.390888    -14.890376      1.940100
  H      39.036428    -16.298532      1.050455
59
Coordinates from ORCA-job Apixaban_SMD_water_Opt E -1542.147426013743
  C      23.852584    -17.558116     -0.050700
  C      24.236243    -18.527928      1.060984
  C      25.529053    -19.283796      0.861743
  N      26.448029    -18.790055     -0.015002
  C      26.145655    -17.701106     -0.979372
  C      25.081391    -16.757949     -0.455821
  C      27.706104    -19.447432     -0.174697
  C      28.539660    -19.654170      0.926645
  C      29.769066    -20.273096      0.767865
  C      30.193667    -20.678534     -0.499758
  C      29.371177    -20.456693     -1.602822
  C      28.130349    -19.850085     -1.439253
  N      31.444563    -21.344776     -0.654460
  C      31.516538    -22.458955     -1.635912
  C      32.527099    -23.525354     -1.228296
  C      33.802851    -22.850656     -0.865244
  C      33.790535    -21.553104     -0.386430
  C      32.588992    -20.737176     -0.195923
  O      25.746147    -20.311772      1.529790
  O      32.601199    -19.618924      0.335601
  C      35.159847    -23.209688     -0.878105
  N      35.929825    -22.193184     -0.442127
  N      35.091998    -21.200159     -0.136702
  C      35.619196    -19.982132      0.397391
  C      35.755013    -24.497173     -1.280959
  N      37.096281    -24.551629     -1.322265
  O      35.026408    -25.465694     -1.566142
  C      35.291306    -19.595093      1.695274
  C      35.831102    -18.433409      2.215706
  C      36.707156    -17.659233      1.443989
  C      37.045008    -18.058243      0.148361
  C      36.493682    -19.226764     -0.370133
  O      37.182237    -16.530955      2.048285
  C      38.091472    -15.709728      1.296780
  H      23.476667    -18.114351     -0.919268
  H      23.044855    -16.903307      0.292939
  H      24.369825    -17.981048      2.005910
  H      23.458687    -19.275908      1.243806
  H      27.084255    -17.169941     -1.166411
  H      25.813228    -18.141075     -1.929603
  H      25.466296    -16.194942      0.404339
  H      24.847472    -16.038233     -1.247998
  H      28.223835    -19.333727      1.913673
  H      30.400275    -20.446437      1.632930
  H      29.688568    -20.756122     -2.596630
  H      27.497794    -19.695567     -2.307624
  H      30.518303    -22.895949     -1.704030
  H      31.784683    -22.054744     -2.621718
  H      32.155258    -24.105568     -0.372989
  H      32.657615    -24.218228     -2.063439
  H      37.655378    -23.759946     -1.042426
  H      37.546419    -25.427633     -1.540458
  H      34.618448    -20.202198      2.291690
  H      35.589029    -18.114077      3.224531
  H      37.722161    -17.476905     -0.465440
  H      36.742118    -19.540792     -1.379319
  H      37.612770    -15.326029      0.388494
  H      38.347749    -14.878554      1.954844
  H      38.998878    -16.266961      1.036913
59
Coordinates from ORCA-job Apixaban_SMD_water_Opt E -1542.147480885630
  C      23.863148    -17.553284     -0.054815
  C      24.238629    -18.532502      1.052370
  C      25.533019    -19.286987      0.853737
  N      26.454842    -18.786622     -0.015922
  C      26.164775    -17.682563     -0.966704
  C      25.094142    -16.747553     -0.441751
  C      27.712679    -19.446302     -0.177607
  C      28.551018    -19.641586      0.921600
  C      29.779558    -20.262539      0.762224
  C      30.196281    -20.679387     -0.504237
  C      29.368053    -20.469777     -1.605139
  C      28.128119    -19.861099     -1.440453
  N      31.446868    -21.346480     -0.658358
  C      31.516820    -22.464729     -1.635215
  C      32.528619    -23.529983     -1.227290
  C      33.804651    -22.855669     -0.865377
  C      33.793605    -21.555582     -0.392908
  C      32.593261    -20.735552     -0.207849
  O      25.747618    -20.318910      1.515126
  O      32.607315    -19.619184      0.325782
  C      35.160308    -23.218424     -0.870753
  N      35.931346    -22.202802     -0.433704
  N      35.095061    -21.204784     -0.140451
  C      35.620698    -19.986294      0.395868
  C      35.751502    -24.509065     -1.268867
  N      37.093169    -24.566127     -1.319963
  O      35.019127    -25.477008     -1.541722
  C      35.304970    -19.611915      1.700427
  C      35.840758    -18.449478      2.223058
  C      36.699667    -17.661374      1.445967
  C      37.025156    -18.047861      0.143679
  C      36.478747    -19.218431     -0.376529
  O      37.169805    -16.532403      2.052616
  C      38.056451    -15.692892      1.294909
  H      23.495882    -18.102909     -0.931265
  H      23.051656    -16.902252      0.286868
  H      24.366088    -17.992528      2.002064
  H      23.459136    -19.280959      1.223959
  H      27.106362    -17.149784     -1.133056
  H      25.845235    -18.108983     -1.927534
  H      25.471355    -16.193361      0.427519
  H      24.865081    -16.019155     -1.227337
  H      28.237630    -19.314216      1.907181
  H      30.416485    -20.427464      1.624666
  H      29.680615    -20.779665     -2.597268
  H      27.488943    -19.714817     -2.305409
  H      30.518340    -22.901888     -1.698233
  H      31.782076    -22.063745     -2.623062
  H      32.157377    -24.109929     -0.371497
  H      32.657936    -24.223767     -2.061877
  H      37.656896    -23.771559     -1.058355
  H      37.540944    -25.443159     -1.540265
  H      34.642216    -20.228421      2.298584
  H      35.607397    -18.139405      3.236833
  H      37.689233    -17.455604     -0.474036
  H      36.718969    -19.523758     -1.390353
  H      37.558559    -15.309291      0.396916
  H      38.310234    -14.863584      1.956375
  H      38.967570    -16.235650      1.017835
59
Coordinates from ORCA-job Apixaban_SMD_water_Opt E -1542.147509054341
  C      23.876100    -17.545474     -0.065505
  C      24.237241    -18.539126      1.033575
  C      25.532265    -19.293558      0.837364
  N      26.461248    -18.783037     -0.017649
  C      26.189791    -17.658410     -0.949435
  C      25.111225    -16.733353     -0.423933
  C      27.718816    -19.445681     -0.177677
  C      28.555948    -19.637992      0.922875
  C      29.783460    -20.262144      0.765957
  C      30.199001    -20.683683     -0.499726
  C      29.370676    -20.478434     -1.601484
  C      28.131925    -19.866429     -1.438909
  N      31.448790    -21.352881     -0.651862
  C      31.518104    -22.470338     -1.629896
  C      32.530205    -23.536190     -1.225150
  C      33.806489    -22.862888     -0.863042
  C      33.795898    -21.562616     -0.391525
  C      32.596213    -20.742496     -0.202054
  O      25.743181    -20.330683      1.491545
  O      32.613660    -19.624659      0.327641
  C      35.161753    -23.227526     -0.864101
  N      35.933172    -22.211430     -0.428134
  N      35.097228    -21.211451     -0.141003
  C      35.620723    -19.991406      0.395221
  C      35.750276    -24.520437     -1.260432
  N      37.091594    -24.577731     -1.321068
  O      35.016256    -25.489742     -1.521791
  C      35.319723    -19.628717      1.706694
  C      35.850956    -18.464105      2.228938
  C      36.690164    -17.661977      1.444060
  C      36.999918    -18.036292      0.134619
  C      36.457993    -19.209355     -0.385300
  O      37.157402    -16.531969      2.050896
  C      38.019378    -15.675125      1.283775
  H      23.521522    -18.083762     -0.954104
  H      23.059583    -16.899447      0.273329
  H      24.354936    -18.010987      1.991165
  H      23.454391    -19.288223      1.186441
  H      27.135026    -17.123837     -1.086908
  H      25.888311    -18.064167     -1.924686
  H      25.476757    -16.193113      0.459089
  H      24.891501    -15.992228     -1.200047
  H      28.241096    -19.306987      1.907041
  H      30.420126    -20.426664      1.628671
  H      29.682710    -20.793739     -2.591977
  H      27.491268    -19.722553     -2.303178
  H      30.519783    -22.907578     -1.691766
  H      31.781990    -22.068652     -2.617564
  H      32.159718    -24.118552     -0.370586
  H      32.658112    -24.228135     -2.061286
  H      37.658217    -23.779910     -1.076040
  H      37.538069    -25.454870     -1.545067
  H      34.670984    -20.256178      2.309515
  H      35.629600    -18.162990      3.248216
  H      37.648343    -17.432725     -0.488905
  H      36.686486    -19.505754     -1.404522
  H      37.501055    -15.294027      0.396440
  H      38.272082    -14.845872      1.945773
  H      38.933559    -16.202719      0.988479
59
Coordinates from ORCA-job Apixaban_SMD_water_Opt E -1542.147532798086
  C      23.885990    -17.541251     -0.078193
  C      24.232384    -18.547536      1.013567
  C      25.530389    -19.298640      0.824707
  N      26.466252    -18.779243     -0.016375
  C      26.212255    -17.636275     -0.930074
  C      25.124254    -16.721603     -0.406418
  C      27.722991    -19.445173     -0.175057
  C      28.560551    -19.635018      0.925716
  C      29.787058    -20.261640      0.769746
  C      30.200559    -20.687974     -0.495457
  C      29.370803    -20.486149     -1.597065
  C      28.133220    -19.871556     -1.435162
  N      31.449897    -21.357854     -0.647823
  C      31.518591    -22.474992     -1.626281
  C      32.530661    -23.540917     -1.222447
  C      33.807072    -22.867761     -0.860489
  C      33.796816    -21.566713     -0.391794
  C      32.597891    -20.746308     -0.200506
  O      25.734538    -20.345436      1.465962
  O      32.615840    -19.630083      0.332519
  C      35.162606    -23.232787     -0.859860
  N      35.933855    -22.216001     -0.425268
  N      35.097515    -21.216293     -0.138827
  C      35.619656    -19.994869      0.396284
  C      35.749503    -24.527448     -1.255092
  N      37.090320    -24.584570     -1.319865
  O      35.015124    -25.498113     -1.510228
  C      35.331471    -19.639868      1.712909
  C      35.859876    -18.473229      2.233331
  C      36.683700    -17.661559      1.441458
  C      36.979929    -18.027793      0.126703
  C      36.440280    -19.202618     -0.391685
  O      37.151466    -16.531340      2.047403
  C      37.995732    -15.663831      1.272096
  H      23.546726    -18.069106     -0.978981
  H      23.062628    -16.901386      0.255643
  H      24.335822    -18.031174      1.979131
  H      23.448278    -19.299544      1.145487
  H      27.159722    -17.098908     -1.039029
  H      25.930162    -18.022031     -1.918976
  H      25.475918    -16.194810      0.490341
  H      24.914288    -15.968597     -1.173614
  H      28.246282    -19.299245      1.908648
  H      30.424110    -20.425964      1.632258
  H      29.681223    -20.805754     -2.586583
  H      27.490769    -19.729864     -2.298522
  H      30.520494    -22.912596     -1.687438
  H      31.781830    -22.073829     -2.614200
  H      32.160515    -24.124397     -0.368442
  H      32.658223    -24.232420     -2.058922
  H      37.658223    -23.784340     -1.085821
  H      37.535974    -25.461293     -1.547339
  H      34.694952    -20.275512      2.320615
  H      35.649336    -18.177959      3.256684
  H      37.616102    -17.416576     -0.502010
  H      36.658011    -19.492877     -1.415075
  H      37.463151    -15.285612      0.392091
  H      38.248775    -14.833595      1.932712
  H      38.911441    -16.181171      0.963912
59
Coordinates from ORCA-job Apixaban_SMD_water_Opt E -1542.147556826109
  C      23.898081    -17.532526     -0.098194
  C      24.216685    -18.567167      0.974648
  C      25.517800    -19.314697      0.795317
  N      26.469138    -18.777554     -0.015524
  C      26.245315    -17.601808     -0.893742
  C      25.143521    -16.703341     -0.370498
  C      27.724672    -19.447517     -0.170981
  C      28.556784    -19.644927      0.932540
  C      29.782549    -20.273486      0.778820
  C      30.200263    -20.695473     -0.486765
  C      29.374627    -20.487586     -1.590719
  C      28.138182    -19.870326     -1.431066
  N      31.449319    -21.365759     -0.638454
  C      31.520088    -22.479123     -1.620879
  C      32.531015    -23.546511     -1.217970
  C      33.806976    -22.874016     -0.853024
  C      33.795969    -21.573464     -0.383726
  C      32.596745    -20.755113     -0.187704
  O      25.708414    -20.379343      1.411841
  O      32.613393    -19.641597      0.351245
  C      35.163169    -23.238245     -0.851438
  N      35.933288    -22.221425     -0.415793
  N      35.096085    -21.222532     -0.129287
  C      35.617734    -19.998075      0.399718
  C      35.749644    -24.533510     -1.246892
  N      37.090177    -24.590369     -1.310499
  O      35.015619    -25.504250     -1.503740
  C      35.348400    -19.647588      1.721598
  C      35.875628    -18.477398      2.235107
  C      36.679919    -17.657891      1.431134
  C      36.957137    -18.019426      0.110904
  C      36.418362    -19.197544     -0.400575
  O      37.150434    -16.525861      2.031536
  C      37.974232    -15.650220      1.243315
  H      23.583603    -18.035977     -1.021771
  H      23.065005    -16.902501      0.230397
  H      24.296197    -18.077306      1.956052
  H      23.429598    -19.322251      1.066276
  H      27.196258    -17.062504     -0.954323
  H      25.994103    -17.950129     -1.904648
  H      25.471976    -16.204811      0.550947
  H      24.952806    -15.926800     -1.118990
  H      28.238451    -19.311847      1.915209
  H      30.415225    -20.444991      1.643142
  H      29.687922    -20.803933     -2.580336
  H      27.498700    -19.723301     -2.295908
  H      30.522286    -22.916888     -1.685970
  H      31.785744    -22.075377     -2.607120
  H      32.159710    -24.132561     -0.366235
  H      32.659989    -24.236203     -2.055837
  H      37.658257    -23.788574     -1.082395
  H      37.535434    -25.465429     -1.544649
  H      34.727641    -20.290026      2.338369
  H      35.680009    -18.184991      3.262238
  H      37.577920    -17.402082     -0.527040
  H      36.620635    -19.484228     -1.428160
  H      37.425284    -15.277453      0.371104
  H      38.229462    -14.817004      1.899272
  H      38.890422    -16.158169      0.921126
59
Coordinates from ORCA-job Apixaban_SMD_water_Opt E -1542.147563760511
  C      23.922556    -17.511695     -0.134182
  C      24.183269    -18.611076      0.887977
  C      25.489559    -19.352026      0.724517
  N      26.473374    -18.776606     -0.015424
  C      26.308821    -17.534374     -0.809187
  C      25.180353    -16.669687     -0.284449
  C      27.726958    -19.452615     -0.165813
  C      28.543479    -19.674072      0.944209
  C      29.768258    -20.305423      0.794632
  C      30.199111    -20.708364     -0.472816
  C      29.386485    -20.479701     -1.582767
  C      28.151834    -19.858150     -1.427497
  N      31.447790    -21.379213     -0.622509
  C      31.523674    -22.485119     -1.612511
  C      32.530949    -23.556137     -1.209062
  C      33.806060    -22.885763     -0.836790
  C      33.793517    -21.586255     -0.365394
  C      32.593351    -20.771966     -0.162123
  O      25.652398    -20.453894      1.282855
  O      32.606659    -19.664662      0.390107
  C      35.163042    -23.248978     -0.832121
  N      35.931228    -22.231689     -0.395510
  N      35.092612    -21.234250     -0.108196
  C      35.614118    -20.003298      0.406211
  C      35.750084    -24.544471     -1.226784
  N      37.090641    -24.603762     -1.278105
  O      35.016684    -25.514754     -1.489033
  C      35.381281    -19.656763      1.735964
  C      35.907689    -18.479202      2.233323
  C      36.675087    -17.648639      1.405118
  C      36.915772    -18.005968      0.076438
  C      36.377775    -19.191229     -0.418460
  O      37.149873    -16.510925      1.991325
  C      37.936231    -15.624094      1.178004
  H      23.660148    -17.955782     -1.103481
  H      23.071428    -16.901777      0.186195
  H      24.212393    -18.184202      1.900893
  H      23.392017    -19.367565      0.890881
  H      27.263211    -16.998523     -0.769548
  H      26.120320    -17.800043     -1.858231
  H      25.459571    -16.237895      0.685662
  H      25.029931    -15.842324     -0.986130
  H      28.212800    -19.356319      1.928147
  H      30.389306    -20.496586      1.663302
  H      29.709429    -20.782024     -2.573713
  H      27.522167    -19.693166     -2.296606
  H      30.526025    -22.921885     -1.687557
  H      31.796586    -22.075805     -2.594520
  H      32.155361    -24.145721     -0.361707
  H      32.663376    -24.242740     -2.049076
  H      37.658612    -23.800593     -1.054778
  H      37.535416    -25.476733     -1.520482
  H      34.789154    -20.308253      2.371049
  H      35.740034    -18.188454      3.265837
  H      37.507691    -17.380031     -0.580206
  H      36.550798    -19.475077     -1.452195
  H      37.357567    -15.262167      0.320555
  H      38.196863    -14.784854      1.824053
  H      38.851225    -16.117664      0.830713
59
Coordinates from ORCA-job Apixaban_SMD_water_Opt E -1542.147581284831
  C      23.908144    -17.523948     -0.120052
  C      24.193986    -18.596209      0.924498
  C      25.498926    -19.338286      0.754394
  N      26.469509    -18.778071     -0.015267
  C      26.279521    -17.562988     -0.845396
  C      25.160976    -16.684984     -0.321370
  C      27.724168    -19.450496     -0.167871
  C      28.546676    -19.663230      0.939393
  C      29.771822    -20.293426      0.787883
  C      30.198309    -20.701514     -0.479021
  C      29.381337    -20.479355     -1.586773
  C      28.145238    -19.861158     -1.429364
  N      31.447279    -21.371846     -0.629515
  C      31.521448    -22.480670     -1.616456
  C      32.529648    -23.550492     -1.212144
  C      33.805260    -22.879245     -0.843070
  C      33.793309    -21.579602     -0.371318
  C      32.593036    -20.764389     -0.170732
  O      25.674197    -20.424090      1.339134
  O      32.606739    -19.655227      0.377685
  C      35.161894    -23.242398     -0.841229
  N      35.930890    -22.225743     -0.404087
  N      35.092960    -21.228141     -0.115042
  C      35.615570    -19.999978      0.404345
  C      35.749927    -24.536605     -1.236977
  N      37.090812    -24.595616     -1.287821
  O      35.016626    -25.505189     -1.505241
  C      35.368371    -19.650172      1.730543
  C      35.897655    -18.476340      2.233752
  C      36.682015    -17.652594      1.415006
  C      36.937291    -18.013276      0.089903
  C      36.396723    -19.194960     -0.410801
  O      37.156815    -16.517531      2.006361
  C      37.963055    -15.638852      1.204017
  H      23.624521    -17.993640     -1.071055
  H      23.063643    -16.906770      0.203847
  H      24.243724    -18.142785      1.925048
  H      23.404814    -19.353656      0.964919
  H      27.232655    -17.023827     -0.847906
  H      26.064460    -17.864516     -1.879561
  H      25.460101    -16.224222      0.629225
  H      24.993772    -15.878975     -1.043857
  H      28.220486    -19.341723      1.923457
  H      30.397443    -20.476905      1.654946
  H      29.701131    -20.785555     -2.577619
  H      27.512264    -19.702223     -2.297077
  H      30.523451    -22.917155     -1.688729
  H      31.792681    -22.073320     -2.599783
  H      32.155187    -24.137468     -0.362500
  H      32.660929    -24.238926     -2.050780
  H      37.657931    -23.794508     -1.055084
  H      37.536344    -25.468825     -1.527978
  H      34.763147    -20.295898      2.359021
  H      35.718692    -18.183685      3.263802
  H      37.542620    -17.392736     -0.559654
  H      36.581731    -19.481451     -1.441691
  H      37.399075    -15.269867      0.339768
  H      38.224203    -14.803270      1.854625
  H      38.876866    -16.142476      0.868254
59
Coordinates from ORCA-job Apixaban_SMD_water_Opt E -1542.147585615143
  C      23.906855    -17.524995     -0.120462
  C      24.191647    -18.599884      0.921905
  C      25.497077    -19.340902      0.751465
  N      26.468527    -18.778874     -0.015511
  C      26.279619    -17.561046     -0.842047
  C      25.159802    -16.684936     -0.317325
  C      27.723449    -19.450604     -0.168447
  C      28.544622    -19.665712      0.939125
  C      29.770027    -20.295534      0.787453
  C      30.197760    -20.700429     -0.479834
  C      29.382073    -20.476061     -1.587991
  C      28.145700    -19.858432     -1.430488
  N      31.446942    -21.370487     -0.630357
  C      31.521364    -22.479236     -1.617368
  C      32.528848    -23.549482     -1.212236
  C      33.804655    -22.878611     -0.842946
  C      33.792800    -21.579181     -0.370286
  C      32.592326    -20.764209     -0.169632
  O      25.672002    -20.427719      1.334533
  O      32.605741    -19.655880      0.380548
  C      35.161087    -23.241943     -0.841224
  N      35.930250    -22.225548     -0.403498
  N      35.092502    -21.227954     -0.113840
  C      35.615648    -19.999601      0.404515
  C      35.750015    -24.535399     -1.237243
  N      37.091186    -24.595943     -1.281174
  O      35.016996    -25.502936     -1.509983
  C      35.369635    -19.648822      1.730571
  C      35.899903    -18.474920      2.232748
  C      36.683936    -17.652068      1.412995
  C      36.938179    -18.013745      0.087921
  C      36.396836    -19.195563     -0.411573
  O      37.159069    -16.516545      2.003199
  C      37.967332    -15.640091      1.200668
  H      23.625286    -17.992396     -1.073182
  H      23.061489    -16.909141      0.203633
  H      24.239681    -18.149091      1.923716
  H      23.402673    -19.357627      0.959451
  H      27.232685    -17.021850     -0.841278
  H      26.066007    -17.859861     -1.877311
  H      25.457024    -16.226711      0.635068
  H      24.993765    -15.877028     -1.037963
  H      28.217207    -19.347346      1.923806
  H      30.394957    -20.480332      1.654728
  H      29.703032    -20.780149     -2.579141
  H      27.513603    -19.697624     -2.298482
  H      30.523093    -22.914933     -1.690694
  H      31.793762    -22.071611     -2.600276
  H      32.153565    -24.135491     -0.362305
  H      32.660216    -24.238235     -2.050549
  H      37.657643    -23.796053     -1.042730
  H      37.537138    -25.469176     -1.520442
  H      34.764317    -20.293436      2.360073
  H      35.721579    -18.181549      3.262696
  H      37.543270    -17.393893     -0.562541
  H      36.581235    -19.482992     -1.442309
  H      37.404140    -15.269821      0.336429
  H      38.230393    -14.805117      1.851313
  H      38.879828    -16.146244      0.865112
59
Coordinates from ORCA-job Apixaban_SMD_water_Opt E -1542.147587882257
  C      23.908374    -17.523768     -0.123905
  C      24.186641    -18.607719      0.911118
  C      25.492904    -19.347294      0.741346
  N      26.468106    -18.779883     -0.016170
  C      26.286043    -17.552516     -0.830321
  C      25.162569    -16.681706     -0.304431
  C      27.723234    -19.451400     -0.169128
  C      28.541347    -19.671191      0.939459
  C      29.767127    -20.300709      0.787972
  C      30.197264    -20.700198     -0.479976
  C      29.384285    -20.471662     -1.589187
  C      28.147751    -19.854254     -1.431974
  N      31.446799    -21.369871     -0.630433
  C      31.521704    -22.478599     -1.617511
  C      32.527858    -23.549555     -1.210862
  C      33.803984    -22.879341     -0.841186
  C      33.792260    -21.580072     -0.367729
  C      32.591554    -20.765442     -0.166625
  O      25.664954    -20.438364      1.317527
  O      32.604715    -19.658682      0.386813
  C      35.160071    -23.243185     -0.838745
  N      35.929490    -22.226819     -0.400813
  N      35.091894    -21.229232     -0.110764
  C      35.615428    -19.999979      0.405227
  C      35.750233    -24.535986     -1.234197
  N      37.091664    -24.597932     -1.270244
  O      35.017740    -25.501147     -1.516495
  C      35.374162    -19.648794      1.731910
  C      35.904919    -18.473892      2.231480
  C      36.684437    -17.650418      1.408236
  C      36.933997    -18.012485      0.082339
  C      36.392465    -19.195416     -0.414277
  O      37.159495    -16.513445      1.995699
  C      37.967107    -15.638599      1.190910
  H      23.633881    -17.983017     -1.082618
  H      23.060587    -16.911064      0.199716
  H      24.228410    -18.165685      1.917086
  H      23.397294    -19.365498      0.937414
  H      27.239468    -17.014202     -0.816247
  H      26.079752    -17.840320     -1.870172
  H      25.453243    -16.232764      0.654368
  H      25.001592    -15.866883     -1.018398
  H      28.211347    -19.357923      1.924943
  H      30.390287    -20.488664      1.655829
  H      29.707638    -20.772136     -2.580682
  H      27.517393    -19.689665     -2.300523
  H      30.523018    -22.913036     -1.692501
  H      31.796078    -22.070753     -2.599787
  H      32.151130    -24.133908     -0.360444
  H      32.659287    -24.238963     -2.048548
  H      37.656979    -23.799426     -1.024589
  H      37.538401    -25.470319     -1.511097
  H      34.771730    -20.293253      2.364355
  H      35.729984    -18.180291      3.261939
  H      37.535469    -17.392093     -0.570983
  H      36.573444    -19.483400     -1.445470
  H      37.402059    -15.267235      0.328331
  H      38.233345    -14.804191      1.841021
  H      38.877609    -16.146756      0.852996
59
Coordinates from ORCA-job Apixaban_SMD_water_Opt E -1542.147588320021
  C      23.909639    -17.523076     -0.125305
  C      24.185610    -18.609454      0.907810
  C      25.492177    -19.348737      0.738855
  N      26.468457    -18.779887     -0.016031
  C      26.288891    -17.549653     -0.826497
  C      25.164148    -16.680454     -0.300758
  C      27.723591    -19.451640     -0.168973
  C      28.541139    -19.672259      0.939838
  C      29.766960    -20.301838      0.788339
  C      30.197355    -20.700357     -0.479837
  C      29.384890    -20.470950     -1.589252
  C      28.148354    -19.853535     -1.432001
  N      31.446987    -21.369914     -0.630533
  C      31.521834    -22.478681     -1.617640
  C      32.527679    -23.549832     -1.210835
  C      33.803947    -22.879813     -0.841212
  C      33.792301    -21.580581     -0.367639
  C      32.591600    -20.765992     -0.166016
  O      25.663076    -20.441230      1.312701
  O      32.604904    -19.659692      0.388351
  C      35.159974    -23.243777     -0.838801
  N      35.929437    -22.227585     -0.400272
  N      35.091890    -21.229910     -0.110563
  C      35.615301    -20.000364      0.405022
  C      35.750355    -24.536382     -1.234810
  N      37.091852    -24.599241     -1.266444
  O      35.018137    -25.501438     -1.518090
  C      35.376140    -19.650022      1.732302
  C      35.906556    -18.474730      2.231353
  C      36.683515    -17.649982      1.406914
  C      36.930854    -18.011170      0.080373
  C      36.389732    -19.194534     -0.415687
  O      37.158384    -16.512667      1.993860
  C      37.964952    -15.637441      1.188328
  H      23.637549    -17.980164     -1.085740
  H      23.061038    -16.911195      0.197721
  H      24.225193    -18.169734      1.914868
  H      23.396129    -19.367228      0.930599
  H      27.242453    -17.011715     -0.807805
  H      26.085502    -17.833990     -1.867852
  H      25.452602    -16.234096      0.659928
  H      25.004741    -15.863676     -1.012849
  H      28.210751    -19.359682      1.925413
  H      30.389777    -20.490631      1.656254
  H      29.708760    -20.770736     -2.580780
  H      27.518160    -19.688095     -2.300509
  H      30.523039    -22.912820     -1.692773
  H      31.796485    -22.070868     -2.599846
  H      32.150726    -24.133800     -0.360242
  H      32.658915    -24.239417     -2.048386
  H      37.656746    -23.801181     -1.018387
  H      37.538876    -25.471748     -1.506305
  H      34.775652    -20.295374      2.365706
  H      35.733350    -18.181913      3.262328
  H      37.530225    -17.389753     -0.573896
  H      36.569000    -19.481864     -1.447364
  H      37.398570    -15.265484      0.326884
  H      38.232333    -14.803457      1.838506
  H      38.874813    -16.145562      0.848684
