
                                 *****************
                                 * O   R   C   A *
                                 *****************

                                            #,                                       
                                            ###                                      
                                            ####                                     
                                            #####                                    
                                            ######                                   
                                           ########,                                 
                                     ,,################,,,,,                         
                               ,,#################################,,                 
                          ,,##########################################,,             
                       ,#########################################, ''#####,          
                    ,#############################################,,   '####,        
                  ,##################################################,,,,####,       
                ,###########''''           ''''###############################       
              ,#####''   ,,,,##########,,,,          '''####'''          '####       
            ,##' ,,,,###########################,,,                        '##       
           ' ,,###''''                  '''############,,,                           
         ,,##''                                '''############,,,,        ,,,,,,###''
      ,#''                                            '''#######################'''  
     '                                                          ''''####''''         
             ,#######,   #######,   ,#######,      ##                                
            ,#'     '#,  ##    ##  ,#'     '#,    #''#        ,####,    ,#,          
            ##       ##  ##   ,#'  ##            #'  '#       #'       ,# #          
            ##       ##  #######   ##           ,######,      #####,      #          
            '#,     ,#'  ##    ##  '#,     ,#' ,#      #,     #,   #      #          
             '#######'   ##     ##  '#######'  #'      '#     '####' #    #          



                #########################################################
                #                        -***-                          #
                #          Department of theory and spectroscopy        #
                #                                                       #
                #                      Frank Neese                      #
                #                                                       #
                #     Directorship, Architecture, Infrastructure        #
                #                    SHARK, DRIVERS                     #
                #        Core code/Algorithms in most modules           #
                #                                                       #
                #        Max Planck Institute fuer Kohlenforschung      #
                #                Kaiser Wilhelm Platz 1                 #
                #                 D-45470 Muelheim/Ruhr                 #
                #                      Germany                          #
                #                                                       #
                #                  All rights reserved                  #
                #                        -***-                          #
                #########################################################


                         Program Version 6.1.1  -  RELEASE   -


 With contributions from (in alphabetic order):
[Max-Planck-Institut fuer Kohlenforschung]                               
  Daniel Aravena         : Magnetic Suceptibility                        
  Michael Atanasov       : Ab Initio Ligand Field Theory (pilot matlab implementation)
  Alexander A. Auer      : GIAO ZORA, VPT2 properties, NMR spectrum      
  Ute Becker             : All parallelization in ORCA, NUMFREQ, NUMCALC 
  Giovanni Bistoni       : ED, misc. LED, open-shell LED, HFLD           
  Dmytro Bykov           : pre 5.0 version of the SCF Hessian            
  Marcos Casanova-Pﾃ｡ez   : Triplet and SCS-CIS(D). UHF-(DLPNO)-IP/EA/STEOM-CCSD. UHF-CVS-IP/STEOM-CCSD   
  Vijay G. Chilkuri      : MRCI spin determinant printing, contributions to CSF-ICE 
  Pauline Colinet        : FMM embedding                                 
  Dipayan Datta          : RHF DLPNO-CCSD density                        
  Achintya Kumar Dutta   : EOM-CC, STEOM-CC                              
  Nicolas Foglia         : Exact transition moments, OPA infrastructure, MCD improvements    
  Dmitry Ganyushin       : Spin-Orbit,Spin-Spin,Magnetic field MRCI      
  Miquel Garcia-Rates    : C-PCM and meta-GGA Hessian, CCSD/C-PCM, Gaussian charge scheme 
  Tiago L. C. Gouveia    : GS-ROHF, GS-ROCIS                             
  Yang Guo               : DLPNO-NEVPT2, F12-NEVPT2, CIM, IAO-localization        
  Andreas Hansen         : Spin unrestricted coupled pair/coupled cluster methods 
  Ingolf Harden          : AUTO-CI MPn and infrastructure                
  Benjamin Helmich-Paris : MC-RPA, TRAH-(SCF,CASSCF), AVAS, COSX integrals, SCF dyn. polar., MC-PDFT, srDFT 
  Lee Huntington         : MR-EOM, pCC                                   
  Robert Izsak           : Overlap fitted RIJCOSX, COSX-SCS-MP3, EOM     
  Riya Kayal             : Wick's Theorem for AUTO-CI, AUTO-CI UHF-CCSDT 
  Emily Kempfer          : AUTO-CI RHF CISDT and CCSDT, approximate NEVPT4
  Christian Kollmar      : KDIIS, OOCD, Brueckner-CCSD(T), CCSD density, CASPT2, CASPT2-K, improved NEVPT2 
  Axel Koslowski         : Symmetry handling                             
  Simone Kossmann        : meta-GGA functionals, TD-DFT gradient, OOMP2, (MP2 Hessian; deprecated post 5.0) 
  Lucas Lang             : DCDCAS, Hyperfine gauge corrections, ICE-SOC+SSC
  Marvin Lechner         : AUTO-CI (C++ implementation), FIC-MRCC        
  Spencer Leger          : CASSCF response                               
  Dagmar Lenk            : GEPOL surface, SMD, ORCA-2-JSON               
  Dimitrios Liakos       : Extrapolation schemes; Compound Job, Property file
  Dimitrios Manganas     : Further ROCIS development; embedding schemes. LFT, Crystal Embedding 
  Dimitrios Pantazis     : SARC Basis sets                               
  Anastasios Papadopoulos: AUTO-CI, single reference methods and gradients 
  Taras Petrenko         : pre 6.0 DFT Hessian and TD-DFT gradient,  ECA, NRVS 
  Petra Pikulova         : Analytic Raman intensities                    
  Peter Pinski           : DLPNO-MP2, DLPNO-MP2 Gradient                 
  Shashank Vittal Rao    : ES-AILFT, MagRelax                            
  Christoph Reimann      : Effective Core Potentials                     
  Marius Retegan         : Local ZFS, SOC                                
  Christoph Riplinger    : Optimizer, TS searches, QM/MM, DLPNO-CCSD(T), (RO)-DLPNO pert. Triples 
  Michael Roemelt        : Original ROCIS implementation, recursive CI coupling coefficients
  Masaaki Saitow         : Open-shell DLPNO-CCSD energy and density      
  Barbara Sandhoefer     : DKH picture change effects                    
  Yorick L. A. Schmerwitz: GMF and freeze-and-release deltaSCF, NEB S-IDPP initial path                    
  Kantharuban Sivalingam : CASSCF convergence/infrastructure, NEVPT2, NEVPT3, NEVPT4(SD), FIC-MRCI and CEPA variants
  Bernardo de Souza      : ESD, SOC TD-DFT                               
  Georgi L. Stoychev     : AutoAux, RI-MP2 NMR, DLPNO-MP2 response, X2C  
  Van Anh Tran           : RI-MP2 g-tensors                              
  Willem Van den Heuvel  : Paramagnetic NMR                              
  Zikuan Wang            : NOTCH, Electric field optimization            
  Frank Wennmohs         : Technical directorship and infrastructure     
  Hang Xu                : AUTO-CI-Response properties                   
                                                                         
[FACCTs GmbH]                                                            
  Markus Bursch, Nicolas Foglia, Miquel Garcia-Rates, Ingolf Harden, Hagen Neugebauer, Anastasios Papadopoulos, 
  Christoph Riplinger, Bernardo de Souza, Georgi L. Stoychev                                                    
                                                                 
  APM, various basis sets, CI-OPT, improved COSX, DLPNO-Multilevel,           
  DOCKER, DRACO, updates on ESD, Fragmentator, GOAT, IRC, LR-CPCM, L-BFGS, MBIS, meta-GGA TD-DFT gradient, ML-optimized integration grids, 
  MM, NACMEs, nearIR, NEB, NEB-TS, NL-DFT gradient (VV10), 2- and 3-layer-ONIOM, interface openCOSMO-RS, QMMM,   
  Crystal-QMMM, RESP, rigid body optimization, SF, symmetry and pop. for TD-DFT, various functionals, SOLVATOR                                   
                                                                         
[Other institutions]                                                     
  V. Asgeirsson          : NEB                                           
  Christoph Bannwarth    : sTDA-DFT, sTD-DFT, PBEh-3c, B97-3c, D3        
  Giovanni Bistoni       : ETS/NOCV, ADLD/ADEX, COVALED                  
  Martin Brehm           : Molecular dynamics                            
  Ronald Cardenas        : ETS/NOCV                                      
  Martina Colucci        : COVALED                                       
  Sebastian Ehlert       : rSCAN, r2SCAN, r2SCAN-3c, D4, dhf basis sets  
  Marvin Friede          : D4 for Fr, Ra, Ac-Lr                          
  Lars Goerigk           : TD-DFT with DH, B97 family of functionals     
  Stefan Grimme          : VdW corrections, initial TS optimization, DFT functionals, gCP, sTDA/sTD-DF 
  Waldemar Hujo          : DFT-NL                                        
  H. Jonsson             : NEB                                           
  Holger Kruse           : gCP                                           
  Marcel Mueller         : wB97X-3c, vDZP basis set                      
  Hagen Neugebauer       : wr2SCAN, Native XTB                           
  Gianluca Regni         : ADLD/ADEX                                     
  Tobias Risthaus        : pre 6.0 range-separated hybrid DFT and stability analysis
  Lukas Wittmann         : regularized MP2, r2SCAN double-hybrids, wr2SCAN        
                                                                         
We gratefully acknowledge several colleagues who have allowed us to      
interface, adapt or use parts of their codes:                            
  Ed Valeev, F. Pavosevic, A. Kumar             : LibInt (2-el integral package), F12 methods 
  Garnet Chan, S. Sharma, J. Yang, R. Olivares  : DMRG                   
  Ulf Ekstrom                                   : XCFun DFT Library      
  Mihaly Kallay                                 : mrcc  (arbitrary order and MRCC methods)
  Frank Weinhold                                : gennbo (NPA and NBO analysis)           
  Simon Mueller                                 : openCOSMO-RS                            
  Christopher J. Cramer and Donald G. Truhlar   : smd solvation model                     
  S Lehtola, MJT Oliveira, MAL Marques          : LibXC Library                           
  Liviu Ungur et al                             : ANISO software                          


 Your calculation uses the libint2 library for the computation of 2-el integrals
 For citations please refer to: http://libint.valeyev.net

 Your ORCA version has been built with support for libXC version: 7.0.0
 For citations please refer to: https://libxc.gitlab.io

 This ORCA versions uses:
   CBLAS   interface :  Fast vector & matrix operations
   LAPACKE interface :  Fast linear algebra routines
   Shared memory     :  Shared parallel matrices


  ***********************************
  * Starting time: Sat Oct  3 08:19:22 2026
  * Host name:     DESKTOP-2KDTO5M
  * Process ID:    3960
  * Working dir.:  C:\Users\naoki\Downloads\デスクトップ\data\Molecules\Calculations\Apixaban\CrystalFragment
  ***********************************

NOTE: MaxCore=2000 MB was set to SCF,MP2,MDCI,CIPSI,MRCI,RASCI and CIS
      => If you want to overwrite this, your respective input block should be placed after the MaxCore statement
Your calculation utilizes the semiempirical GFN2-xTB method
Please cite in your paper:
Bannwarth, C.; Ehlert S.; Grimme, S. J. Chem. Theory Comput. 2019, 15, 1652.
   

================================================================================

================================================================================
                                        WARNINGS
                       Please study these warnings very carefully!
================================================================================


WARNING: Found dipole moment calculation with XTB calculation
  ===> : Switching off dipole moment calculation

Environment variable XTBEXE for xtb has been set!

================================================================================
                                       INPUT FILE
================================================================================
NAME = D9\D9_pull_+0.5A_XTB2_SP.inp
|  1> # D9 pull-apart: molecule B displaced +0.5 A along centroid vector (rigid), XTB2 single point
|  2> 
|  3> ! XTB2
|  4> 
|  5> %pal
|  6>   nprocs 4
|  7> end
|  8> 
|  9> %maxcore 2000
| 10> 
| 11> * xyz 0 1
| 12> H     22.83953108    41.40894130    37.29825264
| 13> C     21.66192281    40.99367530    38.86881303
| 14> H     22.07616212    40.19221192    39.09488688
| 15> C     20.59018700    41.44174731    39.60209780
| 16> C     20.37888339    41.35108090    42.07160460
| 17> H     21.27577734    41.14178684    42.37508161
| 18> C     19.91667659    39.37261526    40.64877097
| 19> C     19.70491047    38.72673821    41.95392663
| 20> C     19.37498228    39.39670069    43.09735375
| 21> C     19.37987740    40.88529087    43.11355807
| 22> H     18.49518556    41.22484004    42.90526177
| 23> H     19.63551561    41.20961362    43.99079384
| 24> C     19.09233738    38.39757069    44.02965274
| 25> C     18.62131839    38.57115188    45.42180829
| 26> C     19.92150901    36.27320826    41.38583152
| 27> C     21.02045476    36.32096385    40.55815264
| 28> H     21.57482386    37.06802738    40.56428826
| 29> C     21.29965591    35.26203555    39.72119169
| 30> H     22.04007708    35.29484156    39.16096274
| 31> C     20.48327140    34.15728956    39.71615733
| 32> C     19.40393116    34.09804495    40.58017793
| 33> H     18.86965258    33.33755448    40.59889943
| 34> C     19.11657892    35.15088268    41.40864342
| 35> H     18.38500348    35.11074030    41.98177289
| 36> C     21.65484253    33.18902767    37.89985766
| 37> H     21.63735684    32.40735864    37.34230322
| 38> H     21.49730824    33.96875880    37.36275527
| 39> H     22.51426932    33.26003816    38.32242855
| 40> H     18.39538066    37.52066732    47.01612452
| 41> H     19.03443510    36.81056246    45.91171363
| 42> N     20.15043870    40.71641603    40.76047065
| 43> N     19.61541343    37.39055064    42.22106192
| 44> N     19.25444159    37.17793445    43.50387764
| 45> N     18.66135535    37.48509287    46.18797368
| 46> O     19.80354548    38.80217820    39.58306166
| 47> O     18.19832953    39.65471929    45.78664146
| 48> O     20.64750653    33.08576486    38.89083831
| 49> C     21.16875807    43.95659821    35.25288997
| 50> H     20.47458764    44.57326822    35.53622957
| 51> H     20.73787682    43.12398988    35.00447618
| 52> C     21.83638855    44.51236254    34.06934536
| 53> H     22.27585503    43.79118392    33.59013802
| 54> H     21.16639655    44.89163882    33.48001158
| 55> C     22.83291639    45.54914332    34.38918402
| 56> H     23.29048235    45.81491356    33.57597890
| 57> H     22.37932284    46.32984340    34.74489242
| 58> C     23.83563842    45.06632738    35.38346846
| 59> H     24.48924629    44.52205208    34.91794826
| 60> H     24.30290205    45.83567686    35.74389657
| 61> C     23.28615136    44.26860140    36.52721022
| 62> C     20.44944804    43.36719733    38.19279400
| 63> H     20.03755147    44.17046020    37.96687747
| 64> C     21.53658130    42.92535431    37.47020721
| 65> C     22.12431926    41.72606610    37.80121583
| 66> C     19.97011296    42.62082591    39.24985051
| 67> H     19.22705322    42.91497266    39.72575407
| 68> H     20.31296812    42.31422118    41.97547995
| 69> N     22.06622540    43.70370122    36.38672035
| 70> O     23.94091717    44.12713411    37.55626316
| 71> C     26.13997087    24.80893980    43.39623796
| 72> H     26.83414130    24.19226979    43.11289836
| 73> H     26.57085212    25.64154813    43.64465175
| 74> C     25.47234039    24.25317547    44.57978256
| 75> H     25.03287390    24.97435409    45.05898991
| 76> H     26.14233239    23.87389919    45.16911635
| 77> C     24.47581254    23.21639469    44.25994391
| 78> H     24.01824658    22.95062445    45.07314902
| 79> H     24.92940609    22.43569461    43.90423550
| 80> C     23.47309052    23.69921063    43.26565946
| 81> H     22.81948264    24.24348593    43.73117967
| 82> H     23.00582689    22.92986115    42.90523135
| 83> C     24.02257758    24.49693661    42.12191770
| 84> C     26.85928090    25.39834068    40.45633393
| 85> H     27.27117747    24.59507781    40.68225046
| 86> C     25.77214764    25.84018370    41.17892071
| 87> C     25.18440967    27.03947191    40.84791209
| 88> C     27.33861598    26.14471210    39.39927741
| 89> H     28.08167571    25.85056535    38.92337386
| 90> H     26.99576081    26.45131683    36.67364798
| 91> N     25.24250354    25.06183679    42.26240758
| 92> O     23.36781177    24.63840390    41.09286477
| 93> H     24.46919786    27.35659671    41.35087529
| 94> C     25.64680613    27.77186271    39.78031490
| 95> H     25.23256682    28.57332609    39.55424105
| 96> C     26.71854193    27.32379070    39.04703012
| 97> C     26.92984555    27.41445711    36.57752332
| 98> H     26.03295160    27.62375117    36.27404631
| 99> C     27.39205235    29.39292275    38.00035695
|100> C     27.60381847    30.03879980    36.69520129
|101> C     27.93374666    29.36883732    35.55177418
|102> C     27.92885154    27.88024714    35.53556986
|103> H     28.81354337    27.54069797    35.74386616
|104> H     27.67321333    27.55592439    34.65833409
|105> C     28.21639155    30.36796732    34.61947519
|106> C     28.68741054    30.19438613    33.22731964
|107> C     27.38721993    32.49232975    37.26329641
|108> C     26.28827418    32.44457416    38.09097528
|109> H     25.73390508    31.69751063    38.08483967
|110> C     26.00907303    33.50350246    38.92793624
|111> H     25.26865186    33.47069645    39.48816518
|112> C     26.82545754    34.60824845    38.93297059
|113> C     27.90479778    34.66749306    38.06894999
|114> H     28.43907636    35.42798353    38.05022850
|115> C     28.19215002    33.61465533    37.24048450
|116> H     28.92372545    33.65479771    36.66735504
|117> C     25.65388641    35.57651034    40.74927027
|118> H     25.67137210    36.35817937    41.30682471
|119> H     25.81142070    34.79677921    41.28637266
|120> H     24.79445962    35.50549985    40.32669938
|121> H     28.91334827    31.24487069    31.63300341
|122> H     28.27429384    31.95497555    32.73741429
|123> N     27.15829024    28.04912198    37.88865728
|124> N     27.69331550    31.37498737    36.42806601
|125> N     28.05428734    31.58760356    35.14525029
|126> N     28.64737359    31.28044514    32.46115425
|127> O     27.50518346    29.96335981    39.06606626
|128> O     29.11039941    29.11081872    32.86248647
|129> O     26.66122240    35.67977315    39.75828961
|130> *
|131> 
|132>                          ****END OF INPUT****
================================================================================

                       ****************************
                       * Single Point Calculation *
                       ****************************

      -----------------------------------------------------------      
     |                   =====================                   |     
     |                           x T B                           |     
     |                   =====================                   |     
     |                         S. Grimme                         |     
     |          Mulliken Center for Theoretical Chemistry        |     
     |                    University of Bonn                     |     
      -----------------------------------------------------------      

   * xtb version 6.7.1pre (5071a88) compiled by 'Marcel@Raven' on 2024-07-23

   xtb is free software: you can redistribute it and/or modify it under
   the terms of the GNU Lesser General Public License as published by
   the Free Software Foundation, either version 3 of the License, or
   (at your option) any later version.
   
   xtb is distributed in the hope that it will be useful,
   but WITHOUT ANY WARRANTY; without even the implied warranty of
   MERCHANTABILITY or FITNESS FOR A PARTICULAR PURPOSE.  See the
   GNU Lesser General Public License for more details.
   
   Cite this work as:
   * C. Bannwarth, E. Caldeweyher, S. Ehlert, A. Hansen, P. Pracht,
     J. Seibert, S. Spicher, S. Grimme, WIREs Comput. Mol. Sci., 2020, 11,
     e01493. DOI: 10.1002/wcms.1493
   
   for GFN2-xTB:
   * C. Bannwarth, S. Ehlert and S. Grimme., J. Chem. Theory Comput., 2019,
     15, 1652-1671. DOI: 10.1021/acs.jctc.8b01176
   for GFN1-xTB:
   * S. Grimme, C. Bannwarth, P. Shushkov, J. Chem. Theory Comput., 2017,
     13, 1989-2009. DOI: 10.1021/acs.jctc.7b00118
   for GFN0-xTB:
   * P. Pracht, E. Caldeweyher, S. Ehlert, S. Grimme, ChemRxiv, 2019, preprint.
     DOI: 10.26434/chemrxiv.8326202.v1
   for GFN-FF:
   * S. Spicher and S. Grimme, Angew. Chem. Int. Ed., 2020, 59, 15665-15673.
     DOI: 10.1002/anie.202004239
   
   for ALPB and GBSA implicit solvation:
   * S. Ehlert, M. Stahn, S. Spicher, S. Grimme, J. Chem. Theory Comput.,
     2021, 17, 4250-4261. DOI: 10.1021/acs.jctc.1c00471
   
   for ddCOSMO and CPCM-X implicit solvation:
   * M. Stahn, S. Ehlert, S. Grimme, J. Phys. Chem. A,
     2023, XX, XXXX-XXXX. DOI: 10.1021/acs.jpca.3c04382
   
   for DFT-D4:
   * E. Caldeweyher, C. Bannwarth and S. Grimme, J. Chem. Phys., 2017,
     147, 034112. DOI: 10.1063/1.4993215
   * E. Caldeweyher, S. Ehlert, A. Hansen, H. Neugebauer, S. Spicher,
     C. Bannwarth and S. Grimme, J. Chem. Phys., 2019, 150, 154122.
     DOI: 10.1063/1.5090222
   * E. Caldeweyher, J.-M. Mewes, S. Ehlert and S. Grimme, Phys. Chem. Chem. Phys.
     2020, 22, 8499-8512. DOI: 10.1039/D0CP00502A
   
   for sTDA-xTB:
   * S. Grimme and C. Bannwarth, J. Chem. Phys., 2016, 145, 054103.
     DOI: 10.1063/1.4959605
   
   in the mass-spec context:
   * V. Asgeirsson, C. Bauer and S. Grimme, Chem. Sci., 2017, 8, 4879.
     DOI: 10.1039/c7sc00601b
   * J. Koopman and S. Grimme, ACS Omega 2019, 4, 12, 15120-15133.
     DOI: 10.1021/acsomega.9b02011
   
   for metadynamics refer to:
   * S. Grimme, J. Chem. Theory Comput., 2019, 155, 2847-2862
     DOI: 10.1021/acs.jctc.9b00143
   
   for SPH calculations refer to:
   * S. Spicher and S. Grimme, J. Chem. Theory Comput., 2021, 17, 1701-1714
     DOI: 10.1021/acs.jctc.0c01306
   
   for ONIOM refer to:
   * C. Plett, A. Katbashev, S. Ehlert, S. Grimme, M. Bursch,
     Phys. Chem. Chem. Phys., 2023, 25, 17860-17868. DOI: 10.1039/D3CP02178E
   
   for DIPRO refer to:
   * J. Kohn, N. Gildemeister, S. Grimme, D. Fazzi, A. Hansen,
     J. Chem. Phys., 2023, just accepted.
   
   for PTB refer to:
   * S. Grimme, M. Mueller, A. Hansen, J. Chem. Phys., 2023, 158, 124111.
     DOI: 10.1063/5.0137838
   
   with help from (in alphabetical order)
   P. Atkinson, C. Bannwarth, F. Bohle, G. Brandenburg, E. Caldeweyher
   M. Checinski, S. Dohm, S. Ehlert, S. Ehrlich, I. Gerasimov, C. Hﾃｶlzer
   A. Katbashev, J. Kohn, J. Koopman, C. Lavigne, S. Lehtola, F. Mﾃ､rz, M. Mﾃｼller,
   F. Musil, H. Neugebauer, J. Pisarek, C. Plett, P. Pracht, F. Pultar,
   J. Seibert, P. Shushkov, S. Spicher, M. Stahn, M. Steiner, T. Strunk,
   J. Stﾃｼckrath, T. Rose, and J. Unsleber
   
 * started run on 2026/10/03 at 08:19:22.521     
   ID    Z sym.   atoms
    1    1 H      1, 3, 6, 11, 12, 17, 19, 22, 24, 26-30, 39, 40, 42, 43, 45,
                  46, 48, 49, 52, 56, 57, 61, 62, 64, 65, 67, 68, 70, 71, 74,
                  78, 79, 82, 84, 87, 92, 93, 98, 100, 103, 105, 107-111
    2    6 C      2, 4, 5, 7-10, 13-16, 18, 20, 21, 23, 25, 38, 41, 44, 47,
                  50, 51, 53-55, 60, 63, 66, 69, 72, 73, 75-77, 83, 85, 86,
                  88-91, 94-97, 99, 101, 102, 104, 106
    3    7 N      31-34, 58, 80, 112-115
    4    8 O      35-37, 59, 81, 116-118

           -------------------------------------------------
          |                Calculation Setup                |
           -------------------------------------------------

          program call               : C:\ORCA_6.1.1\xtb-6.7.1pre\xtb.exe  D9\D9_pull_+0.5A_XTB2_SP_XTB.xyz --grad -c 0 -u 0 -P 4 --namespace D9\D9_pull_+0.5A_XTB2_SP --input D9\D9_pull_+0.5A_XTB2_SP_XTB.input.tmp --acc 1.000000      
          calculation namespace      : D9\D9_pull_+0.5A_XTB2_SP
          coordinate file            : D9\D9_pull_+0.5A_XTB2_SP_XTB.xyz
          omp threads                :                     4


molecular fragmentation (1/2 indicates fragments):
111111111111111111111111111111111111111111111111111111111112222222222222
2222222222222222222222222222222222222222222222
# atoms in fragment 1/2:    59    59
 fragment masses (1/2) :      459.50      459.50
CMA distance (Bohr)    :  23.238
constraining FC (au)   :  0.0500

           -------------------------------------------------
          |                 G F N 2 - x T B                 |
           -------------------------------------------------

        Reference                      10.1021/acs.jctc.8b01176
      * Hamiltonian:
        H0-scaling (s, p, d)           1.850000    2.230000    2.230000
        zeta-weighting                 0.500000
      * Dispersion:
        s8                             2.700000
        a1                             0.520000
        a2                             5.000000
        s9                             5.000000
      * Repulsion:
        kExp                           1.500000    1.000000
        rExp                           1.000000
      * Coulomb:
        alpha                          2.000000
        third order                    shell-resolved
        anisotropic                    true
        a3                             3.000000
        a5                             4.000000
        cn-shift                       1.200000
        cn-exp                         4.000000
        max-rad                        5.000000


          ...................................................
          :                      SETUP                      :
          :.................................................:
          :  # basis functions                 322          :
          :  # atomic orbitals                 322          :
          :  # shells                          186          :
          :  # electrons                       348          :
          :  max. iterations                   250          :
          :  Hamiltonian                  GFN2-xTB          :
          :  restarted?                      false          :
          :  GBSA solvation                  false          :
          :  PC potential                    false          :
          :  electronic temp.          300.0000000     K    :
          :  accuracy                    1.0000000          :
          :  -> integral cutoff          0.2500000E+02      :
          :  -> integral neglect         0.1000000E-07      :
          :  -> SCF convergence          0.1000000E-05 Eh   :
          :  -> wf. convergence          0.1000000E-03 e    :
          :  Broyden damping             0.4000000          :
          :  net charge                          0          :
          :  unpaired electrons                  0          :
          ...................................................

 iter      E             dE          RMSdq      gap      omega  full diag
   1   -197.4401691 -0.197440E+03  0.413E+00    2.90       0.0  T
   2   -197.9697919 -0.529623E+00  0.242E+00    2.68       1.0  T
   3   -198.0206288 -0.508369E-01  0.129E+00    3.15       1.0  T
   4   -198.0274453 -0.681652E-02  0.434E-01    2.91       1.0  T
   5   -198.0423453 -0.149000E-01  0.922E-02    2.96       1.0  T
   6   -198.0425550 -0.209673E-03  0.532E-02    2.98       1.0  T
   7   -198.0427220 -0.167005E-03  0.221E-02    3.00       1.0  T
   8   -198.0427289 -0.695869E-05  0.814E-03    3.00       1.1  T
   9   -198.0427314 -0.243065E-05  0.360E-03    3.00       2.6  T
  10   -198.0427315 -0.172378E-06  0.140E-03    3.00       6.6  T
  11   -198.0427316 -0.109857E-06  0.555E-04    3.00      16.6  T
  12   -198.0427317 -0.118760E-07  0.257E-04    3.00      35.9  T

   *** convergence criteria satisfied after 12 iterations ***

         #    Occupation            Energy/Eh            Energy/eV
      -------------------------------------------------------------
         1        2.0000           -0.7250155             -19.7287
       ...           ...                  ...                  ...
       168        2.0000           -0.3892741             -10.5927
       169        2.0000           -0.3843798             -10.4595
       170        2.0000           -0.3843043             -10.4575
       171        2.0000           -0.3833559             -10.4316
       172        2.0000           -0.3833313             -10.4310
       173        2.0000           -0.3805323             -10.3548
       174        2.0000           -0.3805321             -10.3548 (HOMO)
       175                         -0.2702196              -7.3531 (LUMO)
       176                         -0.2701980              -7.3525
       177                         -0.2419775              -6.5845
       178                         -0.2419737              -6.5844
       179                         -0.2353776              -6.4050
       ...                                ...                  ...
       322                          0.8651497              23.5419
      -------------------------------------------------------------
                  HL-Gap            0.1103125 Eh            3.0018 eV
             Fermi-level           -0.3253759 Eh           -8.8539 eV

 SCC (total)                   0 d,  0 h,  0 min,  0.332 sec
 SCC setup                      ...        0 min,  0.001 sec (  0.301%)
 Dispersion                     ...        0 min,  0.005 sec (  1.506%)
 classical contributions        ...        0 min,  0.000 sec (  0.000%)
 integral evaluation            ...        0 min,  0.017 sec (  5.120%)
 iterations                     ...        0 min,  0.198 sec ( 59.639%)
 molecular gradient             ...        0 min,  0.109 sec ( 32.831%)
 printout                       ...        0 min,  0.002 sec (  0.602%)

         :::::::::::::::::::::::::::::::::::::::::::::::::::::
         ::                     SUMMARY                     ::
         :::::::::::::::::::::::::::::::::::::::::::::::::::::
         :: total energy            -193.660428773151 Eh    ::
         :: gradient norm              1.318568260172 Eh/a0 ::
         :: HOMO-LUMO gap              3.001754592310 eV    ::
         ::.................................................::
         :: SCC energy              -198.043225686899 Eh    ::
         :: -> isotropic ES            0.296578305452 Eh    ::
         :: -> anisotropic ES          0.005957091894 Eh    ::
         :: -> anisotropic XC          0.036981552843 Eh    ::
         :: -> dispersion             -0.140961732702 Eh    ::
         :: repulsion energy           4.382796913748 Eh    ::
         :: add. restraining           0.000000000000 Eh    ::
         :: total charge               0.000000000000 e     ::
         :::::::::::::::::::::::::::::::::::::::::::::::::::::


Property printout bound to 'properties.out'
#
# Number of atoms
#
       118
#
# The current total energy in Eh
#
   -193.660428773151
#
# The current gradient in Eh/bohr
#
      -0.125146684559
       0.054291413368
       0.085513393181
       0.062418201180
      -0.119523944862
       0.033292224962
      -0.071968489635
       0.138781378905
      -0.038072489236
       0.007267637631
       0.004363488232
      -0.015647370016
       0.081775739931
       0.075759536895
       0.030943040612
      -0.108464253778
       0.030407376393
      -0.034842714924
      -0.000457069216
      -0.003480683200
      -0.003227377354
      -0.004545078808
       0.017012552138
       0.015170133821
       0.003069431563
      -0.006540698139
      -0.004673528722
      -0.056729322480
       0.073332425533
       0.061461261745
       0.104920004535
      -0.036385334801
       0.026111633618
      -0.032225773015
      -0.037028249986
      -0.102375588275
       0.001892624928
       0.014142303719
      -0.013995969969
       0.004786156561
      -0.031471660816
       0.018171245311
       0.004503749255
      -0.019456615444
      -0.008487701974
       0.085753234211
       0.112951348656
      -0.001715684309
      -0.095871554396
      -0.127992405551
       0.000488659443
       0.111487756460
       0.002893975358
      -0.085997266871
      -0.129518848567
      -0.010023231745
       0.096488627778
       0.003460639184
       0.013573571883
       0.008434346832
      -0.080995061996
      -0.114856753416
       0.000940938541
       0.092479769845
       0.132139510525
      -0.001238095627
      -0.113711985338
      -0.010652379589
       0.084544557868
       0.125904273691
       0.006384668850
      -0.098756909550
       0.073227133264
       0.003732044742
      -0.077051287304
       0.010052922082
       0.107551429494
       0.068587892474
       0.023845460406
      -0.107329081811
       0.074469380887
      -0.118274457334
      -0.007947645612
      -0.059071212240
       0.063042844027
      -0.014661797231
      -0.185669321915
      -0.148820860740
       0.273436374778
       0.117376531097
      -0.002691815854
       0.000949074880
       0.005065222233
       0.000350037444
       0.014725012855
      -0.009091780624
      -0.005152953872
      -0.015596670708
       0.021723486788
       0.082476487212
      -0.233646829793
       0.055528126485
      -0.001250217232
       0.002045454771
       0.005367076660
      -0.000258546444
       0.000043534433
      -0.003929557748
       0.009320512161
       0.004229294197
      -0.007641217014
      -0.096070625549
      -0.014183039944
      -0.030403476441
       0.081140467471
      -0.076432121237
      -0.039398034069
       0.047869873372
       0.103601839975
       0.025980300404
      -0.026486779611
      -0.016430140706
      -0.068916865420
      -0.055317546684
       0.086717500921
       0.055923515065
       0.082566742118
      -0.045439152732
       0.068546881398
      -0.000039540178
       0.072277990329
      -0.044716362075
      -0.055872313181
      -0.029911250014
       0.096073585725
       0.055286921148
      -0.092577516487
      -0.045319011401
       0.099346989772
       0.025025695362
      -0.013482777655
      -0.076665396846
       0.070809156230
       0.051572310627
      -0.054801002220
      -0.089094064745
      -0.048373048504
      -0.004595875272
       0.006967177482
      -0.024013542176
      -0.062695930966
       0.122804392296
      -0.032629366252
       0.071859454405
      -0.138451409228
       0.037446642751
      -0.004080494785
      -0.007817660918
       0.010450436798
       0.107656733001
      -0.049152104642
      -0.072574400068
      -0.113875287778
       0.045066219713
       0.072470687660
       0.128232877148
      -0.052186024470
      -0.082408417903
       0.011991108151
      -0.111804468148
       0.016693469778
       0.001081389118
       0.003969403182
      -0.001315508599
       0.006421290281
       0.000172285196
       0.010223845828
       0.096070601677
       0.014183055498
       0.030403496300
      -0.081140459330
       0.076432118194
       0.039398032395
      -0.047869876679
      -0.103601844112
      -0.025980296313
       0.026486777620
       0.016430136925
       0.068916858537
       0.055317539913
      -0.086717494523
      -0.055923512620
      -0.082566733554
       0.045439145459
      -0.068546874316
       0.000039525620
      -0.072277997854
       0.044716381328
       0.055872320064
       0.029911247754
      -0.096073594412
      -0.055286917873
       0.092577515913
       0.045319008921
      -0.099347012179
      -0.025025745619
       0.013482805466
       0.076665387893
      -0.070809138100
      -0.051572298507
       0.054801025419
       0.089094071652
       0.048373026067
       0.004595894359
      -0.006967142577
       0.024013409904
       0.062695986399
      -0.122804388397
       0.032629215716
      -0.071859453174
       0.138451406233
      -0.037446636467
       0.004080441453
       0.007817520814
      -0.010450282610
      -0.107656775165
       0.049152208840
       0.072574294094
       0.113875333179
      -0.045066320544
      -0.072470634590
      -0.128232875164
       0.052186032138
       0.082408425056
      -0.011991101262
       0.111804480252
      -0.016693478018
      -0.001081269044
      -0.003969278747
       0.001315507806
      -0.006421332966
      -0.000172304559
      -0.010223816385
       0.125146686601
      -0.054291417599
      -0.085513391075
      -0.062418313467
       0.119523930699
      -0.033292116400
       0.071968497514
      -0.138781361984
       0.038072493407
      -0.007267581156
      -0.004363427778
       0.015647327990
      -0.081775755469
      -0.075759564354
      -0.030943060706
       0.108464253818
      -0.030407373645
       0.034842717789
       0.000457099995
       0.003480810301
       0.003227260975
       0.004544904749
      -0.017012503930
      -0.015169990907
      -0.003069391469
       0.006540579451
       0.004673472873
       0.056729358471
      -0.073332343983
      -0.061461250492
      -0.104920021142
       0.036385337898
      -0.026111643084
       0.032225767780
       0.037028249716
       0.102375598452
      -0.001892539234
      -0.014142215021
       0.013996024998
      -0.004786128768
       0.031471633714
      -0.018171203880
      -0.004503717460
       0.019456732654
       0.008487754370
      -0.085753223658
      -0.112951338016
       0.001715655147
       0.095871558078
       0.127992403551
      -0.000488659439
      -0.111487771887
      -0.002893972034
       0.085997271756
       0.129518852582
       0.010023226766
      -0.096488639089
      -0.003460632980
      -0.013573558061
      -0.008434338367
       0.080995067434
       0.114856818682
      -0.000940891251
      -0.092479767652
      -0.132139539276
       0.001238093413
       0.113711977504
       0.010652260741
      -0.084544576576
      -0.125904310828
      -0.006384641473
       0.098756908936
      -0.073227137680
      -0.003732047626
       0.077051293811
      -0.010052922208
      -0.107551430682
      -0.068587892294
      -0.023845461042
       0.107329085131
      -0.074469382734
       0.118274458705
       0.007947646119
       0.059071210862
      -0.063042864548
       0.014661803659
       0.185669327034
       0.148820878828
      -0.273436383541
      -0.117376533894
       0.002691753434
      -0.000949198025
      -0.005065110082
      -0.000349966000
      -0.014725098693
       0.009091626639
       0.005152917780
       0.015596624298
      -0.021723539004
      -0.082476522412
       0.233646850764
      -0.055528154564
       0.001250275185
      -0.002045534183
      -0.005367045078
       0.000258515054
      -0.000043524178
       0.003929574027
      -0.009320516881
      -0.004229300012
       0.007641196949
#
# The atomic numbers and current coordinates in Bohr
#
   1    43.1604586   78.2515582   70.4834824
   6    40.9351014   77.4668192   73.4514114
   1    41.7179003   75.9522729   73.8786291
   6    38.9098143   78.3135525   74.8371188
   6    38.5105083   78.1422179   79.5038103
   1    40.2053923   77.7467094   80.0772988
   6    37.6370641   74.4034597   76.8150444
   6    37.2368841   73.1829289   79.2814312
   6    36.6134102   74.4489745   81.4421953
   6    36.6226606   77.2620023   81.4728170
   1    34.9508353   77.9036572   81.0791941
   1    37.1057468   77.8748834   83.1305524
   6    36.0792887   72.5608925   83.2039850
   6    35.1891918   72.8889134   85.8347778
   6    37.6461960   68.5464293   78.2078870
   6    39.7229025   68.6366743   76.6438006
   1    40.7705083   70.0484197   76.6553953
   6    40.2505162   66.6355898   75.0621736
   1    41.6497094   66.6975842   74.0034944
   6    38.7077731   64.5479224   75.0526601
   6    36.6681156   64.4359663   76.6854224
   1    35.6584754   62.9988476   76.7208009
   6    36.1250986   66.4255413   78.2509953
   1    34.7426214   66.3496832   79.3340530
   6    40.9217217   62.7181726   71.6203511
   1    40.8886785   61.2410323   70.5667259
   1    40.6240250   64.1916509   70.6053747
   1    42.5458029   62.8523630   72.4188944
   1    34.7622314   70.9037852   88.8475988
   1    35.9698693   69.5618815   86.7605647
   7    38.0788104   76.9428751   77.0261262
   7    37.0677592   70.6579004   79.7862437
   7    36.3856213   70.2561140   82.2104141
   7    35.2648507   70.8365593   87.2826205
   8    37.4232773   73.3254898   74.8011457
   8    34.3898587   74.9365590   86.5242125
   8    39.0181325   62.5230342   73.4930332
   6    40.0031552   83.0659320   66.6183071
   1    38.6913632   84.2312694   67.1537414
   1    39.1889076   81.4925303   66.1488731
   6    41.2647939   84.1161744   64.3817320
   1    42.0952652   82.7533443   63.4761613
   1    39.9986925   84.8329027   63.2680525
   6    43.1479586   86.0754061   64.9861394
   1    44.0126330   86.5776391   63.4494045
   1    42.2907910   87.5507154   65.6583309
   6    45.0428286   85.1630162   66.8650647
   1    46.2779685   84.1344849   65.9853590
   1    45.9258289   86.6168760   67.5461751
   6    44.0044486   83.6555326   69.0264234
   6    38.6438562   81.9521257   72.1739206
   1    37.8654845   83.4700726   71.7470002
   6    40.6982403   81.1171634   70.8084295
   6    41.8089041   78.8508372   71.4339451
   6    37.7380442   80.5416882   74.1714679
   1    36.3338648   81.0975450   75.0707953
   1    38.3859465   79.9622892   79.3221611
   7    41.6991226   82.5880259   68.7609360
   8    45.2417766   83.3881981   70.9710516
   6    49.3973858   46.8821017   82.0070046
   1    50.7091778   45.7167642   81.4715703
   1    50.2116334   48.4555034   82.4764386
   6    48.1357471   45.8318593   84.2435797
   1    47.3052758   47.1946894   85.1491504
   1    49.4018485   45.1151310   85.3572592
   6    46.2525824   43.8726276   83.6391723
   1    45.3879080   43.3703946   85.1759072
   1    47.1097500   42.3973182   82.9669808
   6    44.3577124   44.7850175   81.7602470
   1    43.1225725   45.8135487   82.6399527
   1    43.4747121   43.3311576   81.0791366
   6    45.3960924   46.2925011   79.5988883
   6    50.7566848   47.9959079   76.4513911
   1    51.5350565   46.4779611   76.8783115
   6    48.7023007   48.8308702   77.8168822
   6    47.5916369   51.0971965   77.1913666
   6    51.6624968   49.4063455   74.4538438
   1    53.0666762   48.8504887   73.5545164
   1    51.0145945   49.9857444   69.3031507
   7    47.7014184   47.3600077   79.8643757
   8    44.1587644   46.5598355   77.6542601
   1    46.2400824   51.6964755   78.1418293
   6    48.4654396   52.4812145   75.1739003
   1    47.6826407   53.9957608   74.7466827
   6    50.4907267   51.6344811   73.7881929
   6    50.8900327   51.8058158   69.1215014
   1    49.1951487   52.2013242   68.5480130
   6    51.7634769   55.5445740   71.8102673
   6    52.1636569   56.7651047   69.3438805
   6    52.7871308   55.4990591   67.1831164
   6    52.7778804   52.6860314   67.1524947
   1    54.4497056   52.0443764   67.5461177
   1    52.2947942   52.0731502   65.4947594
   6    53.3212523   57.3871412   65.4213267
   6    54.2113491   57.0591203   62.7905340
   6    51.7543450   61.4016044   70.4174247
   6    49.6776385   61.3113594   71.9815111
   1    48.6300327   59.8996139   71.9699165
   6    49.1500248   63.3124439   73.5631381
   1    47.7508316   63.2504495   74.6218174
   6    50.6927679   65.4001112   73.5726516
   6    52.7324254   65.5120673   71.9398893
   1    53.7420656   66.9491860   71.9045108
   6    53.2754424   63.5224923   70.3743165
   1    54.6579196   63.5983505   69.2912587
   6    48.4788193   67.2298610   77.0049606
   1    48.5118625   68.7070014   78.0585858
   1    48.7765160   65.7563827   78.0199370
   1    46.8547381   67.0956706   76.2064173
   1    54.6383096   59.0442484   59.7777129
   1    53.4306717   60.3861521   61.8647470
   7    51.3217306   53.0051586   71.5991855
   7    52.3327818   59.2901333   68.8390680
   7    53.0149197   59.6919197   66.4148976
   7    54.1356903   59.1114744   61.3426912
   8    51.9772637   56.6225438   73.8241660
   8    55.0106823   55.0114746   62.1010992
   8    50.3824085   67.4249994   75.1322785

           -------------------------------------------------
          | TOTAL ENERGY             -193.660428773151 Eh   |
          | GRADIENT NORM               1.318568260172 Eh/ﾎｱ |
          | HOMO-LUMO GAP               3.001754592310 eV   |
           -------------------------------------------------

------------------------------------------------------------------------
 * finished run on 2026/10/03 at 08:19:22.929     
------------------------------------------------------------------------
 total:
 * wall-time:     0 d,  0 h,  0 min,  0.405 sec
 *  cpu-time:     0 d,  0 h,  0 min,  1.609 sec
 * ratio c/w:     3.974 speedup
 SCF:
 * wall-time:     0 d,  0 h,  0 min,  0.335 sec
 *  cpu-time:     0 d,  0 h,  0 min,  1.312 sec
 * ratio c/w:     3.918 speedup


-------------------------   --------------------
FINAL SINGLE POINT ENERGY      -193.660428773150
-------------------------   --------------------


-------------
DIPOLE MOMENT
-------------
                                X             Y             Z
Total Dipole Moment    :      0.00000      -0.00000       0.00000
                        -----------------------------------------
Magnitude (a.u.)       :      0.00000
Magnitude (Debye)      :      0.00000


--------------------------------
SUGGESTED CITATIONS FOR THIS RUN
--------------------------------

Below you find a list of papers that are relevant to this ORCA run
We neither can nor want to force you to cite these papers, but we appreciate if you do
You receive ORCA, which is the product of decades of hard work by many enthusiastic individuals, for free
The only thing we kindly ask in return is that you cite our papers,
We deeply appreciate it, if you show your appreciation for ORCA by not just citing the generic ORCA reference.

Please note that relegating all ORCA citations to the supporting information does *not* help us.
SI sections are not indexed - citations you put there will not count into any citation statistics
But we need these citations in order to attract the funding resources that allow us to do what we are doing

Therefore, if you are a happy ORCA user, please consider citing a few of the papers listed below in the main body of your paper

In addition to the list printed below, the program has created the file D9\D9_pull_+0.5A_XTB2_SP.bibtex that contains the list in bibtex format
You can import this file easily into all common literature databanks and citation aid programs

It goes without saying that in many instances, there are alternative algorithms to achieve similar
results as the ones you have gotten from ORCA. It is, of course, also the case that in some instances
ORCA just re-implements algorithms worked out by others. We are fully aware of that and we are also
fully appreciative of our colleagues work. Hence this citation list should not be read as indicating
that the listed papers, which are focused on our own work, are the only ones worth citing. It simply
meant to make it easier for users to cite ORCA specific papers. It is not a substitute for doing your
own literature research and citing the relevant literature in a scientifically appropriate manner.

List of essential papers. We consider these as the minimum necessary citations

  1. Bannwarth, C.; Ehlert, S.; Grimme, S.
     GFN2-xTB窶尿n Accurate and Broadly Parametrized Self-Consistent Tight-Binding Quantum Chemical Method with Multipole Electrostatics and Density-Dependent Dispersion Contributions
     J. Chem. Theory Comput. 2019 15(3), 1652-1671
     doi.org/10.1021/acs.jctc.8b01176
  2. Neese, F.
     Software update: the ORCA program system, version 6.0
     WIRES Comput. Molec. Sci. 2025 15(1), e70019
     doi.org/10.1002/wcms.70019

List of papers to cite with high priority. The work reported in these papers was absolutely
necessary for this run to complete.
Our perspective: the developers of density functionals and basis sets usually get cited in chemistry papers
Good! But without the algorithms to do something with them, the functionals or basis sets would not do anything.
Hence, in our opinion, the algorithm design and method developments papers are equally worthy of getting cited

  1. Bannwarth, C.; Caldeweyher, E.; Ehlert, S.; Hansen, A.; Pracht, P.; Seibert, J.; Spicher, S.; Grimme, S.
     Extended tight-binding quantum chemistry methods
     WIRES Comput. Molec. Sci. 2020 11(2), e1493
     doi.org/10.1002/wcms.1493

List of suggested additional citations. These are papers that are important in the 'surrounding' of 
of this run, or papers that preceded the highly important papers. If you like your results we are grateful for a citation.

  1. Neese, F.
     The ORCA program system
     WIRES Comput. Molec. Sci. 2012 2(1), 73-78
     doi.org/10.1002/wcms.81
  2. Neese, F.
     Software update: the ORCA program system, version 4.0
     WIRES Comput. Molec. Sci. 2018 8(1), 1-6
     doi.org/10.1002/wcms.1327
  3. Neese, F.; Wennmohs, F.; Becker, U.; Riplinger, C.
     The ORCA quantum chemistry program package
     J. Chem. Phys. 2020 152(22), 224108
     doi.org/10.1063/5.0004608
  4. Neese, F.
     Software update: The ORCA program system窶之ersion 5.0
     WIRES Comput. Molec. Sci. 2022 12(1), e1606
     doi.org/10.1002/wcms.1606

List of optional additional citations

  1. Neese, F.
     Approximate second-order SCF convergence for spin unrestricted wavefunctions
     Chem. Phys. Lett. 2000 325(1-3), 93-98
     doi.org/10.1016/s0009-2614(00)00662-x

Timings for individual modules:

Sum of individual times          ...        0.480 sec (=   0.008 min)
XTB module                       ...        0.480 sec (=   0.008 min) 100.0 %
                             ****ORCA TERMINATED NORMALLY****
TOTAL RUN TIME: 0 days 0 hours 0 minutes 0 seconds 993 msec
