120
Coordinates from ORCA-job 10DMF_XTB E -169.949532461560
  C          31.02771546145108    -26.84328007508177     -5.37786507098045
  O          32.01039315516715    -27.22670374068665     -5.99263322870598
  H          31.08505333801735    -26.02560820447563     -4.64401626044571
  N          29.79488859327547    -27.32509505587165     -5.51720139008076
  C          28.67951272631889    -26.82412811295651     -4.75908234303407
  C          29.52645870326687    -28.43307628206601     -6.40149700118020
  H          28.99544493323880    -25.96158408872522     -4.17765805078020
  H          27.88020733803763    -26.51576596682944     -5.43777964311465
  H          28.29607397203816    -27.59800581668152     -4.08960950175271
  H          28.72571466747069    -28.17204224577772     -7.09568334575745
  H          29.23150122460682    -29.30863219811308     -5.81992603315129
  H          30.43673562012233    -28.65514633521249     -6.95486780594635
  C          29.84395990435496    -23.69232540562520     -2.23917588885651
  O          30.36255734743484    -24.15815087537167     -3.24259062075953
  H          29.69925975578421    -22.60631869011422     -2.11505340333124
  N          29.42198977289178    -24.39298292975018     -1.19215038384769
  C          28.74391593390914    -23.78843263435434     -0.07451769833251
  C          29.46649561851449    -25.83649582266557     -1.20029287668618
  H          28.69660416839641    -22.70989497427620     -0.21723060888776
  H          27.73017920568633    -24.19566330713403     -0.01094765150738
  H          29.27843591525248    -24.01564779631870      0.85003898843563
  H          28.45013049095648    -26.23031467165562     -1.28838602277005
  H          29.92785239587404    -26.21108580948968     -0.28537086100042
  H          30.05562299944843    -26.15159629307596     -2.05871924014454
  C          28.77089914746863    -19.56445696524499     -1.67931623742761
  O          28.69890931490856    -20.63565772686693     -1.10106494029056
  H          27.92938351169526    -19.17570395629156     -2.27397573158145
  N          29.82459530180154    -18.75432693864889     -1.67829939612211
  C          29.83140492898907    -17.48424664208601     -2.35649797210304
  C          31.01790276403757    -19.08633556418075     -0.92918732723038
  H          28.91282198180557    -17.35233340715062     -2.92688980830972
  H          29.92799648343161    -16.67505474709257     -1.62735291911894
  H          30.67978034105888    -17.43337676940681     -3.04168222940704
  H          31.13125551927844    -18.40983192433617     -0.07594300726353
  H          31.89576741335983    -19.00461671178264     -1.57213658293956
  H          30.92491704830486    -20.11119508115227     -0.57174479387165
  C          26.05527120495376    -17.88175072377974     -3.50193465423271
  O          27.02603396947135    -17.32590887827311     -3.97810617693279
  H          25.60305330193967    -18.77278519109020     -3.97184858462644
  N          25.42013986443928    -17.51267029738065     -2.39042347221860
  C          24.34157801477756    -18.26363857595137     -1.80577482071086
  C          25.87913111058842    -16.38046425594905     -1.62037606303322
  H          24.12422733570703    -19.13719381037196     -2.41375656425008
  H          24.62825449272549    -18.58346630871949     -0.80041393348367
  H          23.44393420239962    -17.64349553613654     -1.73612349558971
  H          26.71736242353710    -15.92680778226574     -2.14509639999641
  H          26.18746652198973    -16.72079782734327     -0.62938243802280
  H          25.07408360241383    -15.64858216178228     -1.51670844050432
  C          27.38894308035725    -18.82859786283475      1.09851379547545
  O          26.25780698439612    -18.48627170322270      0.79886763399545
  H          28.26014277070801    -18.19763036883425      0.86602096392835
  N          27.71853428013706    -19.93717281851869      1.75173341402099
  C          29.08544591174234    -20.26741645861208      2.05874689580098
  C          26.72437265023747    -20.94129502250554      2.03924771016144
  H          29.70968901804513    -19.37887042806795      1.97786879038312
  H          29.14434514833475    -20.65412097771948      3.07755834061212
  H          29.45449830562989    -21.02951192306980      1.36872184835606
  H          25.74772858802961    -20.52793813723620      1.79706828856790
  H          26.75815080544816    -21.21205649403389      3.09594335556195
  H          26.90062558395795    -21.83242547580256      1.43291978030848
  C          29.69438230519316    -16.01884596757039      1.44056873318846
  O          30.32319423739565    -17.03567272168878      1.65787685726787
  H          29.96146177308456    -15.33102204469606      0.61637311169334
  N          28.63413427984357    -15.59662077079282      2.12975630941550
  C          27.87105749413234    -14.43364951425359      1.75967865475337
  C          28.14129325725713    -16.35077799521702      3.26122735621466
  H          26.85000870276445    -14.72550378688070      1.50148845198303
  H          27.83296147510654    -13.72443718714726      2.59171743715234
  H          28.32539825832494    -13.94426816878745      0.90099548463539
  H          27.16882603136287    -16.79316495108464      3.03276394487045
  H          28.04321542376769    -15.69541476511155      4.12867995513869
  H          28.85405730642655    -17.14156370711882      3.48199441182332
  C          26.49703455221200    -24.28850614108872     -2.87592115910955
  O          26.36640976506384    -24.97254107406845     -1.87804992038436
  H          26.81227535553741    -24.71444262622916     -3.84087569114441
  N          26.27184753145064    -22.97373631236287     -2.94678713197182
  C          26.49106846652034    -22.20898678736017     -4.14445554267028
  C          25.84286657934340    -22.23724115914114     -1.78305616100604
  H          26.80389031477023    -22.86257631246461     -4.95848684247619
  H          25.56920861740767    -21.69889735083222     -4.43817748618084
  H          27.26420237835740    -21.45594220455545     -3.97149599656835
  H          25.61753813101214    -22.95388234274013     -0.99462929452298
  H          24.94207690972188    -21.66619385657426     -2.01802280028640
  H          26.62724858590575    -21.55513146014983     -1.44714362583966
  C          30.77016061939629    -29.14019045716498     -3.10199259940064
  O          29.91462752407829    -29.90869661813117     -3.50306905703170
  H          30.54633649674862    -28.36380960848453     -2.35251469758165
  N          32.05083587667279    -29.14311384553395     -3.46605950473708
  C          33.00076653153885    -28.17964008186258     -2.97515488059198
  C          32.51924684741463    -30.02681258188095     -4.50768865256909
  H          32.54331686823520    -27.56569706333659     -2.20116279604407
  H          33.86701565635789    -28.69523616348845     -2.55205749480880
  H          33.33830322023216    -27.53962676388516     -3.79401823667218
  H          33.37877793228575    -30.60063429311552     -4.15615598720927
  H          32.80572900534610    -29.44049235664080     -5.38325910456667
  H          31.70811779860189    -30.70210821860151     -4.76956713260255
  C          29.09811970033147    -23.79857698903093     -6.17485099945007
  O          27.94115716326539    -24.05217075722417     -6.46258152055895
  H          29.36431637907486    -23.26500809923890     -5.25084007103124
  N          30.16690166179551    -24.12099256230408     -6.90316683763614
  C          31.50462494867353    -23.77348121340167     -6.50132916001752
  C          30.02621367888369    -24.83169070623312     -8.15054122503139
  H          31.89410414989214    -22.95622931936615     -7.12072974044395
  H          31.50104037896935    -23.46945087911658     -5.45495877485965
  H          32.15915288920404    -24.64053996816867     -6.61293977403238
  H          28.97073066086105    -25.05093989245118     -8.29698691140604
  H          30.59529282006082    -25.76093151157451     -8.11806495570049
  H          30.38918821776437    -24.22208740908090     -8.98155907125765
  C          30.76602159814906    -29.52816401645659      0.18828189360226
  O          30.74825127542353    -28.35258420405965      0.48904416193430
  H          31.68189192554951    -30.14247295632648      0.29280674164132
  N          29.73282722276079    -30.23364704967652     -0.27537259332902
  C          29.85123574409210    -31.59682041587920     -0.71948983592055
  C          28.45857837691495    -29.59960841539880     -0.52564657887360
  H          30.84048398219676    -31.98456243129213     -0.47678463001764
  H          29.09631353611812    -32.21492657925865     -0.22967260930641
  H          29.69998055669139    -31.64588120059677     -1.80192558163640
  H          27.66548386077624    -30.14222017371248     -0.00999560270952
  H          28.25107813842263    -29.59287989194814     -1.59748498056482
  H          28.50457285563646    -28.57866331210994     -0.15371914084140
