
                                 *****************
                                 * O   R   C   A *
                                 *****************

                                            #,                                       
                                            ###                                      
                                            ####                                     
                                            #####                                    
                                            ######                                   
                                           ########,                                 
                                     ,,################,,,,,                         
                               ,,#################################,,                 
                          ,,##########################################,,             
                       ,#########################################, ''#####,          
                    ,#############################################,,   '####,        
                  ,##################################################,,,,####,       
                ,###########''''           ''''###############################       
              ,#####''   ,,,,##########,,,,          '''####'''          '####       
            ,##' ,,,,###########################,,,                        '##       
           ' ,,###''''                  '''############,,,                           
         ,,##''                                '''############,,,,        ,,,,,,###''
      ,#''                                            '''#######################'''  
     '                                                          ''''####''''         
             ,#######,   #######,   ,#######,      ##                                
            ,#'     '#,  ##    ##  ,#'     '#,    #''#        ,####,    ,#,          
            ##       ##  ##   ,#'  ##            #'  '#       #'       ,# #          
            ##       ##  #######   ##           ,######,      #####,      #          
            '#,     ,#'  ##    ##  '#,     ,#' ,#      #,     #,   #      #          
             '#######'   ##     ##  '#######'  #'      '#     '####' #    #          



                #########################################################
                #                        -***-                          #
                #          Department of theory and spectroscopy        #
                #                                                       #
                #                      Frank Neese                      #
                #                                                       #
                #     Directorship, Architecture, Infrastructure        #
                #                    SHARK, DRIVERS                     #
                #        Core code/Algorithms in most modules           #
                #                                                       #
                #        Max Planck Institute fuer Kohlenforschung      #
                #                Kaiser Wilhelm Platz 1                 #
                #                 D-45470 Muelheim/Ruhr                 #
                #                      Germany                          #
                #                                                       #
                #                  All rights reserved                  #
                #                        -***-                          #
                #########################################################


                         Program Version 6.1.1  -  RELEASE   -


 With contributions from (in alphabetic order):
[Max-Planck-Institut fuer Kohlenforschung]                               
  Daniel Aravena         : Magnetic Suceptibility                        
  Michael Atanasov       : Ab Initio Ligand Field Theory (pilot matlab implementation)
  Alexander A. Auer      : GIAO ZORA, VPT2 properties, NMR spectrum      
  Ute Becker             : All parallelization in ORCA, NUMFREQ, NUMCALC 
  Giovanni Bistoni       : ED, misc. LED, open-shell LED, HFLD           
  Dmytro Bykov           : pre 5.0 version of the SCF Hessian            
  Marcos Casanova-Pﾃ｡ez   : Triplet and SCS-CIS(D). UHF-(DLPNO)-IP/EA/STEOM-CCSD. UHF-CVS-IP/STEOM-CCSD   
  Vijay G. Chilkuri      : MRCI spin determinant printing, contributions to CSF-ICE 
  Pauline Colinet        : FMM embedding                                 
  Dipayan Datta          : RHF DLPNO-CCSD density                        
  Achintya Kumar Dutta   : EOM-CC, STEOM-CC                              
  Nicolas Foglia         : Exact transition moments, OPA infrastructure, MCD improvements    
  Dmitry Ganyushin       : Spin-Orbit,Spin-Spin,Magnetic field MRCI      
  Miquel Garcia-Rates    : C-PCM and meta-GGA Hessian, CCSD/C-PCM, Gaussian charge scheme 
  Tiago L. C. Gouveia    : GS-ROHF, GS-ROCIS                             
  Yang Guo               : DLPNO-NEVPT2, F12-NEVPT2, CIM, IAO-localization        
  Andreas Hansen         : Spin unrestricted coupled pair/coupled cluster methods 
  Ingolf Harden          : AUTO-CI MPn and infrastructure                
  Benjamin Helmich-Paris : MC-RPA, TRAH-(SCF,CASSCF), AVAS, COSX integrals, SCF dyn. polar., MC-PDFT, srDFT 
  Lee Huntington         : MR-EOM, pCC                                   
  Robert Izsak           : Overlap fitted RIJCOSX, COSX-SCS-MP3, EOM     
  Riya Kayal             : Wick's Theorem for AUTO-CI, AUTO-CI UHF-CCSDT 
  Emily Kempfer          : AUTO-CI RHF CISDT and CCSDT, approximate NEVPT4
  Christian Kollmar      : KDIIS, OOCD, Brueckner-CCSD(T), CCSD density, CASPT2, CASPT2-K, improved NEVPT2 
  Axel Koslowski         : Symmetry handling                             
  Simone Kossmann        : meta-GGA functionals, TD-DFT gradient, OOMP2, (MP2 Hessian; deprecated post 5.0) 
  Lucas Lang             : DCDCAS, Hyperfine gauge corrections, ICE-SOC+SSC
  Marvin Lechner         : AUTO-CI (C++ implementation), FIC-MRCC        
  Spencer Leger          : CASSCF response                               
  Dagmar Lenk            : GEPOL surface, SMD, ORCA-2-JSON               
  Dimitrios Liakos       : Extrapolation schemes; Compound Job, Property file
  Dimitrios Manganas     : Further ROCIS development; embedding schemes. LFT, Crystal Embedding 
  Dimitrios Pantazis     : SARC Basis sets                               
  Anastasios Papadopoulos: AUTO-CI, single reference methods and gradients 
  Taras Petrenko         : pre 6.0 DFT Hessian and TD-DFT gradient,  ECA, NRVS 
  Petra Pikulova         : Analytic Raman intensities                    
  Peter Pinski           : DLPNO-MP2, DLPNO-MP2 Gradient                 
  Shashank Vittal Rao    : ES-AILFT, MagRelax                            
  Christoph Reimann      : Effective Core Potentials                     
  Marius Retegan         : Local ZFS, SOC                                
  Christoph Riplinger    : Optimizer, TS searches, QM/MM, DLPNO-CCSD(T), (RO)-DLPNO pert. Triples 
  Michael Roemelt        : Original ROCIS implementation, recursive CI coupling coefficients
  Masaaki Saitow         : Open-shell DLPNO-CCSD energy and density      
  Barbara Sandhoefer     : DKH picture change effects                    
  Yorick L. A. Schmerwitz: GMF and freeze-and-release deltaSCF, NEB S-IDPP initial path                    
  Kantharuban Sivalingam : CASSCF convergence/infrastructure, NEVPT2, NEVPT3, NEVPT4(SD), FIC-MRCI and CEPA variants
  Bernardo de Souza      : ESD, SOC TD-DFT                               
  Georgi L. Stoychev     : AutoAux, RI-MP2 NMR, DLPNO-MP2 response, X2C  
  Van Anh Tran           : RI-MP2 g-tensors                              
  Willem Van den Heuvel  : Paramagnetic NMR                              
  Zikuan Wang            : NOTCH, Electric field optimization            
  Frank Wennmohs         : Technical directorship and infrastructure     
  Hang Xu                : AUTO-CI-Response properties                   
                                                                         
[FACCTs GmbH]                                                            
  Markus Bursch, Nicolas Foglia, Miquel Garcia-Rates, Ingolf Harden, Hagen Neugebauer, Anastasios Papadopoulos, 
  Christoph Riplinger, Bernardo de Souza, Georgi L. Stoychev                                                    
                                                                 
  APM, various basis sets, CI-OPT, improved COSX, DLPNO-Multilevel,           
  DOCKER, DRACO, updates on ESD, Fragmentator, GOAT, IRC, LR-CPCM, L-BFGS, MBIS, meta-GGA TD-DFT gradient, ML-optimized integration grids, 
  MM, NACMEs, nearIR, NEB, NEB-TS, NL-DFT gradient (VV10), 2- and 3-layer-ONIOM, interface openCOSMO-RS, QMMM,   
  Crystal-QMMM, RESP, rigid body optimization, SF, symmetry and pop. for TD-DFT, various functionals, SOLVATOR                                   
                                                                         
[Other institutions]                                                     
  V. Asgeirsson          : NEB                                           
  Christoph Bannwarth    : sTDA-DFT, sTD-DFT, PBEh-3c, B97-3c, D3        
  Giovanni Bistoni       : ETS/NOCV, ADLD/ADEX, COVALED                  
  Martin Brehm           : Molecular dynamics                            
  Ronald Cardenas        : ETS/NOCV                                      
  Martina Colucci        : COVALED                                       
  Sebastian Ehlert       : rSCAN, r2SCAN, r2SCAN-3c, D4, dhf basis sets  
  Marvin Friede          : D4 for Fr, Ra, Ac-Lr                          
  Lars Goerigk           : TD-DFT with DH, B97 family of functionals     
  Stefan Grimme          : VdW corrections, initial TS optimization, DFT functionals, gCP, sTDA/sTD-DF 
  Waldemar Hujo          : DFT-NL                                        
  H. Jonsson             : NEB                                           
  Holger Kruse           : gCP                                           
  Marcel Mueller         : wB97X-3c, vDZP basis set                      
  Hagen Neugebauer       : wr2SCAN, Native XTB                           
  Gianluca Regni         : ADLD/ADEX                                     
  Tobias Risthaus        : pre 6.0 range-separated hybrid DFT and stability analysis
  Lukas Wittmann         : regularized MP2, r2SCAN double-hybrids, wr2SCAN        
                                                                         
We gratefully acknowledge several colleagues who have allowed us to      
interface, adapt or use parts of their codes:                            
  Ed Valeev, F. Pavosevic, A. Kumar             : LibInt (2-el integral package), F12 methods 
  Garnet Chan, S. Sharma, J. Yang, R. Olivares  : DMRG                   
  Ulf Ekstrom                                   : XCFun DFT Library      
  Mihaly Kallay                                 : mrcc  (arbitrary order and MRCC methods)
  Frank Weinhold                                : gennbo (NPA and NBO analysis)           
  Simon Mueller                                 : openCOSMO-RS                            
  Christopher J. Cramer and Donald G. Truhlar   : smd solvation model                     
  S Lehtola, MJT Oliveira, MAL Marques          : LibXC Library                           
  Liviu Ungur et al                             : ANISO software                          


 Your calculation uses the libint2 library for the computation of 2-el integrals
 For citations please refer to: http://libint.valeyev.net

 Your ORCA version has been built with support for libXC version: 7.0.0
 For citations please refer to: https://libxc.gitlab.io

 This ORCA versions uses:
   CBLAS   interface :  Fast vector & matrix operations
   LAPACKE interface :  Fast linear algebra routines
   Shared memory     :  Shared parallel matrices


  ***********************************
  * Starting time: Sat Oct  3 08:18:52 2026
  * Host name:     DESKTOP-2KDTO5M
  * Process ID:    5604
  * Working dir.:  C:\Users\naoki\Downloads\デスクトップ\data\Molecules\Calculations\Apixaban\CrystalFragment
  ***********************************

NOTE: MaxCore=2000 MB was set to SCF,MP2,MDCI,CIPSI,MRCI,RASCI and CIS
      => If you want to overwrite this, your respective input block should be placed after the MaxCore statement
Your calculation utilizes the semiempirical GFN2-xTB method
Please cite in your paper:
Bannwarth, C.; Ehlert S.; Grimme, S. J. Chem. Theory Comput. 2019, 15, 1652.
   

================================================================================

================================================================================
                                        WARNINGS
                       Please study these warnings very carefully!
================================================================================


WARNING: Found dipole moment calculation with XTB calculation
  ===> : Switching off dipole moment calculation

Environment variable XTBEXE for xtb has been set!

================================================================================
                                       INPUT FILE
================================================================================
NAME = D4\D4_pull_+0.5A_XTB2_SP.inp
|  1> # D4 pull-apart: molecule B displaced +0.5 A along centroid vector (rigid), XTB2 single point
|  2> 
|  3> ! XTB2
|  4> 
|  5> %pal
|  6>   nprocs 4
|  7> end
|  8> 
|  9> %maxcore 2000
| 10> 
| 11> * xyz 0 1
| 12> H     22.83953108    41.40894130    37.29825264
| 13> C     21.66192281    40.99367530    38.86881303
| 14> H     22.07616212    40.19221192    39.09488688
| 15> C     20.59018700    41.44174731    39.60209780
| 16> C     20.37888339    41.35108090    42.07160460
| 17> H     21.27577734    41.14178684    42.37508161
| 18> C     19.91667659    39.37261526    40.64877097
| 19> C     19.70491047    38.72673821    41.95392663
| 20> C     19.37498228    39.39670069    43.09735375
| 21> C     19.37987740    40.88529087    43.11355807
| 22> H     18.49518556    41.22484004    42.90526177
| 23> H     19.63551561    41.20961362    43.99079384
| 24> C     19.09233738    38.39757069    44.02965274
| 25> C     18.62131839    38.57115188    45.42180829
| 26> C     19.92150901    36.27320826    41.38583152
| 27> C     21.02045476    36.32096385    40.55815264
| 28> H     21.57482386    37.06802738    40.56428826
| 29> C     21.29965591    35.26203555    39.72119169
| 30> H     22.04007708    35.29484156    39.16096274
| 31> C     20.48327140    34.15728956    39.71615733
| 32> C     19.40393116    34.09804495    40.58017793
| 33> H     18.86965258    33.33755448    40.59889943
| 34> C     19.11657892    35.15088268    41.40864342
| 35> H     18.38500348    35.11074030    41.98177289
| 36> C     21.65484253    33.18902767    37.89985766
| 37> H     21.63735684    32.40735864    37.34230322
| 38> H     21.49730824    33.96875880    37.36275527
| 39> H     22.51426932    33.26003816    38.32242855
| 40> H     18.39538066    37.52066732    47.01612452
| 41> H     19.03443510    36.81056246    45.91171363
| 42> N     20.15043870    40.71641603    40.76047065
| 43> N     19.61541343    37.39055064    42.22106192
| 44> N     19.25444159    37.17793445    43.50387764
| 45> N     18.66135535    37.48509287    46.18797368
| 46> O     19.80354548    38.80217820    39.58306166
| 47> O     18.19832953    39.65471929    45.78664146
| 48> O     20.64750653    33.08576486    38.89083831
| 49> C     21.16875807    43.95659821    35.25288997
| 50> H     20.47458764    44.57326822    35.53622957
| 51> H     20.73787682    43.12398988    35.00447618
| 52> C     21.83638855    44.51236254    34.06934536
| 53> H     22.27585503    43.79118392    33.59013802
| 54> H     21.16639655    44.89163882    33.48001158
| 55> C     22.83291639    45.54914332    34.38918402
| 56> H     23.29048235    45.81491356    33.57597890
| 57> H     22.37932284    46.32984340    34.74489242
| 58> C     23.83563842    45.06632738    35.38346846
| 59> H     24.48924629    44.52205208    34.91794826
| 60> H     24.30290205    45.83567686    35.74389657
| 61> C     23.28615136    44.26860140    36.52721022
| 62> C     20.44944804    43.36719733    38.19279400
| 63> H     20.03755147    44.17046020    37.96687747
| 64> C     21.53658130    42.92535431    37.47020721
| 65> C     22.12431926    41.72606610    37.80121583
| 66> C     19.97011296    42.62082591    39.24985051
| 67> H     19.22705322    42.91497266    39.72575407
| 68> H     20.31296812    42.31422118    41.97547995
| 69> N     22.06622540    43.70370122    36.38672035
| 70> O     23.94091717    44.12713411    37.55626316
| 71> C     15.48943329    24.79765377    43.39591832
| 72> H     16.18360373    24.18098376    43.11257872
| 73> H     15.92031455    25.63026210    43.64433211
| 74> C     14.82180281    24.24188944    44.57946292
| 75> H     14.38233633    24.96306806    45.05867027
| 76> H     15.49179482    23.86261316    45.16879671
| 77> C     13.82527497    23.20510866    44.25962427
| 78> H     13.36770901    22.93933842    45.07282938
| 79> H     14.27886852    22.42440858    43.90391586
| 80> C     12.82255295    23.68792460    43.26533982
| 81> H     12.16894507    24.23219990    43.73086003
| 82> H     12.35528932    22.91857512    42.90491171
| 83> C     13.37204001    24.48565058    42.12159806
| 84> C     16.20874333    25.38705465    40.45601429
| 85> H     16.62063990    24.58379178    40.68193082
| 86> C     15.12161007    25.82889767    41.17860107
| 87> C     14.53387210    27.02818588    40.84759245
| 88> C     16.68807841    26.13342607    39.39895777
| 89> H     17.43113814    25.83927932    38.92305422
| 90> H     16.34522324    26.44003080    36.67332833
| 91> N     14.59196597    25.05055076    42.26208794
| 92> O     12.71727420    24.62711787    41.09254512
| 93> H     13.81866029    27.34531068    41.35055565
| 94> C     14.99626856    27.76057668    39.77999526
| 95> H     14.58202925    28.56204006    39.55392141
| 96> C     16.06800436    27.31250467    39.04671048
| 97> C     16.27930798    27.40317108    36.57720368
| 98> H     15.38241403    27.61246514    36.27372667
| 99> C     16.74151478    29.38163672    38.00003731
|100> C     16.95328090    30.02751377    36.69488165
|101> C     17.28320909    29.35755129    35.55145454
|102> C     17.27831397    27.86896111    35.53525022
|103> H     18.16300580    27.52941194    35.74354652
|104> H     17.02267576    27.54463836    34.65801445
|105> C     17.56585398    30.35668129    34.61915555
|106> C     18.03687297    30.18310010    33.22700000
|107> C     16.73668236    32.48104372    37.26297677
|108> C     15.63773661    32.43328813    38.09065564
|109> H     15.08336751    31.68622460    38.08452003
|110> C     15.35853546    33.49221643    38.92761660
|111> H     14.61811429    33.45941042    39.48784554
|112> C     16.17491997    34.59696242    38.93265095
|113> C     17.25426021    34.65620703    38.06863035
|114> H     17.78853878    35.41669750    38.04990886
|115> C     17.54161245    33.60336930    37.24016486
|116> H     18.27318788    33.64351168    36.66703540
|117> C     15.00334884    35.56522431    40.74895063
|118> H     15.02083453    36.34689334    41.30650507
|119> H     15.16088313    34.78549318    41.28605302
|120> H     14.14392204    35.49421382    40.32637974
|121> H     18.26281070    31.23358466    31.63268376
|122> H     17.62375627    31.94368952    32.73709465
|123> N     16.50775267    28.03783595    37.88833764
|124> N     17.04277793    31.36370134    36.42774637
|125> N     17.40374977    31.57631753    35.14493064
|126> N     17.99683602    31.26915911    32.46083461
|127> O     16.85464589    29.95207378    39.06574662
|128> O     18.45986184    29.09953269    32.86216683
|129> O     16.01068483    35.66848712    39.75796997
|130> *
|131> 
|132>                          ****END OF INPUT****
================================================================================

                       ****************************
                       * Single Point Calculation *
                       ****************************

      -----------------------------------------------------------      
     |                   =====================                   |     
     |                           x T B                           |     
     |                   =====================                   |     
     |                         S. Grimme                         |     
     |          Mulliken Center for Theoretical Chemistry        |     
     |                    University of Bonn                     |     
      -----------------------------------------------------------      

   * xtb version 6.7.1pre (5071a88) compiled by 'Marcel@Raven' on 2024-07-23

   xtb is free software: you can redistribute it and/or modify it under
   the terms of the GNU Lesser General Public License as published by
   the Free Software Foundation, either version 3 of the License, or
   (at your option) any later version.
   
   xtb is distributed in the hope that it will be useful,
   but WITHOUT ANY WARRANTY; without even the implied warranty of
   MERCHANTABILITY or FITNESS FOR A PARTICULAR PURPOSE.  See the
   GNU Lesser General Public License for more details.
   
   Cite this work as:
   * C. Bannwarth, E. Caldeweyher, S. Ehlert, A. Hansen, P. Pracht,
     J. Seibert, S. Spicher, S. Grimme, WIREs Comput. Mol. Sci., 2020, 11,
     e01493. DOI: 10.1002/wcms.1493
   
   for GFN2-xTB:
   * C. Bannwarth, S. Ehlert and S. Grimme., J. Chem. Theory Comput., 2019,
     15, 1652-1671. DOI: 10.1021/acs.jctc.8b01176
   for GFN1-xTB:
   * S. Grimme, C. Bannwarth, P. Shushkov, J. Chem. Theory Comput., 2017,
     13, 1989-2009. DOI: 10.1021/acs.jctc.7b00118
   for GFN0-xTB:
   * P. Pracht, E. Caldeweyher, S. Ehlert, S. Grimme, ChemRxiv, 2019, preprint.
     DOI: 10.26434/chemrxiv.8326202.v1
   for GFN-FF:
   * S. Spicher and S. Grimme, Angew. Chem. Int. Ed., 2020, 59, 15665-15673.
     DOI: 10.1002/anie.202004239
   
   for ALPB and GBSA implicit solvation:
   * S. Ehlert, M. Stahn, S. Spicher, S. Grimme, J. Chem. Theory Comput.,
     2021, 17, 4250-4261. DOI: 10.1021/acs.jctc.1c00471
   
   for ddCOSMO and CPCM-X implicit solvation:
   * M. Stahn, S. Ehlert, S. Grimme, J. Phys. Chem. A,
     2023, XX, XXXX-XXXX. DOI: 10.1021/acs.jpca.3c04382
   
   for DFT-D4:
   * E. Caldeweyher, C. Bannwarth and S. Grimme, J. Chem. Phys., 2017,
     147, 034112. DOI: 10.1063/1.4993215
   * E. Caldeweyher, S. Ehlert, A. Hansen, H. Neugebauer, S. Spicher,
     C. Bannwarth and S. Grimme, J. Chem. Phys., 2019, 150, 154122.
     DOI: 10.1063/1.5090222
   * E. Caldeweyher, J.-M. Mewes, S. Ehlert and S. Grimme, Phys. Chem. Chem. Phys.
     2020, 22, 8499-8512. DOI: 10.1039/D0CP00502A
   
   for sTDA-xTB:
   * S. Grimme and C. Bannwarth, J. Chem. Phys., 2016, 145, 054103.
     DOI: 10.1063/1.4959605
   
   in the mass-spec context:
   * V. Asgeirsson, C. Bauer and S. Grimme, Chem. Sci., 2017, 8, 4879.
     DOI: 10.1039/c7sc00601b
   * J. Koopman and S. Grimme, ACS Omega 2019, 4, 12, 15120-15133.
     DOI: 10.1021/acsomega.9b02011
   
   for metadynamics refer to:
   * S. Grimme, J. Chem. Theory Comput., 2019, 155, 2847-2862
     DOI: 10.1021/acs.jctc.9b00143
   
   for SPH calculations refer to:
   * S. Spicher and S. Grimme, J. Chem. Theory Comput., 2021, 17, 1701-1714
     DOI: 10.1021/acs.jctc.0c01306
   
   for ONIOM refer to:
   * C. Plett, A. Katbashev, S. Ehlert, S. Grimme, M. Bursch,
     Phys. Chem. Chem. Phys., 2023, 25, 17860-17868. DOI: 10.1039/D3CP02178E
   
   for DIPRO refer to:
   * J. Kohn, N. Gildemeister, S. Grimme, D. Fazzi, A. Hansen,
     J. Chem. Phys., 2023, just accepted.
   
   for PTB refer to:
   * S. Grimme, M. Mueller, A. Hansen, J. Chem. Phys., 2023, 158, 124111.
     DOI: 10.1063/5.0137838
   
   with help from (in alphabetical order)
   P. Atkinson, C. Bannwarth, F. Bohle, G. Brandenburg, E. Caldeweyher
   M. Checinski, S. Dohm, S. Ehlert, S. Ehrlich, I. Gerasimov, C. Hﾃｶlzer
   A. Katbashev, J. Kohn, J. Koopman, C. Lavigne, S. Lehtola, F. Mﾃ､rz, M. Mﾃｼller,
   F. Musil, H. Neugebauer, J. Pisarek, C. Plett, P. Pracht, F. Pultar,
   J. Seibert, P. Shushkov, S. Spicher, M. Stahn, M. Steiner, T. Strunk,
   J. Stﾃｼckrath, T. Rose, and J. Unsleber
   
 * started run on 2026/10/03 at 08:18:52.744     
   ID    Z sym.   atoms
    1    1 H      1, 3, 6, 11, 12, 17, 19, 22, 24, 26-30, 39, 40, 42, 43, 45,
                  46, 48, 49, 52, 56, 57, 61, 62, 64, 65, 67, 68, 70, 71, 74,
                  78, 79, 82, 84, 87, 92, 93, 98, 100, 103, 105, 107-111
    2    6 C      2, 4, 5, 7-10, 13-16, 18, 20, 21, 23, 25, 38, 41, 44, 47,
                  50, 51, 53-55, 60, 63, 66, 69, 72, 73, 75-77, 83, 85, 86,
                  88-91, 94-97, 99, 101, 102, 104, 106
    3    7 N      31-34, 58, 80, 112-115
    4    8 O      35-37, 59, 81, 116-118

           -------------------------------------------------
          |                Calculation Setup                |
           -------------------------------------------------

          program call               : C:\ORCA_6.1.1\xtb-6.7.1pre\xtb.exe  D4\D4_pull_+0.5A_XTB2_SP_XTB.xyz --grad -c 0 -u 0 -P 4 --namespace D4\D4_pull_+0.5A_XTB2_SP --input D4\D4_pull_+0.5A_XTB2_SP_XTB.input.tmp --acc 1.000000      
          calculation namespace      : D4\D4_pull_+0.5A_XTB2_SP
          coordinate file            : D4\D4_pull_+0.5A_XTB2_SP_XTB.xyz
          omp threads                :                     4


molecular fragmentation (1/2 indicates fragments):
111111111111111111111111111111111111111111111111111111111112222222222222
2222222222222222222222222222222222222222222222
# atoms in fragment 1/2:    59    59
 fragment masses (1/2) :      459.50      459.50
CMA distance (Bohr)    :  22.040
constraining FC (au)   :  0.0500

           -------------------------------------------------
          |                 G F N 2 - x T B                 |
           -------------------------------------------------

        Reference                      10.1021/acs.jctc.8b01176
      * Hamiltonian:
        H0-scaling (s, p, d)           1.850000    2.230000    2.230000
        zeta-weighting                 0.500000
      * Dispersion:
        s8                             2.700000
        a1                             0.520000
        a2                             5.000000
        s9                             5.000000
      * Repulsion:
        kExp                           1.500000    1.000000
        rExp                           1.000000
      * Coulomb:
        alpha                          2.000000
        third order                    shell-resolved
        anisotropic                    true
        a3                             3.000000
        a5                             4.000000
        cn-shift                       1.200000
        cn-exp                         4.000000
        max-rad                        5.000000


          ...................................................
          :                      SETUP                      :
          :.................................................:
          :  # basis functions                 322          :
          :  # atomic orbitals                 322          :
          :  # shells                          186          :
          :  # electrons                       348          :
          :  max. iterations                   250          :
          :  Hamiltonian                  GFN2-xTB          :
          :  restarted?                      false          :
          :  GBSA solvation                  false          :
          :  PC potential                    false          :
          :  electronic temp.          300.0000000     K    :
          :  accuracy                    1.0000000          :
          :  -> integral cutoff          0.2500000E+02      :
          :  -> integral neglect         0.1000000E-07      :
          :  -> SCF convergence          0.1000000E-05 Eh   :
          :  -> wf. convergence          0.1000000E-03 e    :
          :  Broyden damping             0.4000000          :
          :  net charge                          0          :
          :  unpaired electrons                  0          :
          ...................................................

 iter      E             dE          RMSdq      gap      omega  full diag
   1   -197.4473643 -0.197447E+03  0.413E+00    2.91       0.0  T
   2   -197.9768451 -0.529481E+00  0.242E+00    2.73       1.0  T
   3   -198.0267709 -0.499258E-01  0.129E+00    3.05       1.0  T
   4   -198.0337112 -0.694034E-02  0.431E-01    2.96       1.0  T
   5   -198.0483696 -0.146584E-01  0.899E-02    2.99       1.0  T
   6   -198.0485449 -0.175228E-03  0.512E-02    2.99       1.0  T
   7   -198.0486822 -0.137319E-03  0.217E-02    3.00       1.0  T
   8   -198.0486890 -0.678605E-05  0.831E-03    3.00       1.1  T
   9   -198.0486921 -0.309009E-05  0.365E-03    3.00       2.5  T
  10   -198.0486923 -0.247603E-06  0.144E-03    3.00       6.4  T
  11   -198.0486924 -0.106734E-06  0.531E-04    3.00      17.3  T
  12   -198.0486924 -0.861033E-08  0.251E-04    3.00      36.7  T

   *** convergence criteria satisfied after 12 iterations ***

         #    Occupation            Energy/Eh            Energy/eV
      -------------------------------------------------------------
         1        2.0000           -0.7151872             -19.4612
       ...           ...                  ...                  ...
       168        2.0000           -0.3858230             -10.4988
       169        2.0000           -0.3816754             -10.3859
       170        2.0000           -0.3816618             -10.3855
       171        2.0000           -0.3791455             -10.3171
       172        2.0000           -0.3791264             -10.3166
       173        2.0000           -0.3767730             -10.2525
       174        2.0000           -0.3752412             -10.2108 (HOMO)
       175                         -0.2649454              -7.2095 (LUMO)
       176                         -0.2649167              -7.2088
       177                         -0.2385481              -6.4912
       178                         -0.2385423              -6.4911
       179                         -0.2323160              -6.3216
       ...                                ...                  ...
       322                          0.8748253              23.8052
      -------------------------------------------------------------
                  HL-Gap            0.1102957 Eh            3.0013 eV
             Fermi-level           -0.3200933 Eh           -8.7102 eV

 SCC (total)                   0 d,  0 h,  0 min,  0.271 sec
 SCC setup                      ...        0 min,  0.001 sec (  0.369%)
 Dispersion                     ...        0 min,  0.003 sec (  1.107%)
 classical contributions        ...        0 min,  0.001 sec (  0.369%)
 integral evaluation            ...        0 min,  0.013 sec (  4.797%)
 iterations                     ...        0 min,  0.165 sec ( 60.886%)
 molecular gradient             ...        0 min,  0.086 sec ( 31.734%)
 printout                       ...        0 min,  0.002 sec (  0.738%)

         :::::::::::::::::::::::::::::::::::::::::::::::::::::
         ::                     SUMMARY                     ::
         :::::::::::::::::::::::::::::::::::::::::::::::::::::
         :: total energy            -193.665387247459 Eh    ::
         :: gradient norm              1.318665815276 Eh/a0 ::
         :: HOMO-LUMO gap              3.001299559491 eV    ::
         ::.................................................::
         :: SCC energy              -198.048183029658 Eh    ::
         :: -> isotropic ES            0.296284062965 Eh    ::
         :: -> anisotropic ES          0.006311360375 Eh    ::
         :: -> anisotropic XC          0.037012208402 Eh    ::
         :: -> dispersion             -0.146229642135 Eh    ::
         :: repulsion energy           4.382795782199 Eh    ::
         :: add. restraining           0.000000000000 Eh    ::
         :: total charge               0.000000000000 e     ::
         :::::::::::::::::::::::::::::::::::::::::::::::::::::


Property printout bound to 'properties.out'
#
# Number of atoms
#
       118
#
# The current total energy in Eh
#
   -193.665387247459
#
# The current gradient in Eh/bohr
#
      -0.125154239911
       0.054275831850
       0.085540852267
       0.062394711145
      -0.119532837648
       0.033389637041
      -0.071909025888
       0.138816897601
      -0.038111606623
       0.007356651657
       0.004579108057
      -0.016011959455
       0.081759304839
       0.075767426247
       0.031007215471
      -0.108451060256
       0.030440552946
      -0.034882630145
      -0.000214509292
      -0.002122256316
      -0.002825782565
      -0.004440326632
       0.017662347831
       0.015271929911
       0.003109748501
      -0.006470448102
      -0.004969705308
      -0.056723035737
       0.073260763436
       0.061399202970
       0.104925364701
      -0.036422779690
       0.026172896964
      -0.032282751285
      -0.037041538638
      -0.102378487201
       0.002059462099
       0.013518111250
      -0.014368080877
       0.004239906660
      -0.031245828469
       0.019147394142
       0.004762483995
      -0.019081758910
      -0.008126269461
       0.086152001523
       0.112840859772
      -0.001586253500
      -0.095962258089
      -0.127867809587
       0.000450331119
       0.111955980558
       0.002751829682
      -0.085480779214
      -0.129639531734
      -0.010010465053
       0.096130473502
       0.003673676054
       0.013914574686
       0.008535484629
      -0.080291085161
      -0.114703467363
       0.000652086349
       0.092564374305
       0.132488345656
      -0.000831098538
      -0.113612449574
      -0.010521865896
       0.084776639466
       0.125738498468
       0.006336416879
      -0.098494362301
       0.073732153613
       0.003732737527
      -0.077041582926
       0.010151981581
       0.107696479658
       0.068615140152
       0.023912914222
      -0.107487323104
       0.074465783304
      -0.118228930779
      -0.007972597425
      -0.059158096211
       0.062899652847
      -0.014673309079
      -0.185708123985
      -0.148941152591
       0.273387623926
       0.117473085761
      -0.002751380737
       0.000219023521
       0.005256898402
       0.000590945126
       0.014499176742
      -0.009581581326
      -0.005251863431
      -0.015441058306
       0.022579753129
       0.082792666162
      -0.233446857569
       0.055281438476
      -0.001421451364
       0.001371126085
       0.005064004236
       0.000104604079
      -0.000356840600
      -0.004349200345
       0.009733553966
       0.003629542811
      -0.007569435401
      -0.096129154707
      -0.014145666019
      -0.030398207613
       0.081143874999
      -0.076430417219
      -0.039413812131
       0.047868024638
       0.103595561687
       0.025958157354
      -0.026480124014
      -0.016434596719
      -0.068925116665
      -0.055322285191
       0.086720998613
       0.055924708910
       0.082573502764
      -0.045448117171
       0.068562779029
      -0.000038929334
       0.072287766457
      -0.044704308262
      -0.055881912341
      -0.029915702768
       0.096083739225
       0.055290640131
      -0.092578353779
      -0.045330782097
       0.099306762101
       0.024998813727
      -0.013456659476
      -0.076668827348
       0.070810696826
       0.051591350202
      -0.054801256895
      -0.089102357983
      -0.048374106124
      -0.004269809212
       0.007081234298
      -0.023982048017
      -0.062718128723
       0.122790747912
      -0.032632113688
       0.071853435921
      -0.138486500808
       0.037463836852
      -0.004007550502
      -0.007741868320
       0.010327243027
       0.107700164935
      -0.049136684070
      -0.072591565239
      -0.113921347133
       0.045016401866
       0.072531990591
       0.128232404092
      -0.052172919241
      -0.082420323753
       0.011973478628
      -0.111857775157
       0.016690673752
       0.000893222567
       0.003798354432
      -0.001214646830
       0.006281714103
       0.000137330784
       0.010176578598
       0.096129116998
       0.014145688528
       0.030398201561
      -0.081143860466
       0.076430412905
       0.039413800958
      -0.047868031340
      -0.103595559916
      -0.025958153609
       0.026480104082
       0.016434588947
       0.068925118106
       0.055322281531
      -0.086720997103
      -0.055924711397
      -0.082573490995
       0.045448107357
      -0.068562762623
       0.000038921163
      -0.072287771843
       0.044704326387
       0.055881919742
       0.029915701897
      -0.096083748997
      -0.055290639044
       0.092578353115
       0.045330780272
      -0.099306759542
      -0.024998843694
       0.013456667743
       0.076668811426
      -0.070810686046
      -0.051591333457
       0.054801274982
       0.089102364858
       0.048374091494
       0.004269808097
      -0.007081215364
       0.023981966379
       0.062718185644
      -0.122790774588
       0.032631993966
      -0.071853442413
       0.138486498687
      -0.037463842288
       0.004007503940
       0.007741757854
      -0.010327131933
      -0.107700188000
       0.049136789286
       0.072591494582
       0.113921380636
      -0.045016537652
      -0.072531941903
      -0.128232402042
       0.052172937961
       0.082420321394
      -0.011973474550
       0.111857777964
      -0.016690678550
      -0.000893128020
      -0.003798273160
       0.001214643810
      -0.006281727086
      -0.000137340724
      -0.010176550897
       0.125154236393
      -0.054275838277
      -0.085540846172
      -0.062394791046
       0.119532849627
      -0.033389537483
       0.071909029462
      -0.138816885727
       0.038111600086
      -0.007356613747
      -0.004579007521
       0.016011926194
      -0.081759309564
      -0.075767445207
      -0.031007219316
       0.108451068438
      -0.030440548392
       0.034882631885
       0.000214521579
       0.002122371722
       0.002825712728
       0.004440209123
      -0.017662381203
      -0.015271839358
      -0.003109717214
       0.006470422931
       0.004969716841
       0.056723061758
      -0.073260741537
      -0.061399210439
      -0.104925370524
       0.036422768277
      -0.026172899204
       0.032282744796
       0.037041551864
       0.102378485926
      -0.002059415612
      -0.013518044946
       0.014368119831
      -0.004239868407
       0.031245847273
      -0.019147394377
      -0.004762487912
       0.019081810272
       0.008126275358
      -0.086151993296
      -0.112840856110
       0.001586225095
       0.095962260349
       0.127867807534
      -0.000450329454
      -0.111955984519
      -0.002751818816
       0.085480799362
       0.129639537401
       0.010010467319
      -0.096130482857
      -0.003673679400
      -0.013914556366
      -0.008535481570
       0.080291096819
       0.114703483331
      -0.000652046994
      -0.092564378505
      -0.132488351922
       0.000831105411
       0.113612476242
       0.010521759776
      -0.084776645401
      -0.125738533518
      -0.006336399576
       0.098494369587
      -0.073732122834
      -0.003732748545
       0.077041581781
      -0.010151988339
      -0.107696480545
      -0.068615135641
      -0.023912916029
       0.107487322539
      -0.074465781177
       0.118228921249
       0.007972597191
       0.059158087229
      -0.062899653947
       0.014673315150
       0.185708103038
       0.148941171296
      -0.273387632741
      -0.117473088241
       0.002751354726
      -0.000219092865
      -0.005256820967
      -0.000590899532
      -0.014499197574
       0.009581485635
       0.005251839684
       0.015441048857
      -0.022579799113
      -0.082792711190
       0.233446859371
      -0.055281430409
       0.001421456986
      -0.001371191841
      -0.005063995290
      -0.000104621506
       0.000356818347
       0.004349203774
      -0.009733577519
      -0.003629542698
       0.007569423150
#
# The atomic numbers and current coordinates in Bohr
#
   1    43.1604586   78.2515582   70.4834824
   6    40.9351014   77.4668192   73.4514114
   1    41.7179003   75.9522729   73.8786291
   6    38.9098143   78.3135525   74.8371188
   6    38.5105083   78.1422179   79.5038103
   1    40.2053923   77.7467094   80.0772988
   6    37.6370641   74.4034597   76.8150444
   6    37.2368841   73.1829289   79.2814312
   6    36.6134102   74.4489745   81.4421953
   6    36.6226606   77.2620023   81.4728170
   1    34.9508353   77.9036572   81.0791941
   1    37.1057468   77.8748834   83.1305524
   6    36.0792887   72.5608925   83.2039850
   6    35.1891918   72.8889134   85.8347778
   6    37.6461960   68.5464293   78.2078870
   6    39.7229025   68.6366743   76.6438006
   1    40.7705083   70.0484197   76.6553953
   6    40.2505162   66.6355898   75.0621736
   1    41.6497094   66.6975842   74.0034944
   6    38.7077731   64.5479224   75.0526601
   6    36.6681156   64.4359663   76.6854224
   1    35.6584754   62.9988476   76.7208009
   6    36.1250986   66.4255413   78.2509953
   1    34.7426214   66.3496832   79.3340530
   6    40.9217217   62.7181726   71.6203511
   1    40.8886785   61.2410323   70.5667259
   1    40.6240250   64.1916509   70.6053747
   1    42.5458029   62.8523630   72.4188944
   1    34.7622314   70.9037852   88.8475988
   1    35.9698693   69.5618815   86.7605647
   7    38.0788104   76.9428751   77.0261262
   7    37.0677592   70.6579004   79.7862437
   7    36.3856213   70.2561140   82.2104141
   7    35.2648507   70.8365593   87.2826205
   8    37.4232773   73.3254898   74.8011457
   8    34.3898587   74.9365590   86.5242125
   8    39.0181325   62.5230342   73.4930332
   6    40.0031552   83.0659320   66.6183071
   1    38.6913632   84.2312694   67.1537414
   1    39.1889076   81.4925303   66.1488731
   6    41.2647939   84.1161744   64.3817320
   1    42.0952652   82.7533443   63.4761613
   1    39.9986925   84.8329027   63.2680525
   6    43.1479586   86.0754061   64.9861394
   1    44.0126330   86.5776391   63.4494045
   1    42.2907910   87.5507154   65.6583309
   6    45.0428286   85.1630162   66.8650647
   1    46.2779685   84.1344849   65.9853590
   1    45.9258289   86.6168760   67.5461751
   6    44.0044486   83.6555326   69.0264234
   6    38.6438562   81.9521257   72.1739206
   1    37.8654845   83.4700726   71.7470002
   6    40.6982403   81.1171634   70.8084295
   6    41.8089041   78.8508372   71.4339451
   6    37.7380442   80.5416882   74.1714679
   1    36.3338648   81.0975450   75.0707953
   1    38.3859465   79.9622892   79.3221611
   7    41.6991226   82.5880259   68.7609360
   8    45.2417766   83.3881981   70.9710516
   6    29.2707867   46.8607742   82.0064006
   1    30.5825788   45.6954367   81.4709663
   1    30.0850343   48.4341759   82.4758346
   6    28.0091480   45.8105318   84.2429757
   1    27.1786767   47.1733619   85.1485463
   1    29.2752494   45.0938035   85.3566552
   6    26.1259833   43.8513001   83.6385682
   1    25.2613089   43.3490671   85.1753032
   1    26.9831509   42.3759907   82.9663768
   6    24.2311133   44.7636900   81.7596429
   1    22.9959734   45.7922212   82.6393487
   1    23.3481130   43.3098301   81.0785325
   6    25.2694933   46.2711736   79.5982843
   6    30.6300857   47.9745804   76.4507871
   1    31.4084574   46.4566336   76.8777075
   6    28.5757016   48.8095427   77.8162782
   6    27.4650378   51.0758690   77.1907626
   6    31.5358977   49.3850180   74.4532398
   1    32.9400771   48.8291612   73.5539124
   1    30.8879954   49.9644169   69.3025466
   7    27.5748193   47.3386802   79.8637717
   8    24.0321653   46.5385080   77.6536560
   1    26.1134834   51.6751480   78.1412253
   6    28.3388405   52.4598870   75.1732963
   1    27.5560416   53.9744333   74.7460786
   6    30.3641276   51.6131536   73.7875889
   6    30.7634336   51.7844883   69.1208974
   1    29.0685497   52.1799967   68.5474089
   6    31.6368778   55.5232465   71.8096632
   6    32.0370578   56.7437772   69.3432765
   6    32.6605317   55.4777316   67.1825124
   6    32.6512813   52.6647039   67.1518907
   1    34.3231066   52.0230489   67.5455136
   1    32.1681951   52.0518227   65.4941553
   6    33.1946532   57.3658137   65.4207227
   6    34.0847501   57.0377928   62.7899299
   6    31.6277459   61.3802769   70.4168207
   6    29.5510394   61.2900319   71.9809071
   1    28.5034336   59.8782864   71.9693124
   6    29.0234257   63.2911164   73.5625341
   1    27.6242325   63.2291220   74.6212133
   6    30.5661688   65.3787837   73.5720476
   6    32.6058263   65.4907398   71.9392853
   1    33.6154665   66.9278585   71.9039068
   6    33.1488433   63.5011648   70.3737124
   1    34.5313205   63.5770229   69.2906547
   6    28.3522203   67.2085335   77.0043566
   1    28.3852634   68.6856739   78.0579817
   1    28.6499169   65.7350552   78.0193330
   1    26.7281390   67.0743431   76.2058133
   1    34.5117105   59.0229209   59.7771089
   1    33.3040726   60.3648246   61.8641430
   7    31.1951315   52.9838311   71.5985815
   7    32.2061827   59.2688058   68.8384640
   7    32.8883206   59.6705922   66.4142936
   7    34.0090912   59.0901469   61.3420872
   8    31.8506647   56.6012163   73.8235620
   8    34.8840832   54.9901471   62.1004952
   8    30.2558094   67.4036719   75.1316745

           -------------------------------------------------
          | TOTAL ENERGY             -193.665387247459 Eh   |
          | GRADIENT NORM               1.318665815276 Eh/ﾎｱ |
          | HOMO-LUMO GAP               3.001299559491 eV   |
           -------------------------------------------------

------------------------------------------------------------------------
 * finished run on 2026/10/03 at 08:18:53.101     
------------------------------------------------------------------------
 total:
 * wall-time:     0 d,  0 h,  0 min,  0.355 sec
 *  cpu-time:     0 d,  0 h,  0 min,  1.375 sec
 * ratio c/w:     3.873 speedup
 SCF:
 * wall-time:     0 d,  0 h,  0 min,  0.272 sec
 *  cpu-time:     0 d,  0 h,  0 min,  1.062 sec
 * ratio c/w:     3.906 speedup


-------------------------   --------------------
FINAL SINGLE POINT ENERGY      -193.665387247460
-------------------------   --------------------


-------------
DIPOLE MOMENT
-------------
                                X             Y             Z
Total Dipole Moment    :      0.00000       0.00000       0.00000
                        -----------------------------------------
Magnitude (a.u.)       :      0.00000
Magnitude (Debye)      :      0.00000


--------------------------------
SUGGESTED CITATIONS FOR THIS RUN
--------------------------------

Below you find a list of papers that are relevant to this ORCA run
We neither can nor want to force you to cite these papers, but we appreciate if you do
You receive ORCA, which is the product of decades of hard work by many enthusiastic individuals, for free
The only thing we kindly ask in return is that you cite our papers,
We deeply appreciate it, if you show your appreciation for ORCA by not just citing the generic ORCA reference.

Please note that relegating all ORCA citations to the supporting information does *not* help us.
SI sections are not indexed - citations you put there will not count into any citation statistics
But we need these citations in order to attract the funding resources that allow us to do what we are doing

Therefore, if you are a happy ORCA user, please consider citing a few of the papers listed below in the main body of your paper

In addition to the list printed below, the program has created the file D4\D4_pull_+0.5A_XTB2_SP.bibtex that contains the list in bibtex format
You can import this file easily into all common literature databanks and citation aid programs

It goes without saying that in many instances, there are alternative algorithms to achieve similar
results as the ones you have gotten from ORCA. It is, of course, also the case that in some instances
ORCA just re-implements algorithms worked out by others. We are fully aware of that and we are also
fully appreciative of our colleagues work. Hence this citation list should not be read as indicating
that the listed papers, which are focused on our own work, are the only ones worth citing. It simply
meant to make it easier for users to cite ORCA specific papers. It is not a substitute for doing your
own literature research and citing the relevant literature in a scientifically appropriate manner.

List of essential papers. We consider these as the minimum necessary citations

  1. Bannwarth, C.; Ehlert, S.; Grimme, S.
     GFN2-xTB窶尿n Accurate and Broadly Parametrized Self-Consistent Tight-Binding Quantum Chemical Method with Multipole Electrostatics and Density-Dependent Dispersion Contributions
     J. Chem. Theory Comput. 2019 15(3), 1652-1671
     doi.org/10.1021/acs.jctc.8b01176
  2. Neese, F.
     Software update: the ORCA program system, version 6.0
     WIRES Comput. Molec. Sci. 2025 15(1), e70019
     doi.org/10.1002/wcms.70019

List of papers to cite with high priority. The work reported in these papers was absolutely
necessary for this run to complete.
Our perspective: the developers of density functionals and basis sets usually get cited in chemistry papers
Good! But without the algorithms to do something with them, the functionals or basis sets would not do anything.
Hence, in our opinion, the algorithm design and method developments papers are equally worthy of getting cited

  1. Bannwarth, C.; Caldeweyher, E.; Ehlert, S.; Hansen, A.; Pracht, P.; Seibert, J.; Spicher, S.; Grimme, S.
     Extended tight-binding quantum chemistry methods
     WIRES Comput. Molec. Sci. 2020 11(2), e1493
     doi.org/10.1002/wcms.1493

List of suggested additional citations. These are papers that are important in the 'surrounding' of 
of this run, or papers that preceded the highly important papers. If you like your results we are grateful for a citation.

  1. Neese, F.
     The ORCA program system
     WIRES Comput. Molec. Sci. 2012 2(1), 73-78
     doi.org/10.1002/wcms.81
  2. Neese, F.
     Software update: the ORCA program system, version 4.0
     WIRES Comput. Molec. Sci. 2018 8(1), 1-6
     doi.org/10.1002/wcms.1327
  3. Neese, F.; Wennmohs, F.; Becker, U.; Riplinger, C.
     The ORCA quantum chemistry program package
     J. Chem. Phys. 2020 152(22), 224108
     doi.org/10.1063/5.0004608
  4. Neese, F.
     Software update: The ORCA program system窶之ersion 5.0
     WIRES Comput. Molec. Sci. 2022 12(1), e1606
     doi.org/10.1002/wcms.1606

List of optional additional citations

  1. Neese, F.
     Approximate second-order SCF convergence for spin unrestricted wavefunctions
     Chem. Phys. Lett. 2000 325(1-3), 93-98
     doi.org/10.1016/s0009-2614(00)00662-x

Timings for individual modules:

Sum of individual times          ...        0.418 sec (=   0.007 min)
XTB module                       ...        0.418 sec (=   0.007 min) 100.0 %
                             ****ORCA TERMINATED NORMALLY****
TOTAL RUN TIME: 0 days 0 hours 0 minutes 0 seconds 826 msec
