      -----------------------------------------------------------      
     |                   =====================                   |     
     |                           x T B                           |     
     |                   =====================                   |     
     |                         S. Grimme                         |     
     |          Mulliken Center for Theoretical Chemistry        |     
     |                    University of Bonn                     |     
      -----------------------------------------------------------      

   * xtb version 6.7.1pre (5071a88) compiled by 'Marcel@Raven' on 2024-07-23

   xtb is free software: you can redistribute it and/or modify it under
   the terms of the GNU Lesser General Public License as published by
   the Free Software Foundation, either version 3 of the License, or
   (at your option) any later version.
   
   xtb is distributed in the hope that it will be useful,
   but WITHOUT ANY WARRANTY; without even the implied warranty of
   MERCHANTABILITY or FITNESS FOR A PARTICULAR PURPOSE.  See the
   GNU Lesser General Public License for more details.
   
   Cite this work as:
   * C. Bannwarth, E. Caldeweyher, S. Ehlert, A. Hansen, P. Pracht,
     J. Seibert, S. Spicher, S. Grimme, WIREs Comput. Mol. Sci., 2020, 11,
     e01493. DOI: 10.1002/wcms.1493
   
   for GFN2-xTB:
   * C. Bannwarth, S. Ehlert and S. Grimme., J. Chem. Theory Comput., 2019,
     15, 1652-1671. DOI: 10.1021/acs.jctc.8b01176
   for GFN1-xTB:
   * S. Grimme, C. Bannwarth, P. Shushkov, J. Chem. Theory Comput., 2017,
     13, 1989-2009. DOI: 10.1021/acs.jctc.7b00118
   for GFN0-xTB:
   * P. Pracht, E. Caldeweyher, S. Ehlert, S. Grimme, ChemRxiv, 2019, preprint.
     DOI: 10.26434/chemrxiv.8326202.v1
   for GFN-FF:
   * S. Spicher and S. Grimme, Angew. Chem. Int. Ed., 2020, 59, 15665-15673.
     DOI: 10.1002/anie.202004239
   
   for ALPB and GBSA implicit solvation:
   * S. Ehlert, M. Stahn, S. Spicher, S. Grimme, J. Chem. Theory Comput.,
     2021, 17, 4250-4261. DOI: 10.1021/acs.jctc.1c00471
   
   for ddCOSMO and CPCM-X implicit solvation:
   * M. Stahn, S. Ehlert, S. Grimme, J. Phys. Chem. A,
     2023, XX, XXXX-XXXX. DOI: 10.1021/acs.jpca.3c04382
   
   for DFT-D4:
   * E. Caldeweyher, C. Bannwarth and S. Grimme, J. Chem. Phys., 2017,
     147, 034112. DOI: 10.1063/1.4993215
   * E. Caldeweyher, S. Ehlert, A. Hansen, H. Neugebauer, S. Spicher,
     C. Bannwarth and S. Grimme, J. Chem. Phys., 2019, 150, 154122.
     DOI: 10.1063/1.5090222
   * E. Caldeweyher, J.-M. Mewes, S. Ehlert and S. Grimme, Phys. Chem. Chem. Phys.
     2020, 22, 8499-8512. DOI: 10.1039/D0CP00502A
   
   for sTDA-xTB:
   * S. Grimme and C. Bannwarth, J. Chem. Phys., 2016, 145, 054103.
     DOI: 10.1063/1.4959605
   
   in the mass-spec context:
   * V. Asgeirsson, C. Bauer and S. Grimme, Chem. Sci., 2017, 8, 4879.
     DOI: 10.1039/c7sc00601b
   * J. Koopman and S. Grimme, ACS Omega 2019, 4, 12, 15120-15133.
     DOI: 10.1021/acsomega.9b02011
   
   for metadynamics refer to:
   * S. Grimme, J. Chem. Theory Comput., 2019, 155, 2847-2862
     DOI: 10.1021/acs.jctc.9b00143
   
   for SPH calculations refer to:
   * S. Spicher and S. Grimme, J. Chem. Theory Comput., 2021, 17, 1701-1714
     DOI: 10.1021/acs.jctc.0c01306
   
   for ONIOM refer to:
   * C. Plett, A. Katbashev, S. Ehlert, S. Grimme, M. Bursch,
     Phys. Chem. Chem. Phys., 2023, 25, 17860-17868. DOI: 10.1039/D3CP02178E
   
   for DIPRO refer to:
   * J. Kohn, N. Gildemeister, S. Grimme, D. Fazzi, A. Hansen,
     J. Chem. Phys., 2023, just accepted.
   
   for PTB refer to:
   * S. Grimme, M. Mueller, A. Hansen, J. Chem. Phys., 2023, 158, 124111.
     DOI: 10.1063/5.0137838
   
   with help from (in alphabetical order)
   P. Atkinson, C. Bannwarth, F. Bohle, G. Brandenburg, E. Caldeweyher
   M. Checinski, S. Dohm, S. Ehlert, S. Ehrlich, I. Gerasimov, C. Hölzer
   A. Katbashev, J. Kohn, J. Koopman, C. Lavigne, S. Lehtola, F. März, M. Müller,
   F. Musil, H. Neugebauer, J. Pisarek, C. Plett, P. Pracht, F. Pultar,
   J. Seibert, P. Shushkov, S. Spicher, M. Stahn, M. Steiner, T. Strunk,
   J. Stückrath, T. Rose, and J. Unsleber
   
 * started run on 2026/10/03 at 19:14:28.439     
   ID    Z sym.   atoms
    1    6 C      1, 4, 7, 10, 13, 14, 16-18, 24, 26, 27, 29-32, 35-38, 40,
                  42, 43, 45, 47, 61, 63, 64, 66-69, 72-75, 77, 79, 80, 82,
                  84, 97, 100, 103, 106, 109, 110, 112-114
    2    1 H      2, 3, 5, 6, 8, 9, 11, 12, 15, 19, 20, 23, 25, 28, 33, 34,
                  39, 41, 44, 46, 48-52, 60, 62, 65, 70, 71, 76, 78, 81, 83,
                  85-89, 98, 99, 101, 102, 104, 105, 107, 108, 111, 115, 116
    3    7 N      21, 53-56, 90-93, 117
    4    8 O      22, 57-59, 94-96, 118

           -------------------------------------------------
          |                Calculation Setup                |
           -------------------------------------------------

          program call               : C:\ORCA_6.1.1\xTB_bigstack\xtb.exe d_D3a_D6a.xyz -c 0 -u 0 -P 1 --acc 1.0 --namespace d_D3a_D6a
          calculation namespace      : d_D3a_D6a
          coordinate file            : d_D3a_D6a.xyz
          omp threads                :                     1


molecular fragmentation (1/2 indicates fragments):
111111111111111111111111111111111111111111111111111111111112222222222222
2222222222222222222222222222222222222222222222
# atoms in fragment 1/2:    59    59
 fragment masses (1/2) :      459.50      459.50
CMA distance (Bohr)    :  34.941
constraining FC (au)   :  0.0500

           -------------------------------------------------
          |                 G F N 2 - x T B                 |
           -------------------------------------------------

        Reference                      10.1021/acs.jctc.8b01176
      * Hamiltonian:
        H0-scaling (s, p, d)           1.850000    2.230000    2.230000
        zeta-weighting                 0.500000
      * Dispersion:
        s8                             2.700000
        a1                             0.520000
        a2                             5.000000
        s9                             5.000000
      * Repulsion:
        kExp                           1.500000    1.000000
        rExp                           1.000000
      * Coulomb:
        alpha                          2.000000
        third order                    shell-resolved
        anisotropic                    true
        a3                             3.000000
        a5                             4.000000
        cn-shift                       1.200000
        cn-exp                         4.000000
        max-rad                        5.000000


          ...................................................
          :                      SETUP                      :
          :.................................................:
          :  # basis functions                 322          :
          :  # atomic orbitals                 322          :
          :  # shells                          186          :
          :  # electrons                       348          :
          :  max. iterations                   250          :
          :  Hamiltonian                  GFN2-xTB          :
          :  restarted?                      false          :
          :  GBSA solvation                  false          :
          :  PC potential                    false          :
          :  electronic temp.          300.0000000     K    :
          :  accuracy                    1.0000000          :
          :  -> integral cutoff          0.2500000E+02      :
          :  -> integral neglect         0.1000000E-07      :
          :  -> SCF convergence          0.1000000E-05 Eh   :
          :  -> wf. convergence          0.1000000E-03 e    :
          :  Broyden damping             0.4000000          :
          :  net charge                          0          :
          :  unpaired electrons                  0          :
          ...................................................

 iter      E             dE          RMSdq      gap      omega  full diag
   1   -197.4375033 -0.197438E+03  0.413E+00    2.89       0.0  T
   2   -197.9678870 -0.530384E+00  0.242E+00    2.70       1.0  T
   3   -198.0187759 -0.508889E-01  0.130E+00    3.13       1.0  T
   4   -198.0256854 -0.690947E-02  0.434E-01    2.93       1.0  T
   5   -198.0405018 -0.148164E-01  0.916E-02    2.99       1.0  T
   6   -198.0407044 -0.202543E-03  0.528E-02    3.01       1.0  T
   7   -198.0408685 -0.164134E-03  0.221E-02    3.03       1.0  T
   8   -198.0408756 -0.706922E-05  0.829E-03    3.03       1.1  T
   9   -198.0408784 -0.287244E-05  0.364E-03    3.03       2.5  T
  10   -198.0408786 -0.205775E-06  0.147E-03    3.03       6.3  T
  11   -198.0408788 -0.123634E-06  0.551E-04    3.03      16.7  T
  12   -198.0408788 -0.108925E-07  0.259E-04    3.03      35.6  T

   *** convergence criteria satisfied after 12 iterations ***

         #    Occupation            Energy/Eh            Energy/eV
      -------------------------------------------------------------
         1        2.0000           -0.7212883             -19.6273
       ...           ...                  ...                  ...
       168        2.0000           -0.3871852             -10.5358
       169        2.0000           -0.3819516             -10.3934
       170        2.0000           -0.3819516             -10.3934
       171        2.0000           -0.3804912             -10.3537
       172        2.0000           -0.3804909             -10.3537
       173        2.0000           -0.3788088             -10.3079
       174        2.0000           -0.3788088             -10.3079 (HOMO)
       175                         -0.2675206              -7.2796 (LUMO)
       176                         -0.2675203              -7.2796
       177                         -0.2398687              -6.5272
       178                         -0.2398685              -6.5272
       179                         -0.2327924              -6.3346
       ...                                ...                  ...
       322                          0.8687706              23.6404
      -------------------------------------------------------------
                  HL-Gap            0.1112882 Eh            3.0283 eV
             Fermi-level           -0.3231647 Eh           -8.7938 eV

 SCC (total)                   0 d,  0 h,  0 min,  0.322 sec
 SCC setup                      ...        0 min,  0.001 sec (  0.311%)
 Dispersion                     ...        0 min,  0.002 sec (  0.621%)
 classical contributions        ...        0 min,  0.001 sec (  0.311%)
 integral evaluation            ...        0 min,  0.031 sec (  9.627%)
 iterations                     ...        0 min,  0.167 sec ( 51.863%)
 molecular gradient             ...        0 min,  0.118 sec ( 36.646%)
 printout                       ...        0 min,  0.002 sec (  0.621%)

         :::::::::::::::::::::::::::::::::::::::::::::::::::::
         ::                     SUMMARY                     ::
         :::::::::::::::::::::::::::::::::::::::::::::::::::::
         :: total energy            -193.658786136203 Eh    ::
         :: gradient norm              1.318617294817 Eh/a0 ::
         :: HOMO-LUMO gap              3.028306731150 eV    ::
         ::.................................................::
         :: SCC energy              -198.041581312423 Eh    ::
         :: -> isotropic ES            0.296981176741 Eh    ::
         :: -> anisotropic ES          0.005478062828 Eh    ::
         :: -> anisotropic XC          0.036974374514 Eh    ::
         :: -> dispersion             -0.138398379574 Eh    ::
         :: repulsion energy           4.382795176220 Eh    ::
         :: add. restraining           0.000000000000 Eh    ::
         :: total charge               0.000000000000 e     ::
         :::::::::::::::::::::::::::::::::::::::::::::::::::::

           -------------------------------------------------
          |                Property Printout                |
           -------------------------------------------------

    * Orbital Energies and Occupations

         #    Occupation            Energy/Eh            Energy/eV
      -------------------------------------------------------------
         1        2.0000           -0.7212883             -19.6273
       ...           ...                  ...                  ...
       162        2.0000           -0.4073311             -11.0840
       163        2.0000           -0.3972800             -10.8105
       164        2.0000           -0.3972797             -10.8105
       165        2.0000           -0.3891320             -10.5888
       166        2.0000           -0.3891318             -10.5888
       167        2.0000           -0.3871852             -10.5358
       168        2.0000           -0.3871852             -10.5358
       169        2.0000           -0.3819516             -10.3934
       170        2.0000           -0.3819516             -10.3934
       171        2.0000           -0.3804912             -10.3537
       172        2.0000           -0.3804909             -10.3537
       173        2.0000           -0.3788088             -10.3079
       174        2.0000           -0.3788088             -10.3079 (HOMO)
       175                         -0.2675206              -7.2796 (LUMO)
       176                         -0.2675203              -7.2796
       177                         -0.2398687              -6.5272
       178                         -0.2398685              -6.5272
       179                         -0.2327924              -6.3346
       180                         -0.2327923              -6.3346
       181                         -0.2312553              -6.2928
       182                         -0.2312553              -6.2928
       183                         -0.2285505              -6.2192
       184                         -0.2285505              -6.2192
       185                         -0.2135853              -5.8120
       ...                                ...                  ...
       322                          0.8687706              23.6404
      -------------------------------------------------------------
                  HL-Gap            0.1112882 Eh            3.0283 eV
             Fermi-level           -0.3231647 Eh           -8.7938 eV

     #   Z          covCN         q      C6AA      α(0)
     1   6 C        3.762    -0.011    20.812     6.503
     2   1 H        0.930     0.058     2.227     2.333
     3   1 H        0.930     0.060     2.198     2.318
     4   6 C        3.827    -0.083    22.057     6.683
     5   1 H        0.930     0.055     2.258     2.350
     6   1 H        0.930     0.057     2.228     2.334
     7   6 C        3.825    -0.080    22.000     6.674
     8   1 H        0.930     0.053     2.285     2.364
     9   1 H        0.930     0.051     2.303     2.373
    10   6 C        3.826    -0.107    22.517     6.752
    11   1 H        0.930     0.074     2.043     2.235
    12   1 H        0.930     0.077     2.013     2.219
    13   6 C        2.766     0.268    22.471     7.763
    14   6 C        2.935    -0.055    29.379     8.889
    15   1 H        0.930     0.066     2.129     2.282
    16   6 C        2.930     0.070    26.441     8.433
    17   6 C        2.938    -0.042    29.050     8.839
    18   6 C        2.935    -0.056    29.403     8.893
    19   1 H        0.930     0.069     2.092     2.262
    20   1 H        0.930     0.070     2.085     2.258
    21   7 N        2.739    -0.113    23.462     7.194
    22   8 O        0.859    -0.468    23.085     6.442
    23   1 H        0.930     0.075     2.034     2.230
    24   6 C        2.936    -0.044    29.087     8.845
    25   1 H        0.930     0.072     2.067     2.248
    26   6 C        2.928     0.070    26.439     8.432
    27   6 C        3.764    -0.012    20.839     6.507
    28   1 H        0.930     0.058     2.221     2.330
    29   6 C        2.767     0.269    22.465     7.762
    30   6 C        3.096    -0.009    28.118     8.691
    31   6 C        3.070    -0.016    28.328     8.727
    32   6 C        3.821    -0.083    22.058     6.684
    33   1 H        0.930     0.078     2.003     2.213
    34   1 H        0.930     0.084     1.938     2.177
    35   6 C        3.172     0.026    27.044     8.495
    36   6 C        2.748     0.278    22.300     7.732
    37   6 C        2.920     0.046    26.967     8.516
    38   6 C        2.934    -0.042    29.036     8.837
    39   1 H        0.930     0.070     2.083     2.257
    40   6 C        2.932    -0.078    29.961     8.977
    41   1 H        0.930     0.069     2.101     2.267
    42   6 C        2.878     0.145    24.854     8.173
    43   6 C        2.936    -0.067    29.661     8.932
    44   1 H        0.930     0.078     1.995     2.209
    45   6 C        2.932    -0.046    29.148     8.854
    46   1 H        0.930     0.080     1.982     2.201
    47   6 C        3.664     0.013    20.625     6.514
    48   1 H        0.930     0.073     2.056     2.242
    49   1 H        0.930     0.059     2.206     2.322
    50   1 H        0.930     0.057     2.239     2.340
    51   1 H        0.862     0.206     1.078     1.626
    52   1 H        0.863     0.211     1.049     1.604
    53   7 N        2.745    -0.120    23.603     7.216
    54   7 N        3.019     0.089    19.703     6.593
    55   7 N        1.991    -0.242    27.115     7.723
    56   7 N        2.645    -0.284    27.327     7.764
    57   8 O        0.858    -0.444    22.574     6.370
    58   8 O        0.860    -0.449    22.689     6.386
    59   8 O        1.705    -0.281    18.662     5.833
    60   1 H        0.930     0.075     2.034     2.230
    61   6 C        2.936    -0.044    29.087     8.845
    62   1 H        0.930     0.072     2.067     2.248
    63   6 C        2.928     0.070    26.439     8.432
    64   6 C        3.764    -0.012    20.839     6.507
    65   1 H        0.930     0.058     2.221     2.330
    66   6 C        2.767     0.269    22.465     7.762
    67   6 C        3.096    -0.009    28.118     8.691
    68   6 C        3.070    -0.016    28.328     8.727
    69   6 C        3.821    -0.083    22.058     6.684
    70   1 H        0.930     0.078     2.003     2.213
    71   1 H        0.930     0.084     1.938     2.177
    72   6 C        3.172     0.026    27.044     8.495
    73   6 C        2.748     0.278    22.300     7.732
    74   6 C        2.920     0.046    26.967     8.516
    75   6 C        2.934    -0.042    29.036     8.837
    76   1 H        0.930     0.070     2.083     2.257
    77   6 C        2.932    -0.078    29.961     8.977
    78   1 H        0.930     0.069     2.101     2.267
    79   6 C        2.878     0.145    24.854     8.173
    80   6 C        2.936    -0.067    29.661     8.932
    81   1 H        0.930     0.078     1.995     2.209
    82   6 C        2.932    -0.046    29.148     8.854
    83   1 H        0.930     0.080     1.982     2.201
    84   6 C        3.664     0.013    20.625     6.514
    85   1 H        0.930     0.073     2.056     2.242
    86   1 H        0.930     0.059     2.206     2.322
    87   1 H        0.930     0.057     2.239     2.340
    88   1 H        0.862     0.206     1.078     1.626
    89   1 H        0.863     0.211     1.049     1.604
    90   7 N        2.745    -0.120    23.603     7.216
    91   7 N        3.019     0.089    19.703     6.593
    92   7 N        1.991    -0.242    27.115     7.723
    93   7 N        2.645    -0.284    27.327     7.764
    94   8 O        0.858    -0.444    22.574     6.370
    95   8 O        0.860    -0.449    22.688     6.386
    96   8 O        1.705    -0.281    18.662     5.833
    97   6 C        3.762    -0.011    20.812     6.503
    98   1 H        0.930     0.058     2.227     2.333
    99   1 H        0.930     0.060     2.198     2.318
   100   6 C        3.827    -0.083    22.057     6.683
   101   1 H        0.930     0.055     2.258     2.350
   102   1 H        0.930     0.057     2.228     2.334
   103   6 C        3.825    -0.080    22.000     6.674
   104   1 H        0.930     0.053     2.285     2.364
   105   1 H        0.930     0.051     2.303     2.373
   106   6 C        3.826    -0.107    22.517     6.752
   107   1 H        0.930     0.074     2.043     2.235
   108   1 H        0.930     0.077     2.013     2.219
   109   6 C        2.766     0.268    22.471     7.763
   110   6 C        2.935    -0.055    29.379     8.889
   111   1 H        0.930     0.066     2.129     2.282
   112   6 C        2.930     0.070    26.441     8.433
   113   6 C        2.938    -0.042    29.050     8.839
   114   6 C        2.935    -0.056    29.403     8.893
   115   1 H        0.930     0.069     2.092     2.262
   116   1 H        0.930     0.070     2.085     2.258
   117   7 N        2.739    -0.113    23.462     7.194
   118   8 O        0.859    -0.468    23.085     6.442

 Mol. C6AA /au·bohr⁶  :     167551.295976
 Mol. C8AA /au·bohr⁸  :    4001246.415351
 Mol. α(0) /au        :        634.442644


Wiberg/Mayer (AO) data.
largest (>0.10) Wiberg bond orders for each atom

 ---------------------------------------------------------------------------
     #   Z sym  total        # sym  WBO       # sym  WBO       # sym  WBO
 ---------------------------------------------------------------------------
     1   6 C    3.971 --     4 C    1.007     3 H    0.974     2 H    0.972
                            21 N    0.960
     2   1 H    0.997 --     1 C    0.972
     3   1 H    0.996 --     1 C    0.974
     4   6 C    3.992 --     1 C    1.007     7 C    1.006     5 H    0.979
                             6 H    0.971
     5   1 H    0.997 --     4 C    0.979
     6   1 H    0.996 --     4 C    0.971
     7   6 C    3.994 --     4 C    1.006    10 C    1.002     9 H    0.981
                             8 H    0.977
     8   1 H    0.997 --     7 C    0.977
     9   1 H    0.997 --     7 C    0.981
    10   6 C    3.990 --     7 C    1.002    13 C    0.976    12 H    0.964
                            11 H    0.954
    11   1 H    0.994 --    10 C    0.954
    12   1 H    0.994 --    10 C    0.964
    13   6 C    3.951 --    22 O    1.658    21 N    1.238    10 C    0.976
    14   6 C    3.994 --    18 C    1.442    16 C    1.405    15 H    0.974
                            24 C    0.109
    15   1 H    0.995 --    14 C    0.974
    16   6 C    3.968 --    14 C    1.405    17 C    1.405    21 N    0.991
    17   6 C    3.993 --    24 C    1.441    16 C    1.405    23 H    0.973
                            18 C    0.110
    18   6 C    3.993 --    14 C    1.442    26 C    1.402    19 H    0.974
                            17 C    0.110
    19   1 H    0.995 --    18 C    0.974
    20   1 H    0.995 --    27 C    0.974
    21   7 N    3.481 --    13 C    1.238    16 C    0.991     1 C    0.960
                            22 O    0.189
    22   8 O    1.967 --    13 C    1.658    21 N    0.189
    23   1 H    0.994 --    17 C    0.973
    24   6 C    3.992 --    17 C    1.441    26 C    1.403    25 H    0.973
                            14 C    0.109
    25   1 H    0.995 --    24 C    0.973
    26   6 C    3.965 --    24 C    1.403    18 C    1.402    53 N    0.997
    27   6 C    3.968 --    32 C    0.998    28 H    0.974    20 H    0.974
                            53 N    0.961
    28   1 H    0.997 --    27 C    0.974
    29   6 C    3.957 --    57 O    1.655    53 N    1.202    30 C    1.011
    30   6 C    3.952 --    31 C    1.430    54 N    1.220    29 C    1.011
                            55 N    0.134
    31   6 C    3.981 --    30 C    1.430    35 C    1.322    32 C    1.012
    32   6 C    3.989 --    31 C    1.012    27 C    0.998    34 H    0.963
                            33 H    0.961
    33   1 H    0.994 --    32 C    0.961
    34   1 H    0.992 --    32 C    0.963
    35   6 C    3.968 --    55 N    1.426    31 C    1.322    36 C    1.000
    36   6 C    3.952 --    58 O    1.659    56 N    1.252    35 C    1.000
    37   6 C    3.956 --    38 C    1.402    45 C    1.371    54 N    1.005
    38   6 C    3.991 --    40 C    1.435    37 C    1.402    39 H    0.973
                            43 C    0.108
    39   1 H    0.995 --    38 C    0.973
    40   6 C    3.991 --    38 C    1.435    42 C    1.380    41 H    0.971
    41   1 H    0.995 --    40 C    0.971
    42   6 C    3.933 --    40 C    1.380    43 C    1.344    59 O    1.070
    43   6 C    3.991 --    45 C    1.476    42 C    1.344    44 H    0.972
                            38 C    0.108
    44   1 H    0.993 --    43 C    0.972
    45   6 C    3.990 --    43 C    1.476    37 C    1.371    46 H    0.972
    46   1 H    0.993 --    45 C    0.972
    47   6 C    3.936 --    50 H    0.981    49 H    0.981    48 H    0.979
                            59 O    0.967
    48   1 H    0.994 --    47 C    0.979
    49   1 H    0.996 --    47 C    0.981
    50   1 H    0.997 --    47 C    0.981
    51   1 H    0.957 --    56 N    0.941
    52   1 H    0.955 --    56 N    0.942
    53   7 N    3.472 --    29 C    1.202    26 C    0.997    27 C    0.961
                            57 O    0.189
    54   7 N    3.691 --    30 C    1.220    55 N    1.220    37 C    1.005
    55   7 N    2.965 --    35 C    1.426    54 N    1.220    30 C    0.134
    56   7 N    3.369 --    36 C    1.252    52 H    0.942    51 H    0.941
                            58 O    0.193
    57   8 O    2.001 --    29 C    1.655    53 N    0.189
    58   8 O    1.972 --    36 C    1.659    56 N    0.193
    59   8 O    2.207 --    42 C    1.070    47 C    0.967
    60   1 H    0.994 --   113 C    0.973
    61   6 C    3.992 --   113 C    1.441    63 C    1.403    62 H    0.973
                           110 C    0.109
    62   1 H    0.995 --    61 C    0.973
    63   6 C    3.965 --    61 C    1.403   114 C    1.402    90 N    0.997
    64   6 C    3.968 --    69 C    0.998    65 H    0.974   116 H    0.974
                            90 N    0.961
    65   1 H    0.997 --    64 C    0.974
    66   6 C    3.957 --    94 O    1.655    90 N    1.202    67 C    1.011
    67   6 C    3.952 --    68 C    1.430    91 N    1.220    66 C    1.011
                            92 N    0.134
    68   6 C    3.981 --    67 C    1.430    72 C    1.322    69 C    1.012
    69   6 C    3.989 --    68 C    1.012    64 C    0.998    71 H    0.963
                            70 H    0.961
    70   1 H    0.994 --    69 C    0.961
    71   1 H    0.992 --    69 C    0.963
    72   6 C    3.968 --    92 N    1.426    68 C    1.322    73 C    1.000
    73   6 C    3.952 --    95 O    1.659    93 N    1.252    72 C    1.000
    74   6 C    3.956 --    75 C    1.402    82 C    1.371    91 N    1.005
    75   6 C    3.991 --    77 C    1.435    74 C    1.402    76 H    0.973
                            80 C    0.108
    76   1 H    0.995 --    75 C    0.973
    77   6 C    3.991 --    75 C    1.435    79 C    1.380    78 H    0.971
    78   1 H    0.995 --    77 C    0.971
    79   6 C    3.933 --    77 C    1.380    80 C    1.344    96 O    1.070
    80   6 C    3.991 --    82 C    1.476    79 C    1.344    81 H    0.972
                            75 C    0.108
    81   1 H    0.993 --    80 C    0.972
    82   6 C    3.990 --    80 C    1.476    74 C    1.371    83 H    0.972
    83   1 H    0.993 --    82 C    0.972
    84   6 C    3.936 --    87 H    0.981    86 H    0.981    85 H    0.979
                            96 O    0.967
    85   1 H    0.994 --    84 C    0.979
    86   1 H    0.996 --    84 C    0.981
    87   1 H    0.997 --    84 C    0.981
    88   1 H    0.957 --    93 N    0.941
    89   1 H    0.955 --    93 N    0.942
    90   7 N    3.472 --    66 C    1.202    63 C    0.997    64 C    0.961
                            94 O    0.189
    91   7 N    3.691 --    67 C    1.220    92 N    1.220    74 C    1.005
    92   7 N    2.965 --    72 C    1.426    91 N    1.220    67 C    0.134
    93   7 N    3.369 --    73 C    1.252    89 H    0.942    88 H    0.941
                            95 O    0.193
    94   8 O    2.001 --    66 C    1.655    90 N    0.189
    95   8 O    1.972 --    73 C    1.659    93 N    0.193
    96   8 O    2.207 --    79 C    1.070    84 C    0.967
    97   6 C    3.971 --   100 C    1.007    99 H    0.974    98 H    0.972
                           117 N    0.960
    98   1 H    0.997 --    97 C    0.972
    99   1 H    0.996 --    97 C    0.974
   100   6 C    3.992 --    97 C    1.007   103 C    1.006   101 H    0.979
                           102 H    0.971
   101   1 H    0.997 --   100 C    0.979
   102   1 H    0.996 --   100 C    0.971
   103   6 C    3.994 --   100 C    1.006   106 C    1.002   105 H    0.981
                           104 H    0.977
   104   1 H    0.997 --   103 C    0.977
   105   1 H    0.997 --   103 C    0.981
   106   6 C    3.990 --   103 C    1.002   109 C    0.976   108 H    0.964
                           107 H    0.954
   107   1 H    0.994 --   106 C    0.954
   108   1 H    0.994 --   106 C    0.964
   109   6 C    3.951 --   118 O    1.658   117 N    1.238   106 C    0.976
   110   6 C    3.994 --   114 C    1.442   112 C    1.405   111 H    0.974
                            61 C    0.109
   111   1 H    0.995 --   110 C    0.974
   112   6 C    3.968 --   110 C    1.405   113 C    1.405   117 N    0.991
   113   6 C    3.993 --    61 C    1.441   112 C    1.405    60 H    0.973
                           114 C    0.110
   114   6 C    3.993 --   110 C    1.442    63 C    1.402   115 H    0.974
                           113 C    0.110
   115   1 H    0.995 --   114 C    0.974
   116   1 H    0.995 --    64 C    0.974
   117   7 N    3.481 --   109 C    1.238   112 C    0.991    97 C    0.960
                           118 O    0.189
   118   8 O    1.967 --   109 C    1.658   117 N    0.189
 ---------------------------------------------------------------------------

Topologies differ in total number of bonds
Writing topology from bond orders to xtbtopo.mol

molecular dipole:
                 x           y           z       tot (Debye)
 q only:       -0.000       0.000       0.000
   full:       -0.000       0.000       0.000       0.000
molecular quadrupole (traceless):
                xx          xy          yy          xz          yz          zz
 q only:      -75.062     -41.480      60.607      34.490      18.182      14.455
  q+dip:      -69.244     -63.626      40.682      36.376      22.464      28.561
   full:      -66.179     -63.271      36.752      41.376      23.784      29.427


           -------------------------------------------------
          | TOTAL ENERGY             -193.658786136203 Eh   |
          | GRADIENT NORM               1.318617294817 Eh/α |
          | HOMO-LUMO GAP               3.028306731150 eV   |
           -------------------------------------------------

------------------------------------------------------------------------
 * finished run on 2026/10/03 at 19:14:28.845     
------------------------------------------------------------------------
 total:
 * wall-time:     0 d,  0 h,  0 min,  0.404 sec
 *  cpu-time:     0 d,  0 h,  0 min,  0.375 sec
 * ratio c/w:     0.928 speedup
 SCF:
 * wall-time:     0 d,  0 h,  0 min,  0.323 sec
 *  cpu-time:     0 d,  0 h,  0 min,  0.328 sec
 * ratio c/w:     1.016 speedup

normal termination of xtb
