127

O     31.74632000   -17.24191000    -0.68349000
C     31.34140000   -18.62431000    -0.68349000
C     30.51748000   -18.95261000    -1.93413000
C     30.14610000   -20.44520000    -1.93886000
C     29.32186000   -20.76863000    -0.68349000
C     30.14610000   -20.44520000     0.57188000
C     31.43343000   -21.28337000     0.57004000
C     32.25944000   -20.95595000    -0.68349000
C     31.43343000   -21.28337000    -1.93702000
C     32.61977000   -19.46087000    -0.68349000
C     30.51748000   -18.95261000     0.56715000
H     30.93774000   -16.71089000    -0.68349000
H     31.10395000   -18.69991000    -2.82806000
H     29.60746000   -18.33415000    -1.94424000
H     29.55684000   -20.67129000    -2.83785000
H     29.04084000   -21.83071000    -0.68349000
H     28.39218000   -20.18279000    -0.68349000
H     29.55684000   -20.67129000     1.47087000
H     31.18322000   -22.35303000     0.58317000
H     32.02131000   -21.07241000     1.47409000
H     33.18358000   -21.54934000    -0.68349000
H     31.18322000   -22.35303000    -1.95015000
H     32.02131000   -21.07241000    -2.84107000
H     33.21672000   -19.21113000    -1.57113000
H     33.21672000   -19.21113000     0.20415000
H     31.10395000   -18.69991000     1.46108000
H     29.60746000   -18.33415000     0.57726000
C     33.81166053   -19.97672580     5.16650986
S     34.75255271   -21.00692891     6.35293994
C     34.62786716   -19.84922033     7.76476328
O     36.26063081   -20.63097359     5.97686995
H     33.82788694   -20.50181052     4.20004578
H     32.70083017   -20.43503302     5.37798125
H     34.29154321   -18.99618444     5.08389889
H     35.09288134   -18.49195197     7.56263802
H     33.55937805   -19.89346021     8.02942874
H     35.24942196   -19.98496898     8.65832407
C     27.55556247   -23.11230357     3.86651010
S     27.25513009   -24.75415868     4.62034367
C     25.78252501   -24.26223136     5.58911743
O     28.26938781   -24.72883423     5.85634956
H     28.47477092   -23.19565922     3.26806400
H     26.89930344   -23.26318429     2.84902848
H     27.67575806   -22.36931868     4.66155714
H     25.91966059   -23.14005170     6.49530551
H     25.02111569   -24.08610700     4.81264463
H     25.38384947   -24.91558878     6.37485965
C     31.47050998   -14.36911471     2.56651008
S     32.16196857   -13.58960678     4.07265259
C     31.25837519   -12.00647513     3.91049847
O     33.55738775   -13.02795251     3.53004740
H     31.95886054   -15.34871410     2.45729096
H     30.51181890   -14.92284603     3.07934805
H     31.68279581   -13.73084235     1.70272975
H     31.40365459   -11.27513669     2.66819891
H     30.21390682   -12.29433252     4.11024306
H     31.53808845   -11.13609345     4.51663804
C     34.75106471   -24.89753072     1.26650989
S     35.29474534   -26.59681102     0.85290296
C     36.12650799   -26.93371420     2.44781610
O     36.63859451   -26.31212978     0.03430869
H     34.26059061   -24.48894920     0.37067153
H     33.65291541   -25.17040717     1.72292670
H     35.62549906   -24.29749275     1.53834130
H     37.15092066   -26.00459432     2.87977113
H     35.28688020   -26.99529054     3.15838452
H     36.78958311   -27.79991055     2.56289966
C     24.60982187   -18.85021827    -0.03349019
S     23.12432457   -19.28543463     0.94533429
C     21.91147196   -18.48304027    -0.16562594
O     23.11632182   -18.12617001     2.04674796
H     25.48346754   -19.21313601     0.52781545
H     24.66168866   -19.85135529    -0.72900744
H     24.65184774   -17.76325652    -0.15726946
H     22.10714894   -17.08039493    -0.47151280
H     21.93952286   -19.11832040    -1.06524045
H     20.87554389   -18.32219010     0.15715757
C     36.43529451   -16.50548123    -1.33348982
S     38.26074861   -16.58424556    -1.20808495
C     38.54735501   -14.78136956    -1.33683161
O     38.67092949   -16.91465215    -2.71793717
H     36.06708369   -17.54203825    -1.33287266
H     36.18020079   -16.43175889    -0.14260697
H     36.16141049   -15.99657223    -2.26331372
H     37.99843506   -14.09525600    -2.48887557
H     38.14489380   -14.39675493    -0.38616316
H     39.55441984   -14.38456803    -1.51453342
C     29.36867204   -25.96474343    -2.63348994
S     29.32224233   -27.08493801    -4.08166854
C     28.31586763   -28.39247566    -3.29006506
O     30.71701124   -27.85340238    -3.93622853
H     30.00472266   -25.11005110    -2.90729768
H     28.38362095   -25.29493753    -2.89758114
H     29.78843156   -26.50273340    -1.77736958
H     28.80130817   -28.95115786    -2.04447609
H     27.32876958   -27.91548571    -3.18147413
H     28.21425171   -29.38091579    -3.75468237
C     28.38385414   -14.98113216    -3.93348994
S     28.05196122   -13.18157683    -3.85825309
C     26.94938180   -13.12106269    -5.31761509
O     29.33394277   -12.58847362    -4.60780125
H     29.10506592   -15.20960320    -3.13493837
H     27.48154234   -15.35707822    -3.20327920
H     28.80036765   -15.22816008    -4.91535909
H     27.46292652   -13.64117873    -6.56862322
H     26.05190257   -13.65978458    -4.97412754
H     26.67006471   -12.16183679    -5.77046893
C     35.33863809   -21.56908652    -5.23349017
S     35.93369314   -22.93719066    -6.29575824
C     37.45421654   -22.09645414    -6.87043336
O     35.10087565   -22.68557816    -7.63746490
H     34.36348253   -21.87660903    -4.82786524
H     35.86412285   -21.91643022    -4.18853664
H     35.23899862   -20.66237823    -5.83890355
H     37.30742192   -20.79754306    -7.49537459
H     38.07650561   -22.05904827    -5.96212115
H     38.03141297   -22.49528652    -7.71363320
C     28.35944209   -21.05778355    -6.53349000
S     26.81120351   -20.93849773    -7.50454153
C     27.40315984   -21.90297537    -8.94275271
O     26.97836203   -19.50740700    -8.19816098
H     28.21294223   -20.46429546    -5.61897387
H     28.09326508   -22.06685673    -5.90132636
H     29.18717177   -20.65752550    -7.12782188
H     28.62019964   -21.46033687    -9.59248764
H     27.48852693   -22.92457075    -8.53935552
H     26.84041888   -21.90907281    -9.88429102