      -----------------------------------------------------------      
     |                   =====================                   |     
     |                           x T B                           |     
     |                   =====================                   |     
     |                         S. Grimme                         |     
     |          Mulliken Center for Theoretical Chemistry        |     
     |                    University of Bonn                     |     
      -----------------------------------------------------------      

   * xtb version 6.7.1pre (5071a88) compiled by 'Marcel@Raven' on 2024-07-23

   xtb is free software: you can redistribute it and/or modify it under
   the terms of the GNU Lesser General Public License as published by
   the Free Software Foundation, either version 3 of the License, or
   (at your option) any later version.
   
   xtb is distributed in the hope that it will be useful,
   but WITHOUT ANY WARRANTY; without even the implied warranty of
   MERCHANTABILITY or FITNESS FOR A PARTICULAR PURPOSE.  See the
   GNU Lesser General Public License for more details.
   
   Cite this work as:
   * C. Bannwarth, E. Caldeweyher, S. Ehlert, A. Hansen, P. Pracht,
     J. Seibert, S. Spicher, S. Grimme, WIREs Comput. Mol. Sci., 2020, 11,
     e01493. DOI: 10.1002/wcms.1493
   
   for GFN2-xTB:
   * C. Bannwarth, S. Ehlert and S. Grimme., J. Chem. Theory Comput., 2019,
     15, 1652-1671. DOI: 10.1021/acs.jctc.8b01176
   for GFN1-xTB:
   * S. Grimme, C. Bannwarth, P. Shushkov, J. Chem. Theory Comput., 2017,
     13, 1989-2009. DOI: 10.1021/acs.jctc.7b00118
   for GFN0-xTB:
   * P. Pracht, E. Caldeweyher, S. Ehlert, S. Grimme, ChemRxiv, 2019, preprint.
     DOI: 10.26434/chemrxiv.8326202.v1
   for GFN-FF:
   * S. Spicher and S. Grimme, Angew. Chem. Int. Ed., 2020, 59, 15665-15673.
     DOI: 10.1002/anie.202004239
   
   for ALPB and GBSA implicit solvation:
   * S. Ehlert, M. Stahn, S. Spicher, S. Grimme, J. Chem. Theory Comput.,
     2021, 17, 4250-4261. DOI: 10.1021/acs.jctc.1c00471
   
   for ddCOSMO and CPCM-X implicit solvation:
   * M. Stahn, S. Ehlert, S. Grimme, J. Phys. Chem. A,
     2023, XX, XXXX-XXXX. DOI: 10.1021/acs.jpca.3c04382
   
   for DFT-D4:
   * E. Caldeweyher, C. Bannwarth and S. Grimme, J. Chem. Phys., 2017,
     147, 034112. DOI: 10.1063/1.4993215
   * E. Caldeweyher, S. Ehlert, A. Hansen, H. Neugebauer, S. Spicher,
     C. Bannwarth and S. Grimme, J. Chem. Phys., 2019, 150, 154122.
     DOI: 10.1063/1.5090222
   * E. Caldeweyher, J.-M. Mewes, S. Ehlert and S. Grimme, Phys. Chem. Chem. Phys.
     2020, 22, 8499-8512. DOI: 10.1039/D0CP00502A
   
   for sTDA-xTB:
   * S. Grimme and C. Bannwarth, J. Chem. Phys., 2016, 145, 054103.
     DOI: 10.1063/1.4959605
   
   in the mass-spec context:
   * V. Asgeirsson, C. Bauer and S. Grimme, Chem. Sci., 2017, 8, 4879.
     DOI: 10.1039/c7sc00601b
   * J. Koopman and S. Grimme, ACS Omega 2019, 4, 12, 15120-15133.
     DOI: 10.1021/acsomega.9b02011
   
   for metadynamics refer to:
   * S. Grimme, J. Chem. Theory Comput., 2019, 155, 2847-2862
     DOI: 10.1021/acs.jctc.9b00143
   
   for SPH calculations refer to:
   * S. Spicher and S. Grimme, J. Chem. Theory Comput., 2021, 17, 1701-1714
     DOI: 10.1021/acs.jctc.0c01306
   
   for ONIOM refer to:
   * C. Plett, A. Katbashev, S. Ehlert, S. Grimme, M. Bursch,
     Phys. Chem. Chem. Phys., 2023, 25, 17860-17868. DOI: 10.1039/D3CP02178E
   
   for DIPRO refer to:
   * J. Kohn, N. Gildemeister, S. Grimme, D. Fazzi, A. Hansen,
     J. Chem. Phys., 2023, just accepted.
   
   for PTB refer to:
   * S. Grimme, M. Mueller, A. Hansen, J. Chem. Phys., 2023, 158, 124111.
     DOI: 10.1063/5.0137838
   
   with help from (in alphabetical order)
   P. Atkinson, C. Bannwarth, F. Bohle, G. Brandenburg, E. Caldeweyher
   M. Checinski, S. Dohm, S. Ehlert, S. Ehrlich, I. Gerasimov, C. Hölzer
   A. Katbashev, J. Kohn, J. Koopman, C. Lavigne, S. Lehtola, F. März, M. Müller,
   F. Musil, H. Neugebauer, J. Pisarek, C. Plett, P. Pracht, F. Pultar,
   J. Seibert, P. Shushkov, S. Spicher, M. Stahn, M. Steiner, T. Strunk,
   J. Stückrath, T. Rose, and J. Unsleber
   
 * started run on 2026/10/03 at 19:14:12.591     
   ID    Z sym.   atoms
    1    6 C      1, 4, 7, 10, 13, 14, 16-18, 24, 26, 27, 29-32, 35-38, 40,
                  42, 43, 45, 47, 60, 64, 65, 67, 72, 74, 77-80, 83-86, 88,
                  89, 99, 102, 105, 108, 109, 111, 112, 114, 116
    2    1 H      2, 3, 5, 6, 8, 9, 11, 12, 15, 19, 20, 23, 25, 28, 33, 34,
                  39, 41, 44, 46, 48-52, 61, 62, 66, 68-70, 73, 75, 76, 81,
                  82, 87, 90-92, 100, 101, 103, 104, 106, 107, 110, 113, 115,
                  117
    3    7 N      21, 53-56, 93-96, 118
    4    8 O      22, 57-59, 63, 71, 97, 98

           -------------------------------------------------
          |                Calculation Setup                |
           -------------------------------------------------

          program call               : C:\ORCA_6.1.1\xTB_bigstack\xtb.exe d_D3a_D1a.xyz -c 0 -u 0 -P 1 --acc 1.0 --namespace d_D3a_D1a
          calculation namespace      : d_D3a_D1a
          coordinate file            : d_D3a_D1a.xyz
          omp threads                :                     1


molecular fragmentation (1/2 indicates fragments):
111111111111111111111111111111111111111111111111111111111112222222222222
2222222222222222222222222222222222222222222222
# atoms in fragment 1/2:    59    59
 fragment masses (1/2) :      459.50      459.50
CMA distance (Bohr)    :  27.006
constraining FC (au)   :  0.0500

           -------------------------------------------------
          |                 G F N 2 - x T B                 |
           -------------------------------------------------

        Reference                      10.1021/acs.jctc.8b01176
      * Hamiltonian:
        H0-scaling (s, p, d)           1.850000    2.230000    2.230000
        zeta-weighting                 0.500000
      * Dispersion:
        s8                             2.700000
        a1                             0.520000
        a2                             5.000000
        s9                             5.000000
      * Repulsion:
        kExp                           1.500000    1.000000
        rExp                           1.000000
      * Coulomb:
        alpha                          2.000000
        third order                    shell-resolved
        anisotropic                    true
        a3                             3.000000
        a5                             4.000000
        cn-shift                       1.200000
        cn-exp                         4.000000
        max-rad                        5.000000


          ...................................................
          :                      SETUP                      :
          :.................................................:
          :  # basis functions                 322          :
          :  # atomic orbitals                 322          :
          :  # shells                          186          :
          :  # electrons                       348          :
          :  max. iterations                   250          :
          :  Hamiltonian                  GFN2-xTB          :
          :  restarted?                      false          :
          :  GBSA solvation                  false          :
          :  PC potential                    false          :
          :  electronic temp.          300.0000000     K    :
          :  accuracy                    1.0000000          :
          :  -> integral cutoff          0.2500000E+02      :
          :  -> integral neglect         0.1000000E-07      :
          :  -> SCF convergence          0.1000000E-05 Eh   :
          :  -> wf. convergence          0.1000000E-03 e    :
          :  Broyden damping             0.4000000          :
          :  net charge                          0          :
          :  unpaired electrons                  0          :
          ...................................................

 iter      E             dE          RMSdq      gap      omega  full diag
   1   -197.4388051 -0.197439E+03  0.413E+00    2.88       0.0  T
   2   -197.9693086 -0.530503E+00  0.242E+00    2.64       1.0  T
   3   -198.0208342 -0.515256E-01  0.130E+00    3.07       1.0  T
   4   -198.0278072 -0.697296E-02  0.435E-01    2.85       1.0  T
   5   -198.0426847 -0.148775E-01  0.916E-02    2.91       1.0  T
   6   -198.0428871 -0.202374E-03  0.528E-02    2.92       1.0  T
   7   -198.0430511 -0.163994E-03  0.222E-02    2.94       1.0  T
   8   -198.0430582 -0.715235E-05  0.830E-03    2.94       1.1  T
   9   -198.0430611 -0.288777E-05  0.364E-03    2.95       2.5  T
  10   -198.0430613 -0.208095E-06  0.147E-03    2.94       6.2  T
  11   -198.0430614 -0.124620E-06  0.551E-04    2.94      16.7  T
  12   -198.0430615 -0.110683E-07  0.259E-04    2.94      35.6  T

   *** convergence criteria satisfied after 12 iterations ***

         #    Occupation            Energy/Eh            Energy/eV
      -------------------------------------------------------------
         1        2.0000           -0.7225145             -19.6606
       ...           ...                  ...                  ...
       168        2.0000           -0.3857894             -10.4979
       169        2.0000           -0.3853744             -10.4866
       170        2.0000           -0.3827219             -10.4144
       171        2.0000           -0.3817780             -10.3887
       172        2.0000           -0.3804786             -10.3534
       173        2.0000           -0.3791488             -10.3172
       174        2.0000           -0.3775850             -10.2746 (HOMO)
       175                         -0.2693991              -7.3307 (LUMO)
       176                         -0.2658210              -7.2334
       177                         -0.2423231              -6.5939
       178                         -0.2380070              -6.4765
       179                         -0.2374891              -6.4624
       ...                                ...                  ...
       322                          0.8700558              23.6754
      -------------------------------------------------------------
                  HL-Gap            0.1081859 Eh            2.9439 eV
             Fermi-level           -0.3234920 Eh           -8.8027 eV

 SCC (total)                   0 d,  0 h,  0 min,  0.381 sec
 SCC setup                      ...        0 min,  0.001 sec (  0.263%)
 Dispersion                     ...        0 min,  0.002 sec (  0.525%)
 classical contributions        ...        0 min,  0.001 sec (  0.262%)
 integral evaluation            ...        0 min,  0.032 sec (  8.399%)
 iterations                     ...        0 min,  0.210 sec ( 55.118%)
 molecular gradient             ...        0 min,  0.133 sec ( 34.908%)
 printout                       ...        0 min,  0.002 sec (  0.525%)

         :::::::::::::::::::::::::::::::::::::::::::::::::::::
         ::                     SUMMARY                     ::
         :::::::::::::::::::::::::::::::::::::::::::::::::::::
         :: total energy            -193.661176782231 Eh    ::
         :: gradient norm              1.318612030611 Eh/a0 ::
         :: HOMO-LUMO gap              2.943887617056 eV    ::
         ::.................................................::
         :: SCC energy              -198.043981676113 Eh    ::
         :: -> isotropic ES            0.296655188072 Eh    ::
         :: -> anisotropic ES          0.006017699140 Eh    ::
         :: -> anisotropic XC          0.036970413130 Eh    ::
         :: -> dispersion             -0.142385214688 Eh    ::
         :: repulsion energy           4.382804893882 Eh    ::
         :: add. restraining           0.000000000000 Eh    ::
         :: total charge               0.000000000000 e     ::
         :::::::::::::::::::::::::::::::::::::::::::::::::::::

           -------------------------------------------------
          |                Property Printout                |
           -------------------------------------------------

    * Orbital Energies and Occupations

         #    Occupation            Energy/Eh            Energy/eV
      -------------------------------------------------------------
         1        2.0000           -0.7225145             -19.6606
       ...           ...                  ...                  ...
       162        2.0000           -0.4056125             -11.0373
       163        2.0000           -0.3996747             -10.8757
       164        2.0000           -0.3955529             -10.7635
       165        2.0000           -0.3917617             -10.6604
       166        2.0000           -0.3887946             -10.5796
       167        2.0000           -0.3872920             -10.5388
       168        2.0000           -0.3857894             -10.4979
       169        2.0000           -0.3853744             -10.4866
       170        2.0000           -0.3827219             -10.4144
       171        2.0000           -0.3817780             -10.3887
       172        2.0000           -0.3804786             -10.3534
       173        2.0000           -0.3791488             -10.3172
       174        2.0000           -0.3775850             -10.2746 (HOMO)
       175                         -0.2693991              -7.3307 (LUMO)
       176                         -0.2658210              -7.2334
       177                         -0.2423231              -6.5939
       178                         -0.2380070              -6.4765
       179                         -0.2374891              -6.4624
       180                         -0.2327482              -6.3334
       181                         -0.2315089              -6.2997
       182                         -0.2307005              -6.2777
       183                         -0.2300041              -6.2587
       184                         -0.2266740              -6.1681
       185                         -0.2151622              -5.8549
       ...                                ...                  ...
       322                          0.8700558              23.6754
      -------------------------------------------------------------
                  HL-Gap            0.1081859 Eh            2.9439 eV
             Fermi-level           -0.3234920 Eh           -8.8027 eV

     #   Z          covCN         q      C6AA      α(0)
     1   6 C        3.762    -0.011    20.818     6.504
     2   1 H        0.930     0.058     2.216     2.328
     3   1 H        0.930     0.060     2.199     2.319
     4   6 C        3.827    -0.082    22.049     6.682
     5   1 H        0.930     0.054     2.267     2.354
     6   1 H        0.930     0.057     2.233     2.337
     7   6 C        3.825    -0.078    21.966     6.669
     8   1 H        0.930     0.048     2.348     2.396
     9   1 H        0.930     0.052     2.299     2.371
    10   6 C        3.826    -0.107    22.521     6.753
    11   1 H        0.930     0.072     2.061     2.245
    12   1 H        0.930     0.076     2.022     2.223
    13   6 C        2.766     0.269    22.466     7.762
    14   6 C        2.935    -0.055    29.366     8.887
    15   1 H        0.930     0.067     2.119     2.276
    16   6 C        2.930     0.070    26.443     8.433
    17   6 C        2.938    -0.042    29.055     8.840
    18   6 C        2.935    -0.056    29.395     8.892
    19   1 H        0.930     0.070     2.088     2.260
    20   1 H        0.930     0.071     2.077     2.254
    21   7 N        2.739    -0.112    23.452     7.192
    22   8 O        0.859    -0.464    23.009     6.431
    23   1 H        0.930     0.074     2.037     2.232
    24   6 C        2.936    -0.044    29.087     8.845
    25   1 H        0.930     0.072     2.068     2.248
    26   6 C        2.928     0.070    26.436     8.432
    27   6 C        3.764    -0.013    20.842     6.507
    28   1 H        0.930     0.058     2.216     2.328
    29   6 C        2.767     0.269    22.466     7.763
    30   6 C        3.096    -0.009    28.117     8.691
    31   6 C        3.070    -0.015    28.324     8.726
    32   6 C        3.821    -0.083    22.059     6.684
    33   1 H        0.930     0.078     2.003     2.213
    34   1 H        0.930     0.084     1.934     2.175
    35   6 C        3.172     0.026    27.042     8.495
    36   6 C        2.748     0.278    22.300     7.732
    37   6 C        2.920     0.046    26.963     8.515
    38   6 C        2.934    -0.042    29.035     8.837
    39   1 H        0.930     0.070     2.081     2.256
    40   6 C        2.932    -0.079    29.962     8.977
    41   1 H        0.930     0.068     2.102     2.267
    42   6 C        2.878     0.144    24.857     8.173
    43   6 C        2.936    -0.067    29.664     8.932
    44   1 H        0.930     0.078     1.997     2.210
    45   6 C        2.932    -0.046    29.149     8.854
    46   1 H        0.930     0.080     1.982     2.202
    47   6 C        3.664     0.013    20.624     6.514
    48   1 H        0.930     0.072     2.058     2.243
    49   1 H        0.930     0.059     2.207     2.323
    50   1 H        0.930     0.056     2.240     2.340
    51   1 H        0.862     0.205     1.078     1.626
    52   1 H        0.863     0.211     1.049     1.605
    53   7 N        2.745    -0.119    23.597     7.215
    54   7 N        3.019     0.088    19.705     6.593
    55   7 N        1.991    -0.242    27.121     7.724
    56   7 N        2.645    -0.284    27.329     7.764
    57   8 O        0.858    -0.444    22.589     6.372
    58   8 O        0.860    -0.449    22.681     6.385
    59   8 O        1.705    -0.281    18.668     5.833
    60   6 C        3.826    -0.107    22.519     6.752
    61   1 H        0.930     0.074     2.037     2.232
    62   1 H        0.930     0.077     2.013     2.219
    63   8 O        0.859    -0.466    23.054     6.437
    64   6 C        2.878     0.145    24.853     8.173
    65   6 C        2.936    -0.067    29.660     8.932
    66   1 H        0.930     0.079     1.994     2.208
    67   6 C        3.664     0.013    20.626     6.514
    68   1 H        0.930     0.073     2.055     2.241
    69   1 H        0.930     0.059     2.208     2.323
    70   1 H        0.930     0.057     2.237     2.339
    71   8 O        1.705    -0.281    18.660     5.832
    72   6 C        2.928     0.070    26.432     8.431
    73   1 H        0.930     0.066     2.130     2.282
    74   6 C        3.764    -0.013    20.847     6.508
    75   1 H        0.930     0.059     2.204     2.322
    76   1 H        0.930     0.070     2.087     2.259
    77   6 C        2.767     0.269    22.466     7.762
    78   6 C        3.096    -0.009    28.128     8.692
    79   6 C        3.070    -0.016    28.333     8.728
    80   6 C        3.821    -0.083    22.060     6.684
    81   1 H        0.930     0.076     2.025     2.225
    82   1 H        0.930     0.086     1.918     2.165
    83   6 C        3.172     0.027    27.034     8.493
    84   6 C        2.748     0.278    22.303     7.733
    85   6 C        2.920     0.046    26.970     8.516
    86   6 C        2.934    -0.042    29.038     8.838
    87   1 H        0.930     0.070     2.083     2.257
    88   6 C        2.932    -0.078    29.961     8.977
    89   6 C        2.932    -0.046    29.150     8.854
    90   1 H        0.930     0.080     1.981     2.201
    91   1 H        0.862     0.206     1.075     1.624
    92   1 H        0.863     0.211     1.049     1.604
    93   7 N        2.745    -0.121    23.621     7.218
    94   7 N        3.019     0.089    19.704     6.593
    95   7 N        1.991    -0.241    27.096     7.720
    96   7 N        2.645    -0.284    27.321     7.763
    97   8 O        0.858    -0.444    22.580     6.371
    98   8 O        0.860    -0.447    22.648     6.381
    99   6 C        3.762    -0.011    20.811     6.503
   100   1 H        0.930     0.057     2.236     2.338
   101   1 H        0.930     0.060     2.197     2.317
   102   6 C        3.827    -0.083    22.059     6.683
   103   1 H        0.930     0.055     2.253     2.347
   104   1 H        0.930     0.057     2.230     2.335
   105   6 C        3.825    -0.080    21.998     6.674
   106   1 H        0.930     0.053     2.283     2.363
   107   1 H        0.930     0.051     2.312     2.378
   108   6 C        2.766     0.268    22.474     7.764
   109   6 C        2.935    -0.057    29.404     8.893
   110   1 H        0.930     0.065     2.145     2.290
   111   6 C        2.930     0.070    26.440     8.433
   112   6 C        2.938    -0.042    29.032     8.837
   113   1 H        0.930     0.075     2.027     2.226
   114   6 C        2.936    -0.043    29.069     8.842
   115   1 H        0.930     0.073     2.055     2.242
   116   6 C        2.935    -0.058    29.432     8.897
   117   1 H        0.930     0.069     2.101     2.266
   118   7 N        2.739    -0.113    23.470     7.195

 Mol. C6AA /au·bohr⁶  :     167562.605418
 Mol. C8AA /au·bohr⁸  :    4001367.961901
 Mol. α(0) /au        :        634.467508


Wiberg/Mayer (AO) data.
largest (>0.10) Wiberg bond orders for each atom

 ---------------------------------------------------------------------------
     #   Z sym  total        # sym  WBO       # sym  WBO       # sym  WBO
 ---------------------------------------------------------------------------
     1   6 C    3.971 --     4 C    1.007     3 H    0.974     2 H    0.972
                            21 N    0.961
     2   1 H    0.997 --     1 C    0.972
     3   1 H    0.996 --     1 C    0.974
     4   6 C    3.992 --     1 C    1.007     7 C    1.006     5 H    0.980
                             6 H    0.971
     5   1 H    0.997 --     4 C    0.980
     6   1 H    0.996 --     4 C    0.971
     7   6 C    3.994 --     4 C    1.006    10 C    1.002     9 H    0.981
                             8 H    0.976
     8   1 H    0.998 --     7 C    0.976
     9   1 H    0.997 --     7 C    0.981
    10   6 C    3.990 --     7 C    1.002    13 C    0.975    12 H    0.964
                            11 H    0.956
    11   1 H    0.994 --    10 C    0.956
    12   1 H    0.994 --    10 C    0.964
    13   6 C    3.951 --    22 O    1.661    21 N    1.237    10 C    0.975
    14   6 C    3.994 --    18 C    1.442    16 C    1.406    15 H    0.974
                            24 C    0.109
    15   1 H    0.995 --    14 C    0.974
    16   6 C    3.968 --    14 C    1.406    17 C    1.405    21 N    0.991
    17   6 C    3.993 --    24 C    1.440    16 C    1.405    23 H    0.973
                            18 C    0.110
    18   6 C    3.993 --    14 C    1.442    26 C    1.402    19 H    0.974
                            17 C    0.110
    19   1 H    0.995 --    18 C    0.974
    20   1 H    0.995 --    27 C    0.974
    21   7 N    3.481 --    13 C    1.237    16 C    0.991     1 C    0.961
                            22 O    0.190
    22   8 O    1.971 --    13 C    1.661    21 N    0.190
    23   1 H    0.994 --    17 C    0.973
    24   6 C    3.992 --    17 C    1.440    26 C    1.404    25 H    0.973
                            14 C    0.109
    25   1 H    0.995 --    24 C    0.973
    26   6 C    3.965 --    24 C    1.404    18 C    1.402    53 N    0.997
    27   6 C    3.967 --    32 C    0.998    28 H    0.974    20 H    0.974
                            53 N    0.961
    28   1 H    0.997 --    27 C    0.974
    29   6 C    3.957 --    57 O    1.654    53 N    1.202    30 C    1.011
    30   6 C    3.952 --    31 C    1.430    54 N    1.219    29 C    1.011
                            55 N    0.134
    31   6 C    3.981 --    30 C    1.430    35 C    1.322    32 C    1.012
    32   6 C    3.989 --    31 C    1.012    27 C    0.998    34 H    0.962
                            33 H    0.960
    33   1 H    0.994 --    32 C    0.960
    34   1 H    0.992 --    32 C    0.962
    35   6 C    3.968 --    55 N    1.426    31 C    1.322    36 C    1.000
    36   6 C    3.952 --    58 O    1.660    56 N    1.252    35 C    1.000
    37   6 C    3.956 --    38 C    1.402    45 C    1.372    54 N    1.005
    38   6 C    3.991 --    40 C    1.435    37 C    1.402    39 H    0.973
                            43 C    0.108
    39   1 H    0.995 --    38 C    0.973
    40   6 C    3.991 --    38 C    1.435    42 C    1.380    41 H    0.971
    41   1 H    0.995 --    40 C    0.971
    42   6 C    3.932 --    40 C    1.380    43 C    1.344    59 O    1.070
    43   6 C    3.991 --    45 C    1.476    42 C    1.344    44 H    0.972
                            38 C    0.108
    44   1 H    0.993 --    43 C    0.972
    45   6 C    3.990 --    43 C    1.476    37 C    1.372    46 H    0.972
    46   1 H    0.993 --    45 C    0.972
    47   6 C    3.936 --    49 H    0.981    50 H    0.981    48 H    0.980
                            59 O    0.967
    48   1 H    0.994 --    47 C    0.980
    49   1 H    0.996 --    47 C    0.981
    50   1 H    0.997 --    47 C    0.981
    51   1 H    0.957 --    56 N    0.942
    52   1 H    0.955 --    56 N    0.942
    53   7 N    3.472 --    29 C    1.202    26 C    0.997    27 C    0.961
                            57 O    0.189
    54   7 N    3.691 --    30 C    1.219    55 N    1.219    37 C    1.005
    55   7 N    2.965 --    35 C    1.426    54 N    1.219    30 C    0.134
    56   7 N    3.369 --    36 C    1.252    52 H    0.942    51 H    0.942
                            58 O    0.193
    57   8 O    2.000 --    29 C    1.654    53 N    0.189
    58   8 O    1.973 --    36 C    1.660    56 N    0.193
    59   8 O    2.206 --    42 C    1.070    47 C    0.967
    60   6 C    3.990 --   105 C    1.002   108 C    0.976    62 H    0.964
                            61 H    0.954
    61   1 H    0.994 --    60 C    0.954
    62   1 H    0.994 --    60 C    0.964
    63   8 O    1.969 --   108 C    1.659   118 N    0.189
    64   6 C    3.933 --    88 C    1.380    65 C    1.344    71 O    1.071
    65   6 C    3.991 --    89 C    1.476    64 C    1.344    66 H    0.972
                            86 C    0.108
    66   1 H    0.993 --    65 C    0.972
    67   6 C    3.936 --    69 H    0.981    70 H    0.981    68 H    0.979
                            71 O    0.967
    68   1 H    0.994 --    67 C    0.979
    69   1 H    0.996 --    67 C    0.981
    70   1 H    0.997 --    67 C    0.981
    71   8 O    2.207 --    64 C    1.071    67 C    0.967
    72   6 C    3.966 --   114 C    1.403   116 C    1.401    93 N    0.997
    73   1 H    0.995 --   116 C    0.973
    74   6 C    3.967 --    80 C    0.998    75 H    0.974    76 H    0.974
                            93 N    0.961
    75   1 H    0.996 --    74 C    0.974
    76   1 H    0.995 --    74 C    0.974
    77   6 C    3.957 --    97 O    1.656    93 N    1.200    78 C    1.011
    78   6 C    3.952 --    79 C    1.430    94 N    1.219    77 C    1.011
                            95 N    0.134
    79   6 C    3.980 --    78 C    1.430    83 C    1.323    80 C    1.012
    80   6 C    3.989 --    79 C    1.012    74 C    0.998    82 H    0.962
                            81 H    0.961
    81   1 H    0.994 --    80 C    0.961
    82   1 H    0.992 --    80 C    0.962
    83   6 C    3.968 --    95 N    1.427    79 C    1.323    84 C    0.999
    84   6 C    3.952 --    98 O    1.661    96 N    1.253    83 C    0.999
    85   6 C    3.956 --    86 C    1.402    89 C    1.371    94 N    1.005
    86   6 C    3.992 --    88 C    1.435    85 C    1.402    87 H    0.973
                            65 C    0.108
    87   1 H    0.995 --    86 C    0.973
    88   6 C    3.991 --    86 C    1.435    64 C    1.380   117 H    0.971
    89   6 C    3.990 --    65 C    1.476    85 C    1.371    90 H    0.972
    90   1 H    0.993 --    89 C    0.972
    91   1 H    0.957 --    96 N    0.941
    92   1 H    0.955 --    96 N    0.942
    93   7 N    3.470 --    77 C    1.200    72 C    0.997    74 C    0.961
                            97 O    0.188
    94   7 N    3.691 --    95 N    1.220    78 C    1.219    85 C    1.005
    95   7 N    2.966 --    83 C    1.427    94 N    1.220    78 C    0.134
    96   7 N    3.370 --    84 C    1.253    92 H    0.942    91 H    0.941
                            98 O    0.193
    97   8 O    2.001 --    77 C    1.656    93 N    0.188
    98   8 O    1.974 --    84 C    1.661    96 N    0.193
    99   6 C    3.971 --   102 C    1.007   101 H    0.974   100 H    0.973
                           118 N    0.960
   100   1 H    0.997 --    99 C    0.973
   101   1 H    0.996 --    99 C    0.974
   102   6 C    3.992 --    99 C    1.007   105 C    1.006   103 H    0.979
                           104 H    0.971
   103   1 H    0.997 --   102 C    0.979
   104   1 H    0.996 --   102 C    0.971
   105   6 C    3.994 --   102 C    1.006    60 C    1.002   107 H    0.981
                           106 H    0.977
   106   1 H    0.997 --   105 C    0.977
   107   1 H    0.997 --   105 C    0.981
   108   6 C    3.951 --    63 O    1.659   118 N    1.237    60 C    0.976
   109   6 C    3.994 --   116 C    1.442   111 C    1.405   110 H    0.975
                           114 C    0.109
   110   1 H    0.995 --   109 C    0.975
   111   6 C    3.968 --   109 C    1.405   112 C    1.405   118 N    0.991
   112   6 C    3.993 --   114 C    1.441   111 C    1.405   113 H    0.973
                           116 C    0.110
   113   1 H    0.994 --   112 C    0.973
   114   6 C    3.992 --   112 C    1.441    72 C    1.403   115 H    0.973
                           109 C    0.109
   115   1 H    0.995 --   114 C    0.973
   116   6 C    3.993 --   109 C    1.442    72 C    1.401    73 H    0.973
                           112 C    0.110
   117   1 H    0.995 --    88 C    0.971
   118   7 N    3.480 --   108 C    1.237   111 C    0.991    99 C    0.960
                            63 O    0.189
 ---------------------------------------------------------------------------

Topologies differ in total number of bonds
Writing topology from bond orders to xtbtopo.mol

molecular dipole:
                 x           y           z       tot (Debye)
 q only:       -0.655      -0.059       3.047
   full:       -1.036      -0.069       3.432       9.114
molecular quadrupole (traceless):
                xx          xy          yy          xz          yz          zz
 q only:     -365.746     -67.890    -182.340     132.430     312.584     548.086
  q+dip:     -424.595    -113.958    -212.622     110.114     359.142     637.217
   full:     -421.530    -113.954    -216.553     115.107     359.142     638.083


           -------------------------------------------------
          | TOTAL ENERGY             -193.661176782231 Eh   |
          | GRADIENT NORM               1.318612030611 Eh/α |
          | HOMO-LUMO GAP               2.943887617056 eV   |
           -------------------------------------------------

------------------------------------------------------------------------
 * finished run on 2026/10/03 at 19:14:13.077     
------------------------------------------------------------------------
 total:
 * wall-time:     0 d,  0 h,  0 min,  0.484 sec
 *  cpu-time:     0 d,  0 h,  0 min,  0.438 sec
 * ratio c/w:     0.904 speedup
 SCF:
 * wall-time:     0 d,  0 h,  0 min,  0.383 sec
 *  cpu-time:     0 d,  0 h,  0 min,  0.375 sec
 * ratio c/w:     0.979 speedup

normal termination of xtb
