118
d_D3a_D1a
C     25.91324538    39.09660179    43.40885425
H     26.60741581    38.47993178    43.12551465
H     26.34412664    39.92921012    43.65726804
C     25.24561490    38.54083746    44.59239886
H     24.80614842    39.26201608    45.07160620
H     25.91560690    38.16156118    45.18173265
C     24.24908706    37.50405668    44.27256021
H     23.79152110    37.23828644    45.08576532
H     24.70268061    36.72335660    43.91685180
C     23.24636503    37.98687262    43.27827576
H     22.59275716    38.53114792    43.74379596
H     22.77910140    37.21752314    42.91784765
C     23.79585209    38.78459860    42.13453400
C     26.63255542    39.68600267    40.46895023
H     27.04445199    38.88273980    40.69486676
C     25.54542216    40.12784569    41.19153701
C     24.95768419    41.32713390    40.86052839
C     27.11189049    40.43237409    39.41189371
H     27.85495023    40.13822734    38.93599015
H     26.76903533    40.73897882    36.68626427
N     25.01577806    39.34949878    42.27502387
O     23.14108628    38.92606589    41.10548106
H     24.24247238    41.64425870    41.36349158
C     25.42008065    42.05952470    39.79293120
H     25.00584134    42.86098808    39.56685734
C     26.49181645    41.61145269    39.05964642
C     26.70312007    41.70211910    36.59013962
H     25.80622611    41.91141316    36.28666261
C     27.16532686    43.68058474    38.01297325
C     27.37709298    44.32646179    36.70781759
C     27.70702117    43.65649931    35.56439047
C     27.70212606    42.16790913    35.54818615
H     28.58681789    41.82835996    35.75648245
H     27.44648784    41.84358638    34.67095038
C     27.98966607    44.65562931    34.63209148
C     28.46068506    44.48204812    33.23993593
C     27.16049444    46.77999174    37.27591270
C     26.06154869    46.73223615    38.10359158
H     25.50717959    45.98517262    38.09745596
C     25.78234755    47.79116445    38.94055254
H     25.04192637    47.75835844    39.50078148
C     26.59873206    48.89591044    38.94558689
C     27.67807229    48.95515505    38.08156629
H     28.21235087    49.71564552    38.06284479
C     27.96542454    47.90231732    37.25310080
H     28.69699997    47.94245970    36.67997133
C     25.42716093    49.86417233    40.76188656
H     25.44464661    50.64584136    41.31944100
H     25.58469521    49.08444120    41.29898895
H     24.56773413    49.79316184    40.33931567
H     28.68662279    45.53253268    31.64561970
H     28.04756836    46.24263754    32.75003059
N     26.93156476    42.33678397    37.90127357
N     27.46659002    45.66264936    36.44068230
N     27.82756186    45.87526555    35.15786658
N     28.42064811    45.56810713    32.47377054
O     27.27845798    44.25102180    39.07868256
O     28.88367393    43.39848071    32.87510276
O     26.43449692    49.96743514    39.77090591
C     17.73376538    38.14522738    51.14445018
H     17.08015751    37.60095208    51.60997038
H     17.26650175    38.91457686    50.78402207
O     17.62848663    37.20603411    48.97165548
C     21.08613240    27.23618956    46.81176131
C     22.16547264    27.17694495    45.94774071
H     22.69975122    26.41645448    45.92901922
C     19.91456127    26.26792767    48.62806098
H     19.93204696    25.48625864    49.18561543
H     20.07209556    27.04765880    49.16516337
H     19.05513448    26.33893816    48.20549009
O     20.92189726    26.16466486    47.63708033
C     20.97921680    34.52064731    46.92582084
H     22.34235057    35.99387266    46.80216458
C     21.19052041    34.42998090    44.45631404
H     20.29362646    34.22068684    44.15283703
H     21.25643568    35.39312118    44.55243869
C     21.65272721    32.45151526    45.87914767
C     21.86449333    31.80563821    44.57399201
C     22.19442152    32.47560069    43.43056490
C     22.18952640    33.96419087    43.41436058
H     23.07421823    34.30374004    43.62265688
H     21.93388819    34.28851362    42.53712481
C     22.47706641    31.47647069    42.49826590
C     22.94808540    31.65005188    41.10611035
C     21.64789479    29.35210826    45.14208713
C     20.54894904    29.39986385    45.96976600
H     19.99457994    30.14692738    45.96363038
C     20.26974789    28.34093555    46.80672696
C     22.45282488    28.22978268    45.11927522
H     23.18440032    28.18964030    44.54614575
H     23.17402313    30.59956732    39.51179412
H     22.53496870    29.88946246    40.61620501
N     21.41896510    33.79531603    45.76744799
N     21.95399036    30.46945064    44.30685673
N     22.31496220    30.25683445    43.02404100
N     22.90804845    30.56399287    40.33994497
O     21.76585832    31.88107820    46.94485698
O     23.37107427    32.73361929    40.74127718
C     20.40064573    37.03549821    51.27502868
H     21.09481616    37.65216822    50.99168907
H     20.83152698    36.20288988    51.52344247
C     19.73301525    37.59126254    52.45857328
H     19.29354876    36.87008392    52.93778063
H     20.40300725    37.97053882    53.04790707
C     18.73648740    38.62804332    52.13873463
H     18.27892144    38.89381356    52.95193974
H     19.19008095    39.40874340    51.78302622
C     18.28325244    37.34750140    50.00070842
C     21.11995576    36.44609733    48.33512465
H     21.53185233    37.24936020    48.56104118
C     20.03282250    36.00425431    49.05771143
C     19.44508453    34.80496610    48.72670281
H     18.72987272    34.48784130    49.22966600
C     19.90748099    34.07257530    47.65910562
H     19.49324168    33.27111192    47.43303177
C     21.59929084    35.69972591    47.27806813
H     19.52932672    28.37374156    47.36695590
N     19.50317840    36.78260122    50.14119830
