27
Coordinates from ORCA-job Adamantanol E -465.848547469707
  O       0.703311      2.559810      0.000000
  C       0.288911      1.187380      0.000000
  C      -0.534919      0.856590     -1.251110
  C      -0.905089     -0.636120     -1.255620
  C      -1.728999     -0.960470      0.000000
  C      -0.905089     -0.636120      1.255620
  C       0.382701     -1.473800      1.253520
  C       1.208301     -1.145170      0.000000
  C       0.382701     -1.473800     -1.253520
  C       1.567121      0.349390      0.000000
  C      -0.534919      0.856590      1.251110
  H      -0.091259      3.107350      0.000000
  H       0.050681      1.115900     -2.143010
  H      -1.447039      1.472750     -1.263910
  H      -1.494149     -0.863980     -2.154320
  H      -2.011069     -2.022050      0.000000
  H      -2.660149     -0.377020      0.000000
  H      -1.494149     -0.863980      2.154320
  H       0.133341     -2.543500      1.268740
  H       0.970211     -1.263460      2.157550
  H       2.132411     -1.738530      0.000000
  H       0.133341     -2.543500     -1.268740
  H       0.970211     -1.263460     -2.157550
  H       2.163301      0.606210     -0.885270
  H       2.163301      0.606210      0.885270
  H       0.050681      1.115900      2.143010
  H      -1.447039      1.472750      1.263910
27
Coordinates from ORCA-job Adamantanol E -465.848600604115
  O       0.698349      2.563874      0.000000
  C       0.289909      1.186374      0.000000
  C      -0.534251      0.856493     -1.250663
  C      -0.904450     -0.635950     -1.255420
  C      -1.728444     -0.959468      0.000000
  C      -0.904450     -0.635950      1.255420
  C       0.383019     -1.474189      1.253513
  C       1.208941     -1.146848      0.000000
  C       0.383019     -1.474189     -1.253513
  C       1.568283      0.347419      0.000000
  C      -0.534251      0.856493      1.250663
  H      -0.103321      3.105136      0.000000
  H       0.051566      1.113483     -2.143870
  H      -1.445494      1.473439     -1.261923
  H      -1.493755     -0.863014     -2.154142
  H      -2.010414     -2.021288      0.000000
  H      -2.658841     -0.374629      0.000000
  H      -1.493755     -0.863014      2.154142
  H       0.133009     -2.543874      1.268085
  H       0.970848     -1.263476      2.157687
  H       2.132822     -1.740797      0.000000
  H       0.133009     -2.543874     -1.268085
  H       0.970848     -1.263476     -2.157687
  H       2.165069      0.601335     -0.886620
  H       2.165069      0.601335      0.886620
  H       0.051566      1.113483      2.143870
  H      -1.445494      1.473439      1.261923
27
Coordinates from ORCA-job Adamantanol E -465.848619268753
  O       0.695391      2.566678      0.000000
  C       0.290658      1.185145      0.000000
  C      -0.533401      0.856321     -1.250569
  C      -0.904225     -0.636049     -1.255390
  C      -1.728356     -0.959206      0.000000
  C      -0.904225     -0.636049      1.255390
  C       0.383003     -1.474382      1.253521
  C       1.209063     -1.147308      0.000000
  C       0.383003     -1.474382     -1.253521
  C       1.569070      0.347204      0.000000
  C      -0.533401      0.856321      1.250569
  H      -0.111944      3.100180      0.000000
  H       0.052843      1.110299     -2.144549
  H      -1.443641      1.474406     -1.260716
  H      -1.493557     -0.862433     -2.154262
  H      -2.009849     -2.021246      0.000000
  H      -2.658078     -0.373340      0.000000
  H      -1.493557     -0.862433      2.154262
  H       0.132663     -2.544042      1.267082
  H       0.970940     -1.263416      2.157652
  H       2.132960     -1.741122      0.000000
  H       0.132663     -2.544042     -1.267082
  H       0.970940     -1.263416     -2.157652
  H       2.166035      0.598120     -0.887583
  H       2.166035      0.598120      0.887583
  H       0.052843      1.110299      2.144549
  H      -1.443641      1.474406      1.260716
27
Coordinates from ORCA-job Adamantanol E -465.848621449080
  O       0.695431      2.567099      0.000000
  C       0.290814      1.184742      0.000000
  C      -0.533140      0.856317     -1.250624
  C      -0.904372     -0.636184     -1.255390
  C      -1.728588     -0.959493      0.000000
  C      -0.904372     -0.636184      1.255390
  C       0.382890     -1.474412      1.253526
  C       1.208930     -1.147096      0.000000
  C       0.382890     -1.474412     -1.253526
  C       1.569199      0.347788      0.000000
  C      -0.533140      0.856317      1.250624
  H      -0.113129      3.098355      0.000000
  H       0.053287      1.109231     -2.144616
  H      -1.443135      1.474778     -1.260654
  H      -1.493656     -0.862360     -2.154349
  H      -2.009740     -2.021580      0.000000
  H      -2.658225     -0.373554      0.000000
  H      -1.493656     -0.862360      2.154349
  H       0.132608     -2.544066      1.266710
  H       0.970795     -1.263430      2.157600
  H       2.132986     -1.740633      0.000000
  H       0.132608     -2.544066     -1.266710
  H       0.970795     -1.263430     -2.157600
  H       2.166128      0.597750     -0.887686
  H       2.166128      0.597750      0.887686
  H       0.053287      1.109231      2.144616
  H      -1.443135      1.474778      1.260654
27
Coordinates from ORCA-job Adamantanol E -465.848621671624
  O       0.695736      2.567051      0.000000
  C       0.290821      1.184652      0.000000
  C      -0.533104      0.856351     -1.250636
  C      -0.904476     -0.636238     -1.255368
  C      -1.728715     -0.959666      0.000000
  C      -0.904476     -0.636238      1.255368
  C       0.382849     -1.474409      1.253526
  C       1.208855     -1.146992      0.000000
  C       0.382849     -1.474409     -1.253526
  C       1.569193      0.348094      0.000000
  C      -0.533104      0.856351      1.250636
  H      -0.112840      3.098070      0.000000
  H       0.053368      1.109050     -2.144570
  H      -1.443118      1.474813     -1.260749
  H      -1.493736     -0.862333     -2.154360
  H      -2.009739     -2.021752      0.000000
  H      -2.658400     -0.373827      0.000000
  H      -1.493736     -0.862333      2.154360
  H       0.132641     -2.544067      1.266655
  H       0.970729     -1.263446      2.157583
  H       2.133003     -1.740379      0.000000
  H       0.132641     -2.544067     -1.266655
  H       0.970729     -1.263446     -2.157583
  H       2.166135      0.597827     -0.887642
  H       2.166135      0.597827      0.887642
  H       0.053368      1.109050      2.144570
  H      -1.443118      1.474813      1.260749
