159
Coordinates from ORCA-job Apixaban_10Acetone_XTB E -232.711922536710
  C          27.69700804785088    -14.94869152391389      0.04443335434074
  C          28.97660719465078    -14.26367474263063     -0.41618607226243
  C          30.02178502739138    -15.19030587610522     -0.99379608772773
  N          29.65336822948689    -16.42104819261792     -1.37934078746829
  C          28.35980860190525    -17.02512464221840     -1.09726187022465
  C          27.27374098943661    -15.96725183330185     -1.00288325098370
  C          30.61726715495202    -17.27083145871631     -1.98499923837868
  C          31.18831852244646    -16.91466826622975     -3.20016473854348
  C          32.08545608669541    -17.76175155019973     -3.82160183272621
  C          32.42736106925781    -18.96591067023609     -3.22198383888685
  C          31.88020980661715    -19.30685569007438     -1.99112911910706
  C          30.97205793830756    -18.46730893540965     -1.37584549350105
  N          33.28935725674349    -19.87426565570666     -3.88865632753917
  C          34.68047479355086    -19.48547603268056     -4.09950863541777
  C          35.22971136848768    -19.96832593938321     -5.44019673225982
  C          34.83512390333364    -21.38854436572609     -5.61186051414753
  C          33.71242794818310    -21.91122515355625     -4.98404688992101
  C          32.78889995987820    -21.09703827209354     -4.20374115483319
  O          31.18422688903042    -14.80259201671464     -1.13150866581580
  O          31.64183675468077    -21.42401763108512     -3.91140005017925
  C          35.32940405531335    -22.44289626743422     -6.39680567609423
  N          34.55175927096772    -23.51537959870669     -6.25609224181454
  N          33.58567617499900    -23.19765621167862     -5.41519324807936
  C          32.58027634574707    -24.12637449729457     -5.11328833701344
  C          36.55626392007190    -22.45420748823348     -7.22286712021449
  N          36.62054121350314    -23.48179741793397     -8.08875999982582
  O          37.43129260651294    -21.61475334111031     -7.09510616322345
  C          32.13239181261583    -24.97771853280347     -6.11962684163693
  C          31.09298220292749    -25.84498300091250     -5.87188152241018
  C          30.48679185494230    -25.88812742295194     -4.61231882938167
  C          30.99074487140712    -25.08808139630276     -3.59096083636924
  C          32.03398164318494    -24.21624722699680     -3.84217319529626
  O          29.43025215582821    -26.72850554211400     -4.48604307401122
  C          28.74744641796205    -26.77392953919870     -3.25154751042352
  H          27.87341338397058    -15.46186327304889      0.99115576635484
  H          26.91968846479023    -14.20030045811015      0.20630873479924
  H          28.75059393135786    -13.53945546560504     -1.20648675044348
  H          29.43805521570107    -13.70674244915967      0.40245812243528
  H          28.13321297323689    -17.73866913126352     -1.89183329936492
  H          28.41733523606447    -17.57265850946949     -0.14935217614729
  H          27.14164891833546    -15.47753272545445     -1.96995348714080
  H          26.33531488324306    -16.45111745792551     -0.73452015123739
  H          30.91603255235745    -15.97887327703203     -3.66227935353725
  H          32.51639038317040    -17.49519032185685     -4.77374918279461
  H          32.16273080648460    -20.23747512664909     -1.52400793296795
  H          30.54449067674704    -18.72470939251461     -0.41947296217092
  H          34.73918633059496    -18.39764637042616     -4.02892035804900
  H          35.28421474090889    -19.91555320047883     -3.28762486933695
  H          34.81332261921619    -19.37861281327913     -6.26266233767016
  H          36.31355739774899    -19.86055230964050     -5.47235830780033
  H          35.80641476469049    -24.05493676241273     -8.26884293453173
  H          37.41619625512086    -23.54471001124729     -8.70127197581325
  H          32.60998898421938    -24.93357173032711     -7.08438026320512
  H          30.72031062395481    -26.50103772777613     -6.64270417143416
  H          30.57448348889264    -25.13760775847275     -2.59902369119288
  H          32.41432893815215    -23.60275794710725     -3.04212230661982
  H          27.87413693121552    -27.40169981562630     -3.42352515950831
  H          29.36576659258390    -27.22884742306471     -2.47171941958139
  H          28.42974447582683    -25.77723438202571     -2.93207759108442
  C          30.41540819079056    -21.32995637174886     -6.45878944674619
  O          31.44133879694893    -21.54439828839880     -7.06323801620790
  C          29.50002810994469    -22.43123569608795     -6.00560824502588
  C          29.96852310386641    -19.93996433799796     -6.09821628257063
  H          29.68963127525330    -23.34699708101284     -6.56075496307931
  H          29.72413782739541    -22.62223321680102     -4.95737003964978
  H          28.45651364256641    -22.14292608989824     -6.08858098832242
  H          29.93828149451445    -19.85649241539281     -5.01432362837355
  H          28.96653190041298    -19.75638755726354     -6.47896428362760
  H          30.65465182966216    -19.19913748028351     -6.49844334038734
  C          34.28647489862264    -15.53082681544012     -2.84495855481793
  O          34.71020543634898    -16.23675132817884     -3.72936811812332
  C          34.22874742820399    -15.96678309336814     -1.40685862668469
  C          33.74661280245390    -14.14979040617534     -3.08555499485921
  H          34.55102213846238    -16.99997951366438     -1.30272635818519
  H          34.86751898422856    -15.32512472340043     -0.80360331985689
  H          33.20399008770988    -15.85479452668146     -1.05943972353650
  H          33.73467871422564    -13.91871221489371     -4.14733134718401
  H          34.36119012006678    -13.41938090531705     -2.56337965332808
  H          32.74024714031714    -14.09615936772203     -2.67511188765471
  C          30.47206153333476    -16.90643928139945      2.14327365777165
  O          29.80711624922908    -17.79583972300728      1.66326387773564
  C          31.88085511460836    -16.62373453131881      1.69827260931594
  C          29.95221552375496    -15.98374323985477      3.20664817680483
  H          32.50598398702446    -16.32206018029236      2.53314492360290
  H          32.31084910896068    -17.48504251484952      1.19305040654676
  H          31.84236151553655    -15.79741037131275      0.98789608642962
  H          30.52109819855836    -16.13331812524235      4.12271233829153
  H          28.90041840015320    -16.17667740525566      3.40463204141016
  H          30.08671782025759    -14.94754388288747      2.89686709603565
  C          32.91201236281168    -31.55425742103897      3.60508621015782
  O          32.67218758071273    -31.35227308654504      2.44280129307235
  C          34.14148660334962    -32.29264181176661      4.07214252240081
  C          32.00756761267865    -31.08391705110989      4.71798953472130
  H          33.89192633746732    -33.00157603858131      4.85691872825770
  H          34.61301262803109    -32.80569295885296      3.23880771703967
  H          34.84689749466112    -31.57050767851557      4.48035600370283
  H          31.27320764650563    -30.38059413001618      4.33444686296956
  H          32.58653799840103    -30.62211194440417      5.51389476029749
  H          31.48589912298707    -31.94294439864342      5.13567169721771
  C          24.89982907745557    -23.68540611361182     -3.45122341543052
  O          24.05186258885799    -22.90843808712293     -3.07647048527847
  C          26.00448511497561    -23.29798538068560     -4.38785964501286
  C          24.96280930144359    -25.11076470562373     -2.97238157663523
  H          25.83445313308712    -22.30631916260719     -4.80009358382925
  H          26.93176684020841    -23.30441821365988     -3.81370540268478
  H          26.10658150985158    -24.02295327727190     -5.19077652773827
  H          24.14492408717649    -25.31973084942081     -2.28851981079196
  H          25.91420832899814    -25.26841147997274     -2.46847002536841
  H          24.91405136361379    -25.79070839323859     -3.81950703713652
  C          31.91444425933922    -12.79879648570727      1.69456471681737
  O          30.80307726303764    -12.99305864018391      2.13227729110250
  C          32.15642472321394    -12.22390275069870      0.33386184101827
  C          33.15699318883445    -13.15280836155140      2.47006010352886
  H          33.16064665221170    -11.82826270486492      0.22497855035636
  H          32.00980536231101    -13.03986556006237     -0.38033193792320
  H          31.41772007312862    -11.45988948869826      0.10563049038717
  H          33.80187212551933    -13.78566459675815      1.86570450580482
  H          32.90150950571156    -13.65626399827291      3.39936805184816
  H          33.70198600393685    -12.23841370307718      2.69991050472837
  C          33.28256503395824    -23.40897838571361     -9.41072437029914
  O          34.06963540310951    -24.31236635786449     -9.24577381542139
  C          33.67761306723288    -21.96110420647337     -9.42519269173120
  C          31.80710674574432    -23.64262458089064     -9.58091414171759
  H          33.31333492551196    -21.48045860440264    -10.33008832525799
  H          33.20064622593714    -21.47663021417945     -8.57460098399727
  H          34.75503515611705    -21.84321921959825     -9.35520054418589
  H          31.46150914472596    -23.20477313154938    -10.51463135168724
  H          31.29403208827263    -23.14058926333818     -8.76258507856855
  H          31.57696507503776    -24.70481592071277     -9.56645347276518
  C          28.95464602894067    -22.57654620822977     -1.80719778817206
  O          28.32467754222195    -23.54487576510618     -2.17683865796939
  C          29.95479631241396    -22.65369043905213     -0.68477515358205
  C          28.85131231994431    -21.23524845190287     -2.45355973224171
  H          29.92229953199686    -23.62526220863912     -0.19605095391611
  H          30.94423441153875    -22.49619694235494     -1.10966389024622
  H          29.77071297743110    -21.86550851922901      0.04065284947891
  H          28.72658367826948    -20.44833950655004     -1.71600065989575
  H          28.03033604637022    -21.19862398861835     -3.16402781409401
  H          29.79313286572468    -21.05937886877978     -2.97515844086136
  C          36.28489128805735    -23.93705278239950     -2.06051610921326
  O          37.14409969689743    -24.16573337454903     -1.24832234097188
  C          35.23319967885452    -22.87331035259335     -1.84349306572026
  C          36.15760451910833    -24.68292612748177     -3.36136410915882
  H          34.98325540136528    -22.37934426721635     -2.77837139028592
  H          34.33562105640399    -23.35407205479569     -1.45537866658703
  H          35.57447193763012    -22.14845930993314     -1.10809641890926
  H          35.12600196474714    -24.97740690999997     -3.53962605892544
  H          36.80062169084086    -25.55861633248785     -3.36013904892679
  H          36.46523812608093    -24.02690157299610     -4.17491590066649
  C          25.36290501137500    -19.95666588571311     -1.69774266765479
  O          26.34289604758960    -19.33068416888659     -2.02965059413551
  C          25.40405124853071    -21.04966232193463     -0.66374501041537
  C          24.00416892223663    -19.72663927289685     -2.29102055650873
  H          24.83959996722063    -21.90722488577597     -1.01950717179475
  H          26.42830579937202    -21.33898576550614     -0.44624713480731
  H          24.93617094064712    -20.69394726798265      0.25278167616981
  H          23.73241845125969    -20.61899148313611     -2.85508552447640
  H          24.00461492336094    -18.86049958081435     -2.94580943107854
  H          23.26286982653713    -19.59899456975924     -1.50570819270526
