      -----------------------------------------------------------      
     |                   =====================                   |     
     |                           x T B                           |     
     |                   =====================                   |     
     |                         S. Grimme                         |     
     |          Mulliken Center for Theoretical Chemistry        |     
     |                    University of Bonn                     |     
      -----------------------------------------------------------      

   * xtb version 6.7.1pre (5071a88) compiled by 'Marcel@Raven' on 2024-07-23

   xtb is free software: you can redistribute it and/or modify it under
   the terms of the GNU Lesser General Public License as published by
   the Free Software Foundation, either version 3 of the License, or
   (at your option) any later version.
   
   xtb is distributed in the hope that it will be useful,
   but WITHOUT ANY WARRANTY; without even the implied warranty of
   MERCHANTABILITY or FITNESS FOR A PARTICULAR PURPOSE.  See the
   GNU Lesser General Public License for more details.
   
   Cite this work as:
   * C. Bannwarth, E. Caldeweyher, S. Ehlert, A. Hansen, P. Pracht,
     J. Seibert, S. Spicher, S. Grimme, WIREs Comput. Mol. Sci., 2020, 11,
     e01493. DOI: 10.1002/wcms.1493
   
   for GFN2-xTB:
   * C. Bannwarth, S. Ehlert and S. Grimme., J. Chem. Theory Comput., 2019,
     15, 1652-1671. DOI: 10.1021/acs.jctc.8b01176
   for GFN1-xTB:
   * S. Grimme, C. Bannwarth, P. Shushkov, J. Chem. Theory Comput., 2017,
     13, 1989-2009. DOI: 10.1021/acs.jctc.7b00118
   for GFN0-xTB:
   * P. Pracht, E. Caldeweyher, S. Ehlert, S. Grimme, ChemRxiv, 2019, preprint.
     DOI: 10.26434/chemrxiv.8326202.v1
   for GFN-FF:
   * S. Spicher and S. Grimme, Angew. Chem. Int. Ed., 2020, 59, 15665-15673.
     DOI: 10.1002/anie.202004239
   
   for ALPB and GBSA implicit solvation:
   * S. Ehlert, M. Stahn, S. Spicher, S. Grimme, J. Chem. Theory Comput.,
     2021, 17, 4250-4261. DOI: 10.1021/acs.jctc.1c00471
   
   for ddCOSMO and CPCM-X implicit solvation:
   * M. Stahn, S. Ehlert, S. Grimme, J. Phys. Chem. A,
     2023, XX, XXXX-XXXX. DOI: 10.1021/acs.jpca.3c04382
   
   for DFT-D4:
   * E. Caldeweyher, C. Bannwarth and S. Grimme, J. Chem. Phys., 2017,
     147, 034112. DOI: 10.1063/1.4993215
   * E. Caldeweyher, S. Ehlert, A. Hansen, H. Neugebauer, S. Spicher,
     C. Bannwarth and S. Grimme, J. Chem. Phys., 2019, 150, 154122.
     DOI: 10.1063/1.5090222
   * E. Caldeweyher, J.-M. Mewes, S. Ehlert and S. Grimme, Phys. Chem. Chem. Phys.
     2020, 22, 8499-8512. DOI: 10.1039/D0CP00502A
   
   for sTDA-xTB:
   * S. Grimme and C. Bannwarth, J. Chem. Phys., 2016, 145, 054103.
     DOI: 10.1063/1.4959605
   
   in the mass-spec context:
   * V. Asgeirsson, C. Bauer and S. Grimme, Chem. Sci., 2017, 8, 4879.
     DOI: 10.1039/c7sc00601b
   * J. Koopman and S. Grimme, ACS Omega 2019, 4, 12, 15120-15133.
     DOI: 10.1021/acsomega.9b02011
   
   for metadynamics refer to:
   * S. Grimme, J. Chem. Theory Comput., 2019, 155, 2847-2862
     DOI: 10.1021/acs.jctc.9b00143
   
   for SPH calculations refer to:
   * S. Spicher and S. Grimme, J. Chem. Theory Comput., 2021, 17, 1701-1714
     DOI: 10.1021/acs.jctc.0c01306
   
   for ONIOM refer to:
   * C. Plett, A. Katbashev, S. Ehlert, S. Grimme, M. Bursch,
     Phys. Chem. Chem. Phys., 2023, 25, 17860-17868. DOI: 10.1039/D3CP02178E
   
   for DIPRO refer to:
   * J. Kohn, N. Gildemeister, S. Grimme, D. Fazzi, A. Hansen,
     J. Chem. Phys., 2023, just accepted.
   
   for PTB refer to:
   * S. Grimme, M. Mueller, A. Hansen, J. Chem. Phys., 2023, 158, 124111.
     DOI: 10.1063/5.0137838
   
   with help from (in alphabetical order)
   P. Atkinson, C. Bannwarth, F. Bohle, G. Brandenburg, E. Caldeweyher
   M. Checinski, S. Dohm, S. Ehlert, S. Ehrlich, I. Gerasimov, C. Hölzer
   A. Katbashev, J. Kohn, J. Koopman, C. Lavigne, S. Lehtola, F. März, M. Müller,
   F. Musil, H. Neugebauer, J. Pisarek, C. Plett, P. Pracht, F. Pultar,
   J. Seibert, P. Shushkov, S. Spicher, M. Stahn, M. Steiner, T. Strunk,
   J. Stückrath, T. Rose, and J. Unsleber
   
 * started run on 2026/10/03 at 18:56:00.465     
   ID    Z sym.   atoms
    1    1 H      1, 3, 6, 11, 12, 17, 19, 22, 24, 26-30, 39, 40, 42, 43, 45,
                  46, 48, 49, 52, 56, 57, 61, 62, 64, 65, 67, 68, 70, 71, 74,
                  78, 79, 82, 84, 87, 92, 93, 98, 100, 103, 105, 107-111,
                  120, 121, 125, 127-129, 132, 134, 135, 140, 141, 146,
                  149-151, 159, 160, 162, 163, 165, 166, 169, 172, 174, 176
    2    6 C      2, 4, 5, 7-10, 13-16, 18, 20, 21, 23, 25, 38, 41, 44, 47,
                  50, 51, 53-55, 60, 63, 66, 69, 72, 73, 75-77, 83, 85, 86,
                  88-91, 94-97, 99, 101, 102, 104, 106, 119, 123, 124, 126,
                  131, 133, 136-139, 142-145, 147, 148, 158, 161, 164, 167,
                  168, 170, 171, 173, 175
    3    7 N      31-34, 58, 80, 112-115, 152-155, 177
    4    8 O      35-37, 59, 81, 116-118, 122, 130, 156, 157

           -------------------------------------------------
          |                Calculation Setup                |
           -------------------------------------------------

          program call               : C:\ORCA_6.1.1\xTB_bigstack\xtb.exe t_A_D9_D1b.xyz -c 0 -u 0 -P 1 --acc 1.0 --namespace t_A_D9_D1b
          calculation namespace      : t_A_D9_D1b
          coordinate file            : t_A_D9_D1b.xyz
          omp threads                :                     1


molecular fragmentation (1/2 indicates fragments):
111111111111111111111111111111111111111111111111111111111112222222222222
222222222222222222222222222222222222222222222222222222222222222222222222
222222222222222222222222222222222
# atoms in fragment 1/2:    59   118
 fragment masses (1/2) :      459.50      919.00
CMA distance (Bohr)    :   8.259
constraining FC (au)   :  0.0500

           -------------------------------------------------
          |                 G F N 2 - x T B                 |
           -------------------------------------------------

        Reference                      10.1021/acs.jctc.8b01176
      * Hamiltonian:
        H0-scaling (s, p, d)           1.850000    2.230000    2.230000
        zeta-weighting                 0.500000
      * Dispersion:
        s8                             2.700000
        a1                             0.520000
        a2                             5.000000
        s9                             5.000000
      * Repulsion:
        kExp                           1.500000    1.000000
        rExp                           1.000000
      * Coulomb:
        alpha                          2.000000
        third order                    shell-resolved
        anisotropic                    true
        a3                             3.000000
        a5                             4.000000
        cn-shift                       1.200000
        cn-exp                         4.000000
        max-rad                        5.000000


          ...................................................
          :                      SETUP                      :
          :.................................................:
          :  # basis functions                 483          :
          :  # atomic orbitals                 483          :
          :  # shells                          279          :
          :  # electrons                       522          :
          :  max. iterations                   250          :
          :  Hamiltonian                  GFN2-xTB          :
          :  restarted?                      false          :
          :  GBSA solvation                  false          :
          :  PC potential                    false          :
          :  electronic temp.          300.0000000     K    :
          :  accuracy                    1.0000000          :
          :  -> integral cutoff          0.2500000E+02      :
          :  -> integral neglect         0.1000000E-07      :
          :  -> SCF convergence          0.1000000E-05 Eh   :
          :  -> wf. convergence          0.1000000E-03 e    :
          :  Broyden damping             0.4000000          :
          :  net charge                          0          :
          :  unpaired electrons                  0          :
          ...................................................

 iter      E             dE          RMSdq      gap      omega  full diag
   1   -296.1937398 -0.296194E+03  0.412E+00    2.82       0.0  T
   2   -296.9783314 -0.784592E+00  0.242E+00    2.29       1.0  T
   3   -297.0548212 -0.764899E-01  0.129E+00    2.95       1.0  T
   4   -297.0651129 -0.102916E-01  0.437E-01    2.70       1.0  T
   5   -297.0883845 -0.232716E-01  0.935E-02    2.79       1.0  T
   6   -297.0887515 -0.366993E-03  0.536E-02    2.77       1.0  T
   7   -297.0890013 -0.249860E-03  0.223E-02    2.79       1.0  T
   8   -297.0890118 -0.104438E-04  0.841E-03    2.78       1.0  T
   9   -297.0890160 -0.422460E-05  0.374E-03    2.78       2.0  T
  10   -297.0890164 -0.363557E-06  0.154E-03    2.78       4.9  T
  11   -297.0890166 -0.215630E-06  0.542E-04    2.78      13.9  T
  12   -297.0890166 -0.150901E-07  0.259E-04    2.78      29.1  T

   *** convergence criteria satisfied after 12 iterations ***

         #    Occupation            Energy/Eh            Energy/eV
      -------------------------------------------------------------
         1        2.0000           -0.7251568             -19.7325
       ...           ...                  ...                  ...
       255        2.0000           -0.3841378             -10.4529
       256        2.0000           -0.3831856             -10.4270
       257        2.0000           -0.3804032             -10.3513
       258        2.0000           -0.3802791             -10.3479
       259        2.0000           -0.3778935             -10.2830
       260        2.0000           -0.3773878             -10.2692
       261        2.0000           -0.3733857             -10.1603 (HOMO)
       262                         -0.2710996              -7.3770 (LUMO)
       263                         -0.2701093              -7.3500
       264                         -0.2627196              -7.1490
       265                         -0.2447422              -6.6598
       266                         -0.2418531              -6.5812
       ...                                ...                  ...
       483                          0.8736766              23.7740
      -------------------------------------------------------------
                  HL-Gap            0.1022861 Eh            2.7833 eV
             Fermi-level           -0.3222427 Eh           -8.7687 eV

 SCC (total)                   0 d,  0 h,  0 min,  0.971 sec
 SCC setup                      ...        0 min,  0.004 sec (  0.412%)
 Dispersion                     ...        0 min,  0.007 sec (  0.721%)
 classical contributions        ...        0 min,  0.001 sec (  0.103%)
 integral evaluation            ...        0 min,  0.070 sec (  7.209%)
 iterations                     ...        0 min,  0.586 sec ( 60.350%)
 molecular gradient             ...        0 min,  0.297 sec ( 30.587%)
 printout                       ...        0 min,  0.006 sec (  0.618%)

         :::::::::::::::::::::::::::::::::::::::::::::::::::::
         ::                     SUMMARY                     ::
         :::::::::::::::::::::::::::::::::::::::::::::::::::::
         :: total energy            -290.513792530075 Eh    ::
         :: gradient norm              1.615560584440 Eh/a0 ::
         :: HOMO-LUMO gap              2.783346485221 eV    ::
         ::.................................................::
         :: SCC energy              -297.087992354982 Eh    ::
         :: -> isotropic ES            0.443851590011 Eh    ::
         :: -> anisotropic ES          0.004522127715 Eh    ::
         :: -> anisotropic XC          0.055409776589 Eh    ::
         :: -> dispersion             -0.226898851395 Eh    ::
         :: repulsion energy           6.574199824906 Eh    ::
         :: add. restraining           0.000000000000 Eh    ::
         :: total charge               0.000000000000 e     ::
         :::::::::::::::::::::::::::::::::::::::::::::::::::::

           -------------------------------------------------
          |                Property Printout                |
           -------------------------------------------------

    * Orbital Energies and Occupations

         #    Occupation            Energy/Eh            Energy/eV
      -------------------------------------------------------------
         1        2.0000           -0.7251568             -19.7325
       ...           ...                  ...                  ...
       249        2.0000           -0.3910066             -10.6398
       250        2.0000           -0.3891537             -10.5894
       251        2.0000           -0.3883194             -10.5667
       252        2.0000           -0.3865326             -10.5181
       253        2.0000           -0.3853319             -10.4854
       254        2.0000           -0.3844223             -10.4607
       255        2.0000           -0.3841378             -10.4529
       256        2.0000           -0.3831856             -10.4270
       257        2.0000           -0.3804032             -10.3513
       258        2.0000           -0.3802791             -10.3479
       259        2.0000           -0.3778935             -10.2830
       260        2.0000           -0.3773878             -10.2692
       261        2.0000           -0.3733857             -10.1603 (HOMO)
       262                         -0.2710996              -7.3770 (LUMO)
       263                         -0.2701093              -7.3500
       264                         -0.2627196              -7.1490
       265                         -0.2447422              -6.6598
       266                         -0.2418531              -6.5812
       267                         -0.2400741              -6.5327
       268                         -0.2359907              -6.4216
       269                         -0.2352727              -6.4021
       270                         -0.2344298              -6.3792
       271                         -0.2342685              -6.3748
       272                         -0.2339328              -6.3656
       ...                                ...                  ...
       483                          0.8736766              23.7740
      -------------------------------------------------------------
                  HL-Gap            0.1022861 Eh            2.7833 eV
             Fermi-level           -0.3222427 Eh           -8.7687 eV

     #   Z          covCN         q      C6AA      α(0)
     1   1 H        0.930     0.076     2.015     2.220
     2   6 C        2.936    -0.045    29.129     8.852
     3   1 H        0.930     0.074     2.045     2.236
     4   6 C        2.928     0.069    26.460     8.436
     5   6 C        3.764    -0.017    20.911     6.518
     6   1 H        0.930     0.064     2.149     2.292
     7   6 C        2.767     0.268    22.471     7.763
     8   6 C        3.096    -0.009    28.123     8.691
     9   6 C        3.070    -0.015    28.303     8.723
    10   6 C        3.821    -0.084    22.077     6.687
    11   1 H        0.930     0.078     2.003     2.213
    12   1 H        0.930     0.084     1.940     2.178
    13   6 C        3.172     0.027    27.028     8.492
    14   6 C        2.748     0.281    22.243     7.722
    15   6 C        2.920     0.046    26.961     8.515
    16   6 C        2.934    -0.044    29.089     8.845
    17   1 H        0.930     0.069     2.094     2.263
    18   6 C        2.932    -0.081    30.017     8.985
    19   1 H        0.930     0.066     2.132     2.283
    20   6 C        2.878     0.145    24.851     8.172
    21   6 C        2.936    -0.066    29.646     8.930
    22   1 H        0.930     0.080     1.978     2.199
    23   6 C        2.932    -0.046    29.138     8.853
    24   1 H        0.930     0.081     1.972     2.196
    25   6 C        3.664     0.013    20.621     6.513
    26   1 H        0.930     0.073     2.050     2.239
    27   1 H        0.930     0.059     2.206     2.323
    28   1 H        0.930     0.056     2.246     2.343
    29   1 H        0.862     0.206     1.076     1.625
    30   1 H        0.863     0.213     1.044     1.600
    31   7 N        2.745    -0.119    23.583     7.213
    32   7 N        3.019     0.089    19.704     6.593
    33   7 N        1.991    -0.241    27.092     7.720
    34   7 N        2.645    -0.281    27.266     7.755
    35   8 O        0.858    -0.444    22.578     6.371
    36   8 O        0.860    -0.456    22.836     6.407
    37   8 O        1.705    -0.279    18.638     5.829
    38   6 C        3.762    -0.011    20.817     6.504
    39   1 H        0.930     0.059     2.214     2.327
    40   1 H        0.930     0.061     2.188     2.313
    41   6 C        3.827    -0.083    22.066     6.684
    42   1 H        0.930     0.056     2.251     2.346
    43   1 H        0.930     0.058     2.217     2.328
    44   6 C        3.825    -0.080    22.012     6.676
    45   1 H        0.930     0.054     2.269     2.355
    46   1 H        0.930     0.053     2.284     2.363
    47   6 C        3.826    -0.107    22.523     6.753
    48   1 H        0.930     0.076     2.019     2.222
    49   1 H        0.930     0.081     1.965     2.192
    50   6 C        2.766     0.270    22.443     7.758
    51   6 C        2.935    -0.057    29.427     8.897
    52   1 H        0.930     0.068     2.111     2.272
    53   6 C        2.930     0.066    26.517     8.445
    54   6 C        2.938    -0.045    29.110     8.849
    55   6 C        2.935    -0.058    29.441     8.899
    56   1 H        0.930     0.071     2.078     2.254
    57   1 H        0.930     0.073     2.050     2.239
    58   7 N        2.739    -0.112    23.447     7.192
    59   8 O        0.859    -0.474    23.215     6.460
    60   6 C        3.762    -0.011    20.812     6.503
    61   1 H        0.930     0.057     2.231     2.335
    62   1 H        0.930     0.060     2.195     2.317
    63   6 C        3.827    -0.083    22.058     6.683
    64   1 H        0.930     0.055     2.255     2.348
    65   1 H        0.930     0.057     2.229     2.335
    66   6 C        3.825    -0.080    21.998     6.674
    67   1 H        0.930     0.053     2.286     2.364
    68   1 H        0.930     0.051     2.311     2.377
    69   6 C        3.826    -0.107    22.518     6.752
    70   1 H        0.930     0.074     2.039     2.233
    71   1 H        0.930     0.076     2.016     2.220
    72   6 C        2.766     0.268    22.474     7.764
    73   6 C        2.935    -0.056    29.381     8.890
    74   1 H        0.930     0.066     2.134     2.284
    75   6 C        2.930     0.070    26.441     8.433
    76   6 C        2.938    -0.042    29.044     8.839
    77   6 C        2.935    -0.056    29.403     8.893
    78   1 H        0.930     0.069     2.092     2.262
    79   1 H        0.930     0.070     2.080     2.255
    80   7 N        2.739    -0.113    23.464     7.194
    81   8 O        0.859    -0.467    23.067     6.439
    82   1 H        0.930     0.075     2.026     2.226
    83   6 C        2.936    -0.044    29.086     8.845
    84   1 H        0.930     0.072     2.065     2.247
    85   6 C        2.928     0.070    26.441     8.433
    86   6 C        3.764    -0.013    20.843     6.507
    87   1 H        0.930     0.058     2.219     2.329
    88   6 C        2.767     0.268    22.471     7.763
    89   6 C        3.096    -0.009    28.123     8.691
    90   6 C        3.070    -0.015    28.322     8.726
    91   6 C        3.821    -0.083    22.062     6.684
    92   1 H        0.930     0.078     1.999     2.211
    93   1 H        0.930     0.084     1.933     2.174
    94   6 C        3.172     0.026    27.038     8.494
    95   6 C        2.748     0.278    22.301     7.733
    96   6 C        2.920     0.046    26.962     8.515
    97   6 C        2.934    -0.044    29.089     8.845
    98   1 H        0.930     0.069     2.099     2.265
    99   6 C        2.932    -0.081    30.018     8.985
   100   1 H        0.930     0.066     2.134     2.284
   101   6 C        2.878     0.145    24.852     8.173
   102   6 C        2.936    -0.066    29.646     8.930
   103   1 H        0.930     0.080     1.977     2.198
   104   6 C        2.932    -0.046    29.136     8.852
   105   1 H        0.930     0.081     1.971     2.195
   106   6 C        3.664     0.013    20.625     6.514
   107   1 H        0.930     0.074     2.045     2.236
   108   1 H        0.930     0.060     2.203     2.321
   109   1 H        0.930     0.056     2.250     2.345
   110   1 H        0.862     0.206     1.076     1.625
   111   1 H        0.863     0.211     1.049     1.604
   112   7 N        2.745    -0.119    23.597     7.215
   113   7 N        3.019     0.088    19.714     6.594
   114   7 N        1.991    -0.242    27.119     7.723
   115   7 N        2.645    -0.284    27.324     7.763
   116   8 O        0.858    -0.444    22.574     6.370
   117   8 O        0.860    -0.448    22.667     6.383
   118   8 O        1.705    -0.279    18.636     5.828
   119   6 C        3.826    -0.107    22.516     6.752
   120   1 H        0.930     0.074     2.043     2.235
   121   1 H        0.930     0.076     2.020     2.223
   122   8 O        0.859    -0.467    23.076     6.441
   123   6 C        2.878     0.148    24.781     8.161
   124   6 C        2.936    -0.071    29.759     8.947
   125   1 H        0.930     0.074     2.042     2.234
   126   6 C        3.664     0.010    20.668     6.521
   127   1 H        0.930     0.066     2.125     2.279
   128   1 H        0.930     0.057     2.229     2.335
   129   1 H        0.930     0.072     2.066     2.247
   130   8 O        1.705    -0.283    18.691     5.837
   131   6 C        2.928     0.070    26.430     8.431
   132   1 H        0.930     0.069     2.094     2.263
   133   6 C        3.764    -0.012    20.839     6.507
   134   1 H        0.930     0.057     2.228     2.334
   135   1 H        0.930     0.069     2.095     2.263
   136   6 C        2.767     0.268    22.467     7.763
   137   6 C        3.096    -0.009    28.133     8.693
   138   6 C        3.070    -0.017    28.349     8.730
   139   6 C        3.821    -0.083    22.058     6.684
   140   1 H        0.930     0.077     2.005     2.214
   141   1 H        0.930     0.084     1.940     2.178
   142   6 C        3.172     0.027    27.033     8.493
   143   6 C        2.748     0.276    22.332     7.738
   144   6 C        2.920     0.042    27.061     8.531
   145   6 C        2.934    -0.043    29.079     8.844
   146   1 H        0.930     0.071     2.072     2.251
   147   6 C        2.932    -0.072    29.792     8.951
   148   6 C        2.932    -0.052    29.281     8.874
   149   1 H        0.930     0.076     2.015     2.220
   150   1 H        0.862     0.229     0.970     1.543
   151   1 H        0.863     0.204     1.086     1.632
   152   7 N        2.745    -0.120    23.613     7.217
   153   7 N        3.019     0.085    19.757     6.602
   154   7 N        1.991    -0.250    27.321     7.752
   155   7 N        2.645    -0.285    27.364     7.769
   156   8 O        0.858    -0.444    22.575     6.370
   157   8 O        0.860    -0.451    22.721     6.391
   158   6 C        3.762    -0.011    20.811     6.503
   159   1 H        0.930     0.057     2.232     2.336
   160   1 H        0.930     0.060     2.195     2.317
   161   6 C        3.827    -0.083    22.056     6.683
   162   1 H        0.930     0.055     2.257     2.349
   163   1 H        0.930     0.057     2.233     2.337
   164   6 C        3.825    -0.079    21.995     6.674
   165   1 H        0.930     0.052     2.290     2.366
   166   1 H        0.930     0.050     2.314     2.379
   167   6 C        2.766     0.268    22.476     7.764
   168   6 C        2.935    -0.056    29.391     8.891
   169   1 H        0.930     0.065     2.142     2.288
   170   6 C        2.930     0.069    26.454     8.435
   171   6 C        2.938    -0.042    29.049     8.839
   172   1 H        0.930     0.075     2.032     2.229
   173   6 C        2.936    -0.044    29.082     8.844
   174   1 H        0.930     0.073     2.055     2.241
   175   6 C        2.935    -0.057    29.408     8.894
   176   1 H        0.930     0.077     2.010     2.217
   177   7 N        2.739    -0.113    23.465     7.194

 Mol. C6AA /au·bohr⁶  :     376924.764947
 Mol. C8AA /au·bohr⁸  :    9002742.099005
 Mol. α(0) /au        :        951.574234


Wiberg/Mayer (AO) data.
largest (>0.10) Wiberg bond orders for each atom

 ---------------------------------------------------------------------------
     #   Z sym  total        # sym  WBO       # sym  WBO       # sym  WBO
 ---------------------------------------------------------------------------
     1   1 H    0.994 --    54 C    0.973
     2   6 C    3.992 --    54 C    1.441     4 C    1.403     3 H    0.973
                            51 C    0.109
     3   1 H    0.994 --     2 C    0.973
     4   6 C    3.966 --     2 C    1.403    55 C    1.401    31 N    0.999
     5   6 C    3.965 --    10 C    0.998     6 H    0.973    57 H    0.972
                            31 N    0.960
     6   1 H    0.996 --     5 C    0.973
     7   6 C    3.957 --    35 O    1.655    31 N    1.201     8 C    1.011
     8   6 C    3.952 --     9 C    1.430    32 N    1.219     7 C    1.011
                            33 N    0.135
     9   6 C    3.981 --     8 C    1.430    13 C    1.322    10 C    1.012
    10   6 C    3.989 --     9 C    1.012     5 C    0.998    12 H    0.961
                            11 H    0.960
    11   1 H    0.994 --    10 C    0.960
    12   1 H    0.992 --    10 C    0.961
    13   6 C    3.968 --    33 N    1.426     9 C    1.322    14 C    1.001
    14   6 C    3.951 --    36 O    1.653    34 N    1.257    13 C    1.001
    15   6 C    3.956 --    16 C    1.402    23 C    1.371    32 N    1.006
    16   6 C    3.992 --    18 C    1.435    15 C    1.402    17 H    0.974
                            21 C    0.108
    17   1 H    0.995 --    16 C    0.974
    18   6 C    3.990 --    16 C    1.435    20 C    1.379    19 H    0.971
    19   1 H    0.995 --    18 C    0.971
    20   6 C    3.933 --    18 C    1.379    21 C    1.344    37 O    1.072
    21   6 C    3.991 --    23 C    1.477    20 C    1.344    22 H    0.972
                            16 C    0.108
    22   1 H    0.993 --    21 C    0.972
    23   6 C    3.990 --    21 C    1.477    15 C    1.371    24 H    0.972
    24   1 H    0.993 --    23 C    0.972
    25   6 C    3.936 --    27 H    0.981    28 H    0.980    26 H    0.979
                            37 O    0.967
    26   1 H    0.994 --    25 C    0.979
    27   1 H    0.996 --    25 C    0.981
    28   1 H    0.997 --    25 C    0.980
    29   1 H    0.957 --    34 N    0.941
    30   1 H    0.955 --    34 N    0.942
    31   7 N    3.473 --     7 C    1.201     4 C    0.999     5 C    0.960
                            35 O    0.188
    32   7 N    3.691 --    33 N    1.219     8 C    1.219    15 C    1.006
    33   7 N    2.966 --    13 C    1.426    32 N    1.219     8 C    0.135
    34   7 N    3.373 --    14 C    1.257    30 H    0.942    29 H    0.941
                            36 O    0.192
    35   8 O    2.000 --     7 C    1.655    31 N    0.188
    36   8 O    1.966 --    14 C    1.653    34 N    0.192
    37   8 O    2.208 --    20 C    1.072    25 C    0.967
    38   6 C    3.970 --    41 C    1.007    40 H    0.974    39 H    0.972
                            58 N    0.959
    39   1 H    0.997 --    38 C    0.972
    40   1 H    0.996 --    38 C    0.974
    41   6 C    3.992 --    38 C    1.007    44 C    1.006    42 H    0.979
                            43 H    0.971
    42   1 H    0.997 --    41 C    0.979
    43   1 H    0.996 --    41 C    0.971
    44   6 C    3.994 --    41 C    1.006    47 C    1.002    46 H    0.981
                            45 H    0.976
    45   1 H    0.997 --    44 C    0.976
    46   1 H    0.997 --    44 C    0.981
    47   6 C    3.990 --    44 C    1.002    50 C    0.979    49 H    0.962
                            48 H    0.953
    48   1 H    0.994 --    47 C    0.953
    49   1 H    0.993 --    47 C    0.962
    50   6 C    3.949 --    59 O    1.644    58 N    1.243    47 C    0.979
    51   6 C    3.994 --    55 C    1.442    53 C    1.405    52 H    0.974
                             2 C    0.109
    52   1 H    0.995 --    51 C    0.974
    53   6 C    3.969 --    54 C    1.405    51 C    1.405    58 N    0.991
    54   6 C    3.993 --     2 C    1.441    53 C    1.405     1 H    0.973
                            55 C    0.110
    55   6 C    3.993 --    51 C    1.442     4 C    1.401    56 H    0.974
                            54 C    0.110
    56   1 H    0.995 --    55 C    0.974
    57   1 H    0.994 --     5 C    0.972
    58   7 N    3.484 --    50 C    1.243    53 C    0.991    38 C    0.959
                            59 O    0.187
    59   8 O    1.965 --    50 C    1.644    58 N    0.187
    60   6 C    3.971 --    63 C    1.007    62 H    0.974    61 H    0.972
                            80 N    0.960
    61   1 H    0.997 --    60 C    0.972
    62   1 H    0.996 --    60 C    0.974
    63   6 C    3.992 --    60 C    1.007    66 C    1.006    64 H    0.979
                            65 H    0.971
    64   1 H    0.997 --    63 C    0.979
    65   1 H    0.996 --    63 C    0.971
    66   6 C    3.994 --    63 C    1.006    69 C    1.002    68 H    0.981
                            67 H    0.977
    67   1 H    0.997 --    66 C    0.977
    68   1 H    0.997 --    66 C    0.981
    69   6 C    3.990 --    66 C    1.002    72 C    0.976    71 H    0.964
                            70 H    0.954
    70   1 H    0.994 --    69 C    0.954
    71   1 H    0.994 --    69 C    0.964
    72   6 C    3.951 --    81 O    1.658    80 N    1.237    69 C    0.976
    73   6 C    3.994 --    77 C    1.442    75 C    1.406    74 H    0.974
                            83 C    0.109
    74   1 H    0.995 --    73 C    0.974
    75   6 C    3.968 --    73 C    1.406    76 C    1.405    80 N    0.991
    76   6 C    3.993 --    83 C    1.441    75 C    1.405    82 H    0.973
                            77 C    0.110
    77   6 C    3.993 --    73 C    1.442    85 C    1.402    78 H    0.974
                            76 C    0.110
    78   1 H    0.995 --    77 C    0.974
    79   1 H    0.995 --    86 C    0.974
    80   7 N    3.480 --    72 C    1.237    75 C    0.991    60 C    0.960
                            81 O    0.189
    81   8 O    1.968 --    72 C    1.658    80 N    0.189
    82   1 H    0.994 --    76 C    0.973
    83   6 C    3.992 --    76 C    1.441    85 C    1.404    84 H    0.973
                            73 C    0.109
    84   1 H    0.995 --    83 C    0.973
    85   6 C    3.965 --    83 C    1.404    77 C    1.402   112 N    0.996
    86   6 C    3.967 --    91 C    0.998    87 H    0.974    79 H    0.974
                           112 N    0.961
    87   1 H    0.997 --    86 C    0.974
    88   6 C    3.957 --   116 O    1.655   112 N    1.202    89 C    1.011
    89   6 C    3.952 --    90 C    1.430   113 N    1.219    88 C    1.011
                           114 N    0.135
    90   6 C    3.981 --    89 C    1.430    94 C    1.322    91 C    1.012
    91   6 C    3.989 --    90 C    1.012    86 C    0.998    93 H    0.962
                            92 H    0.960
    92   1 H    0.994 --    91 C    0.960
    93   1 H    0.992 --    91 C    0.962
    94   6 C    3.968 --   114 N    1.427    90 C    1.322    95 C    1.000
    95   6 C    3.952 --   117 O    1.660   115 N    1.252    94 C    1.000
    96   6 C    3.956 --    97 C    1.402   104 C    1.371   113 N    1.006
    97   6 C    3.992 --    99 C    1.434    96 C    1.402    98 H    0.974
                           102 C    0.108
    98   1 H    0.995 --    97 C    0.974
    99   6 C    3.990 --    97 C    1.434   101 C    1.379   100 H    0.971
   100   1 H    0.995 --    99 C    0.971
   101   6 C    3.933 --    99 C    1.379   102 C    1.344   118 O    1.072
   102   6 C    3.991 --   104 C    1.477   101 C    1.344   103 H    0.972
                            97 C    0.108
   103   1 H    0.993 --   102 C    0.972
   104   6 C    3.990 --   102 C    1.477    96 C    1.371   105 H    0.972
   105   1 H    0.993 --   104 C    0.972
   106   6 C    3.936 --   108 H    0.981   109 H    0.980   107 H    0.979
                           118 O    0.967
   107   1 H    0.994 --   106 C    0.979
   108   1 H    0.996 --   106 C    0.981
   109   1 H    0.997 --   106 C    0.980
   110   1 H    0.957 --   115 N    0.941
   111   1 H    0.955 --   115 N    0.942
   112   7 N    3.472 --    88 C    1.202    85 C    0.996    86 C    0.961
                           116 O    0.189
   113   7 N    3.690 --    89 C    1.219   114 N    1.219    96 C    1.006
   114   7 N    2.965 --    94 C    1.427   113 N    1.219    89 C    0.135
   115   7 N    3.370 --    95 C    1.252   111 H    0.942   110 H    0.941
                           117 O    0.193
   116   8 O    2.001 --    88 C    1.655   112 N    0.189
   117   8 O    1.973 --    95 C    1.660   115 N    0.193
   118   8 O    2.208 --   101 C    1.072   106 C    0.967
   119   6 C    3.990 --   164 C    1.002   167 C    0.976   121 H    0.964
                           120 H    0.955
   120   1 H    0.994 --   119 C    0.955
   121   1 H    0.994 --   119 C    0.964
   122   8 O    1.968 --   167 C    1.658   177 N    0.190
   123   6 C    3.933 --   147 C    1.377   124 C    1.344   130 O    1.073
   124   6 C    3.991 --   148 C    1.475   123 C    1.344   125 H    0.973
                           145 C    0.106
   125   1 H    0.994 --   124 C    0.973
   126   6 C    3.933 --   128 H    0.981   127 H    0.980   129 H    0.977
                           130 O    0.965
   127   1 H    0.995 --   126 C    0.980
   128   1 H    0.996 --   126 C    0.981
   129   1 H    0.995 --   126 C    0.977
   130   8 O    2.208 --   123 C    1.073   126 C    0.965
   131   6 C    3.966 --   173 C    1.403   175 C    1.401   152 N    0.997
   132   1 H    0.995 --   175 C    0.974
   133   6 C    3.968 --   139 C    0.998   134 H    0.975   135 H    0.974
                           152 N    0.961
   134   1 H    0.997 --   133 C    0.975
   135   1 H    0.995 --   133 C    0.974
   136   6 C    3.957 --   156 O    1.656   152 N    1.200   137 C    1.011
   137   6 C    3.952 --   138 C    1.429   153 N    1.220   136 C    1.011
                           154 N    0.135
   138   6 C    3.980 --   137 C    1.429   142 C    1.324   139 C    1.012
   139   6 C    3.989 --   138 C    1.012   133 C    0.998   141 H    0.963
                           140 H    0.961
   140   1 H    0.994 --   139 C    0.961
   141   1 H    0.992 --   139 C    0.963
   142   6 C    3.967 --   154 N    1.428   138 C    1.324   143 C    0.995
   143   6 C    3.954 --   157 O    1.653   155 N    1.269   142 C    0.995
   144   6 C    3.955 --   145 C    1.399   148 C    1.371   153 N    1.005
   145   6 C    3.991 --   147 C    1.438   144 C    1.399   146 H    0.973
                           124 C    0.106
   146   1 H    0.995 --   145 C    0.973
   147   6 C    3.991 --   145 C    1.438   123 C    1.377   176 H    0.969
                           148 C    0.100
   148   6 C    3.991 --   124 C    1.475   144 C    1.371   149 H    0.972
                           147 C    0.100
   149   1 H    0.994 --   148 C    0.972
   150   1 H    0.947 --   155 N    0.920
   151   1 H    0.958 --   155 N    0.944
   152   7 N    3.470 --   136 C    1.200   131 C    0.997   133 C    0.961
                           156 O    0.188
   153   7 N    3.688 --   137 C    1.220   154 N    1.215   144 C    1.005
   154   7 N    2.961 --   142 C    1.428   153 N    1.215   137 C    0.135
   155   7 N    3.383 --   143 C    1.269   151 H    0.944   150 H    0.920
                           157 O    0.200
   156   8 O    2.001 --   136 C    1.656   152 N    0.188
   157   8 O    1.971 --   143 C    1.653   155 N    0.200
   158   6 C    3.971 --   161 C    1.007   160 H    0.974   159 H    0.972
                           177 N    0.960
   159   1 H    0.997 --   158 C    0.972
   160   1 H    0.996 --   158 C    0.974
   161   6 C    3.992 --   158 C    1.007   164 C    1.006   162 H    0.979
                           163 H    0.971
   162   1 H    0.997 --   161 C    0.979
   163   1 H    0.996 --   161 C    0.971
   164   6 C    3.994 --   161 C    1.006   119 C    1.002   166 H    0.981
                           165 H    0.977
   165   1 H    0.997 --   164 C    0.977
   166   1 H    0.997 --   164 C    0.981
   167   6 C    3.951 --   122 O    1.658   177 N    1.238   119 C    0.976
   168   6 C    3.994 --   175 C    1.442   170 C    1.406   169 H    0.974
                           173 C    0.109
   169   1 H    0.995 --   168 C    0.974
   170   6 C    3.968 --   168 C    1.406   171 C    1.405   177 N    0.991
   171   6 C    3.993 --   173 C    1.441   170 C    1.405   172 H    0.973
                           175 C    0.110
   172   1 H    0.994 --   171 C    0.973
   173   6 C    3.992 --   171 C    1.441   131 C    1.403   174 H    0.973
                           168 C    0.109
   174   1 H    0.995 --   173 C    0.973
   175   6 C    3.993 --   168 C    1.442   131 C    1.401   132 H    0.974
                           171 C    0.110
   176   1 H    0.994 --   147 C    0.969
   177   7 N    3.481 --   167 C    1.238   170 C    0.991   158 C    0.960
                           122 O    0.190
 ---------------------------------------------------------------------------

Topologies differ in total number of bonds
Writing topology from bond orders to xtbtopo.mol

molecular dipole:
                 x           y           z       tot (Debye)
 q only:       -0.389      -0.485       1.369
   full:       -0.561      -0.209       1.604       4.352
molecular quadrupole (traceless):
                xx          xy          yy          xz          yz          zz
 q only:     -192.885     -78.390    -163.350      65.479      41.155     356.234
  q+dip:     -260.265     -88.885    -120.048      57.908     101.099     380.313
   full:     -255.668     -88.699    -125.940      65.406     101.757     381.608


           -------------------------------------------------
          | TOTAL ENERGY             -290.513792530075 Eh   |
          | GRADIENT NORM               1.615560584440 Eh/α |
          | HOMO-LUMO GAP               2.783346485221 eV   |
           -------------------------------------------------

------------------------------------------------------------------------
 * finished run on 2026/10/03 at 18:56:01.532     
------------------------------------------------------------------------
 total:
 * wall-time:     0 d,  0 h,  0 min,  1.065 sec
 *  cpu-time:     0 d,  0 h,  0 min,  1.062 sec
 * ratio c/w:     0.998 speedup
 SCF:
 * wall-time:     0 d,  0 h,  0 min,  0.973 sec
 *  cpu-time:     0 d,  0 h,  0 min,  0.984 sec
 * ratio c/w:     1.012 speedup

normal termination of xtb
