40
Coordinates from ORCA-job DMSO4_cluster_SMD_DMSO_Opt_Freq_KeepDens E -2212.603580984962
  C          19.27651150468919    -19.19137512332390      0.82778872322251
  S          20.33173194522920    -20.00400293483049      2.08451176407704
  C          21.09435289777759    -18.46772749152897      2.72643626169056
  O          21.42939653646454    -20.74947332515723      1.31999761093748
  H          18.75412385880184    -19.98092257676371      0.28033555909046
  H          18.54833029376273    -18.54611329173295      1.33018929882187
  H          19.90959838594929    -18.61021380450798      0.14966945551126
  H          21.57327021042735    -17.93206789113668      1.90061692148918
  H          20.32258074745774    -17.84935423197047      3.19671499594285
  H          21.83775965970583    -18.76111935018981      3.47307951486500
  C          38.59314384405788    -29.16574180781348     -2.64445322519613
  S          37.69033857537570    -27.87949212943748     -1.70501328506377
  C          37.62723276029074    -26.65041876669784     -3.06218677208932
  O          38.67147634009174    -27.32991705879204     -0.66561992049780
  H          38.78457628264113    -29.99616282268589     -1.95885657346638
  H          37.97164077086053    -29.51037949131185     -3.47750559729984
  H          39.53624300393086    -28.74668894266330     -3.00946747307955
  H          38.64884064509776    -26.43112114604067     -3.38940187165651
  H          37.03459444916760    -27.04968628983772     -3.89154605754355
  H          37.15658438763783    -25.74731404855482     -2.66380796341271
  C          39.69955013418063    -13.21895795477708      0.15937669177241
  S          40.73461883511318    -12.47413160294136      1.47365543589493
  C          42.32758482673398    -13.15789778237824      0.88339305764338
  O          40.39494886719555    -13.21735092896918      2.76881693225548
  H          38.65955194253139    -12.96136160208777      0.37893558544988
  H          39.98646819173749    -12.80035877544779     -0.81090432122772
  H          39.83426977426985    -14.30526392680563      0.17037047237651
  H          42.25521540865129    -14.24949418989051      0.84568135412357
  H          42.55338255993729    -12.74798950004615     -0.10656589745305
  H          43.09839275448055    -12.85024017856870      1.59566944661493
  C          32.66858028103144    -26.26295784977289     -5.25866805250206
  S          33.89910383944311    -25.52594886750127     -4.12060411499577
  C          33.87707652997135    -26.88537800332004     -2.89316140692615
  O          33.21450506083601    -24.33006930197307     -3.45281621206161
  H          32.49501192114102    -25.54017809767113     -6.06105403840243
  H          33.07108447184264    -27.19087506194450     -5.67837784568293
  H          31.74076601551173    -26.45350600586701     -4.71000303904566
  H          32.84852875410617    -27.03711022880779     -2.55006643616566
  H          34.27401319764908    -27.79860963986542     -3.34847793171781
  H          34.51086553421608    -26.57841597638503     -2.05672104629279
