10
Coordinates from ORCA-job Monomer_r2SCAN3c_SMD E -193.116168578588
  C       0.000000      0.000000      0.000000
  O       0.000000      1.230000      0.000000
  C       1.290000     -0.750000      0.000000
  C      -1.290000     -0.750000      0.000000
  H       1.290000     -1.390000      0.890000
  H       1.290000     -1.390000     -0.890000
  H       2.170000     -0.140000      0.000000
  H      -1.290000     -1.390000      0.890000
  H      -1.290000     -1.390000     -0.890000
  H      -2.170000     -0.140000      0.000000
10
Coordinates from ORCA-job Monomer_r2SCAN3c_SMD E -193.118780874536
  C      -0.000000      0.022489     -0.000000
  O      -0.000000      1.250401     -0.000000
  C       1.281323     -0.756435     -0.000000
  C      -1.281323     -0.756435      0.000000
  H       1.291611     -1.406226      0.885022
  H       1.291611     -1.406226     -0.885022
  H       2.166590     -0.122558      0.000000
  H      -1.291611     -1.406226      0.885022
  H      -1.291611     -1.406226     -0.885022
  H      -2.166590     -0.122558      0.000000
10
Coordinates from ORCA-job Monomer_r2SCAN3c_SMD E -193.119385726563
  C      -0.000000      0.038159     -0.000000
  O       0.000000      1.260448     -0.000000
  C       1.275064     -0.760832      0.000000
  C      -1.275064     -0.760832     -0.000000
  H       1.296485     -1.416645      0.879351
  H       1.296485     -1.416645     -0.879351
  H       2.153506     -0.110182      0.000000
  H      -1.296485     -1.416645      0.879351
  H      -1.296485     -1.416645     -0.879351
  H      -2.153506     -0.110182      0.000000
10
Coordinates from ORCA-job Monomer_r2SCAN3c_SMD E -193.119402023505
  C       0.000000      0.037806      0.000000
  O      -0.000000      1.258566      0.000000
  C       1.276099     -0.761301     -0.000000
  C      -1.276099     -0.761301      0.000000
  H       1.300724     -1.417326      0.878725
  H       1.300724     -1.417326     -0.878725
  H       2.150998     -0.107233     -0.000000
  H      -1.300724     -1.417326      0.878725
  H      -1.300724     -1.417326     -0.878725
  H      -2.150998     -0.107233     -0.000000
10
Coordinates from ORCA-job Monomer_r2SCAN3c_SMD E -193.119404980912
  C       0.000000      0.036347     -0.000000
  O      -0.000000      1.256690     -0.000000
  C       1.277247     -0.761552     -0.000000
  C      -1.277247     -0.761552     -0.000000
  H       1.303826     -1.417359      0.878743
  H       1.303826     -1.417359     -0.878743
  H       2.149871     -0.105248      0.000000
  H      -1.303826     -1.417359      0.878743
  H      -1.303826     -1.417359     -0.878743
  H      -2.149871     -0.105248      0.000000
10
Coordinates from ORCA-job Monomer_r2SCAN3c_SMD E -193.119405448397
  C       0.000000      0.035478      0.000000
  O       0.000000      1.255927      0.000000
  C       1.277660     -0.761703      0.000000
  C      -1.277660     -0.761703      0.000000
  H       1.304959     -1.417325      0.878869
  H       1.304959     -1.417325     -0.878869
  H       2.149466     -0.104349     -0.000000
  H      -1.304959     -1.417325      0.878869
  H      -1.304959     -1.417325     -0.878869
  H      -2.149466     -0.104349     -0.000000
