      -----------------------------------------------------------      
     |                   =====================                   |     
     |                           x T B                           |     
     |                   =====================                   |     
     |                         S. Grimme                         |     
     |          Mulliken Center for Theoretical Chemistry        |     
     |                    University of Bonn                     |     
      -----------------------------------------------------------      

   * xtb version 6.7.1pre (5071a88) compiled by 'Marcel@Raven' on 2024-07-23

   xtb is free software: you can redistribute it and/or modify it under
   the terms of the GNU Lesser General Public License as published by
   the Free Software Foundation, either version 3 of the License, or
   (at your option) any later version.
   
   xtb is distributed in the hope that it will be useful,
   but WITHOUT ANY WARRANTY; without even the implied warranty of
   MERCHANTABILITY or FITNESS FOR A PARTICULAR PURPOSE.  See the
   GNU Lesser General Public License for more details.
   
   Cite this work as:
   * C. Bannwarth, E. Caldeweyher, S. Ehlert, A. Hansen, P. Pracht,
     J. Seibert, S. Spicher, S. Grimme, WIREs Comput. Mol. Sci., 2020, 11,
     e01493. DOI: 10.1002/wcms.1493
   
   for GFN2-xTB:
   * C. Bannwarth, S. Ehlert and S. Grimme., J. Chem. Theory Comput., 2019,
     15, 1652-1671. DOI: 10.1021/acs.jctc.8b01176
   for GFN1-xTB:
   * S. Grimme, C. Bannwarth, P. Shushkov, J. Chem. Theory Comput., 2017,
     13, 1989-2009. DOI: 10.1021/acs.jctc.7b00118
   for GFN0-xTB:
   * P. Pracht, E. Caldeweyher, S. Ehlert, S. Grimme, ChemRxiv, 2019, preprint.
     DOI: 10.26434/chemrxiv.8326202.v1
   for GFN-FF:
   * S. Spicher and S. Grimme, Angew. Chem. Int. Ed., 2020, 59, 15665-15673.
     DOI: 10.1002/anie.202004239
   
   for ALPB and GBSA implicit solvation:
   * S. Ehlert, M. Stahn, S. Spicher, S. Grimme, J. Chem. Theory Comput.,
     2021, 17, 4250-4261. DOI: 10.1021/acs.jctc.1c00471
   
   for ddCOSMO and CPCM-X implicit solvation:
   * M. Stahn, S. Ehlert, S. Grimme, J. Phys. Chem. A,
     2023, XX, XXXX-XXXX. DOI: 10.1021/acs.jpca.3c04382
   
   for DFT-D4:
   * E. Caldeweyher, C. Bannwarth and S. Grimme, J. Chem. Phys., 2017,
     147, 034112. DOI: 10.1063/1.4993215
   * E. Caldeweyher, S. Ehlert, A. Hansen, H. Neugebauer, S. Spicher,
     C. Bannwarth and S. Grimme, J. Chem. Phys., 2019, 150, 154122.
     DOI: 10.1063/1.5090222
   * E. Caldeweyher, J.-M. Mewes, S. Ehlert and S. Grimme, Phys. Chem. Chem. Phys.
     2020, 22, 8499-8512. DOI: 10.1039/D0CP00502A
   
   for sTDA-xTB:
   * S. Grimme and C. Bannwarth, J. Chem. Phys., 2016, 145, 054103.
     DOI: 10.1063/1.4959605
   
   in the mass-spec context:
   * V. Asgeirsson, C. Bauer and S. Grimme, Chem. Sci., 2017, 8, 4879.
     DOI: 10.1039/c7sc00601b
   * J. Koopman and S. Grimme, ACS Omega 2019, 4, 12, 15120-15133.
     DOI: 10.1021/acsomega.9b02011
   
   for metadynamics refer to:
   * S. Grimme, J. Chem. Theory Comput., 2019, 155, 2847-2862
     DOI: 10.1021/acs.jctc.9b00143
   
   for SPH calculations refer to:
   * S. Spicher and S. Grimme, J. Chem. Theory Comput., 2021, 17, 1701-1714
     DOI: 10.1021/acs.jctc.0c01306
   
   for ONIOM refer to:
   * C. Plett, A. Katbashev, S. Ehlert, S. Grimme, M. Bursch,
     Phys. Chem. Chem. Phys., 2023, 25, 17860-17868. DOI: 10.1039/D3CP02178E
   
   for DIPRO refer to:
   * J. Kohn, N. Gildemeister, S. Grimme, D. Fazzi, A. Hansen,
     J. Chem. Phys., 2023, just accepted.
   
   for PTB refer to:
   * S. Grimme, M. Mueller, A. Hansen, J. Chem. Phys., 2023, 158, 124111.
     DOI: 10.1063/5.0137838
   
   with help from (in alphabetical order)
   P. Atkinson, C. Bannwarth, F. Bohle, G. Brandenburg, E. Caldeweyher
   M. Checinski, S. Dohm, S. Ehlert, S. Ehrlich, I. Gerasimov, C. Hölzer
   A. Katbashev, J. Kohn, J. Koopman, C. Lavigne, S. Lehtola, F. März, M. Müller,
   F. Musil, H. Neugebauer, J. Pisarek, C. Plett, P. Pracht, F. Pultar,
   J. Seibert, P. Shushkov, S. Spicher, M. Stahn, M. Steiner, T. Strunk,
   J. Stückrath, T. Rose, and J. Unsleber
   
 * started run on 2026/10/03 at 19:16:50.454     
   ID    Z sym.   atoms
    1    1 H      1, 3, 6, 11, 12, 17, 19, 22, 24, 26-30, 39, 40, 42, 43, 45,
                  46, 48, 49, 52, 56, 57, 61, 62, 64, 65, 67, 68, 70, 71, 74,
                  78, 79, 82, 84, 87, 92, 93, 98, 100, 103, 105, 107-111,
                  120, 121, 125, 127-129, 132, 134, 135, 140, 141, 146,
                  149-151, 159, 160, 162, 163, 165, 166, 169, 172, 174, 176,
                  179, 180, 184, 186-188, 191, 193, 194, 199, 200, 205,
                  208-210, 218, 219, 221, 222, 224, 225, 228, 231, 233, 235,
                  238, 239, 241, 242, 244, 245, 248, 251, 253, 255, 258, 260,
                  261, 266, 267, 272, 275-277, 285-287, 291, 293, 294, 297,
                  298, 300, 301, 303, 304, 307, 310, 312, 314, 317, 319, 320,
                  325, 326, 331, 334-336, 344-346, 350, 352, 353, 356, 357,
                  361, 363-365, 368, 370, 371, 376, 377, 382, 385-387, 395,
                  396, 398, 399, 401, 402, 405, 408, 410, 412, 415, 416, 420,
                  422-424, 427, 429, 430, 435, 436, 441, 444-446, 454, 455,
                  457, 458, 460, 461, 464, 467, 469, 471, 474, 475, 477, 478,
                  480, 481, 483, 484, 487, 491, 492, 495, 497, 500, 505, 506,
                  511, 513, 516, 518, 520-524, 532, 534, 537, 542, 543, 548,
                  550, 553, 555, 557-561, 570, 571, 573, 574, 576, 577, 579,
                  580, 583, 587, 588, 591, 593, 596, 601, 602, 607, 609, 612,
                  614, 616-620, 629, 630, 632, 633, 635, 636, 638, 639, 642,
                  646, 647, 651, 652, 654, 655, 657, 658, 661, 664, 666, 668,
                  671, 673, 674, 679, 680, 685, 688-690, 698-700, 704, 706,
                  707, 710, 711, 713, 714, 716, 717, 720, 723, 725, 727, 730,
                  732, 733, 738, 739, 744, 747-749, 757-759, 763, 765, 766,
                  769, 770, 772, 773, 775, 776, 778, 779, 782, 786, 787, 790,
                  792, 795, 800, 801, 806, 808, 811, 813, 815-819
    2    6 C      2, 4, 5, 7-10, 13-16, 18, 20, 21, 23, 25, 38, 41, 44, 47,
                  50, 51, 53-55, 60, 63, 66, 69, 72, 73, 75-77, 83, 85, 86,
                  88-91, 94-97, 99, 101, 102, 104, 106, 119, 123, 124, 126,
                  131, 133, 136-139, 142-145, 147, 148, 158, 161, 164, 167,
                  168, 170, 171, 173, 175, 178, 182, 183, 185, 190, 192,
                  195-198, 201-204, 206, 207, 217, 220, 223, 226, 227, 229,
                  230, 232, 234, 237, 240, 243, 246, 247, 249, 250, 252, 254,
                  257, 259, 262-265, 268-271, 273, 274, 284, 289, 290, 292,
                  296, 299, 302, 305, 306, 308, 309, 311, 313, 316, 318,
                  321-324, 327-330, 332, 333, 343, 348, 349, 351, 355, 359,
                  360, 362, 367, 369, 372-375, 378-381, 383, 384, 394, 397,
                  400, 403, 404, 406, 407, 409, 411, 414, 418, 419, 421, 426,
                  428, 431-434, 437-440, 442, 443, 453, 456, 459, 462, 463,
                  465, 466, 468, 470, 473, 476, 479, 482, 485, 486, 488-490,
                  496, 498, 499, 501-504, 507-510, 512, 514, 515, 517, 519,
                  533, 535, 536, 538-541, 544-547, 549, 551, 552, 554, 556,
                  569, 572, 575, 578, 581, 582, 584-586, 592, 594, 595,
                  597-600, 603-606, 608, 610, 611, 613, 615, 628, 631, 634,
                  637, 640, 641, 643-645, 650, 653, 656, 659, 660, 662, 663,
                  665, 667, 670, 672, 675-678, 681-684, 686, 687, 697, 702,
                  703, 705, 709, 712, 715, 718, 719, 721, 722, 724, 726, 729,
                  731, 734-737, 740-743, 745, 746, 756, 761, 762, 764, 768,
                  771, 774, 777, 780, 781, 783-785, 791, 793, 794, 796-799,
                  802-805, 807, 809, 810, 812, 814
    3    7 N      31-34, 58, 80, 112-115, 152-155, 177, 211-214, 236, 256,
                  278-281, 315, 337-340, 388-391, 413, 447-450, 472, 493,
                  525-528, 562-565, 589, 621-624, 648, 669, 691-694, 728,
                  750-753, 788, 820-823
    4    8 O      35-37, 59, 81, 116-118, 122, 130, 156, 157, 181, 189, 215,
                  216, 282, 283, 288, 295, 341, 342, 347, 354, 358, 366, 392,
                  393, 417, 425, 451, 452, 494, 529-531, 566-568, 590,
                  625-627, 649, 695, 696, 701, 708, 754, 755, 760, 767, 789,
                  824-826

           -------------------------------------------------
          |                Calculation Setup                |
           -------------------------------------------------

          program call               : C:\ORCA_6.1.1\xTB_bigstack\xtb.exe c_loo_D3a.xyz -c 0 -u 0 -P 1 --acc 1.0 --namespace c_loo_D3a
          calculation namespace      : c_loo_D3a
          coordinate file            : c_loo_D3a.xyz
          omp threads                :                     1


molecular fragmentation (1/2 indicates fragments):
111111111111111111111111111111111111111111111111111111111112222222222222
222222222222222222222222222222222222222222222222222222222222222222222222
222222222222222222222222222222222222222222222222222222222222222222222222
222222222222222222222222222222222222222222222222222222222222222222222222
222222222222222222222222222222222222222222222222222222222222222222222222
222222222222222222222222222222222222222222222222222222222222222222222222
222222222222222222222222222222222222222222222222222222222222222222222222
222222222222222222222222222222222222222222222222222222222222222222222222
222222222222222222222222222222222222222222222222222222222222222222222222
222222222222222222222222222222222222222222222222222222222222222222222222
222222222222222222222222222222222222222222222222222222222222222222222222
2222222222222222222222222222222222
# atoms in fragment 1/2:    59   767
 fragment masses (1/2) :      459.50     5973.47
CMA distance (Bohr)    :   1.337
constraining FC (au)   :  0.0500

           -------------------------------------------------
          |                 G F N 2 - x T B                 |
           -------------------------------------------------

        Reference                      10.1021/acs.jctc.8b01176
      * Hamiltonian:
        H0-scaling (s, p, d)           1.850000    2.230000    2.230000
        zeta-weighting                 0.500000
      * Dispersion:
        s8                             2.700000
        a1                             0.520000
        a2                             5.000000
        s9                             5.000000
      * Repulsion:
        kExp                           1.500000    1.000000
        rExp                           1.000000
      * Coulomb:
        alpha                          2.000000
        third order                    shell-resolved
        anisotropic                    true
        a3                             3.000000
        a5                             4.000000
        cn-shift                       1.200000
        cn-exp                         4.000000
        max-rad                        5.000000


          ...................................................
          :                      SETUP                      :
          :.................................................:
          :  # basis functions                2254          :
          :  # atomic orbitals                2254          :
          :  # shells                         1302          :
          :  # electrons                      2436          :
          :  max. iterations                   250          :
          :  Hamiltonian                  GFN2-xTB          :
          :  restarted?                      false          :
          :  GBSA solvation                  false          :
          :  PC potential                    false          :
          :  electronic temp.          300.0000000     K    :
          :  accuracy                    1.0000000          :
          :  -> integral cutoff          0.2500000E+02      :
          :  -> integral neglect         0.1000000E-07      :
          :  -> SCF convergence          0.1000000E-05 Eh   :
          :  -> wf. convergence          0.1000000E-03 e    :
          :  Broyden damping             0.4000000          :
          :  net charge                          0          :
          :  unpaired electrons                  0          :
          ...................................................

 iter      E             dE          RMSdq      gap      omega  full diag
   1  -1382.9035851 -0.138290E+04  0.411E+00    2.76       0.0  T
   2  -1386.4173930 -0.351381E+01  0.242E+00    2.05       1.0  T
   3  -1386.7459200 -0.328527E+00  0.128E+00    2.47       1.0  T
   4  -1386.8009756 -0.550555E-01  0.430E-01    2.15       1.0  T
   5  -1386.9081727 -0.107197E+00  0.939E-02    2.17       1.0  T
   6  -1386.9095843 -0.141164E-02  0.532E-02    2.17       1.0  T
   7  -1386.9106625 -0.107819E-02  0.218E-02    2.18       1.0  T
   8  -1386.9107164 -0.538901E-04  0.875E-03    2.18       1.0  T
   9  -1386.9107437 -0.273160E-04  0.396E-03    2.18       1.0  T
  10  -1386.9107460 -0.232801E-05  0.169E-03    2.18       2.1  T
  11  -1386.9107472 -0.122582E-05  0.545E-04    2.18       6.4  T
  12  -1386.9107473 -0.821306E-07  0.279E-04    2.18      12.5  T
  13  -1386.9107473 -0.156392E-07  0.109E-04    2.18      32.0  T

   *** convergence criteria satisfied after 13 iterations ***

         #    Occupation            Energy/Eh            Energy/eV
      -------------------------------------------------------------
         1        2.0000           -0.7286547             -19.8277
       ...           ...                  ...                  ...
      1212        2.0000           -0.3720647             -10.1244
      1213        2.0000           -0.3710077             -10.0956
      1214        2.0000           -0.3702202             -10.0742
      1215        2.0000           -0.3692540             -10.0479
      1216        2.0000           -0.3657170              -9.9517
      1217        2.0000           -0.3630750              -9.8798
      1218        2.0000           -0.3595347              -9.7834 (HOMO)
      1219                         -0.2792973              -7.6001 (LUMO)
      1220                         -0.2784789              -7.5778
      1221                         -0.2761977              -7.5157
      1222                         -0.2761832              -7.5153
      1223                         -0.2748122              -7.4780
       ...                                ...                  ...
      2254                          0.9004166              24.5016
      -------------------------------------------------------------
                  HL-Gap            0.0802374 Eh            2.1834 eV
             Fermi-level           -0.3194160 Eh           -8.6918 eV

 SCC (total)                   0 d,  0 h,  0 min, 58.892 sec
 SCC setup                      ...        0 min,  0.058 sec (  0.098%)
 Dispersion                     ...        0 min,  0.163 sec (  0.277%)
 classical contributions        ...        0 min,  0.020 sec (  0.034%)
 integral evaluation            ...        0 min,  1.164 sec (  1.976%)
 iterations                     ...        0 min, 46.274 sec ( 78.574%)
 molecular gradient             ...        0 min, 10.615 sec ( 18.025%)
 printout                       ...        0 min,  0.598 sec (  1.015%)

         :::::::::::::::::::::::::::::::::::::::::::::::::::::
         ::                     SUMMARY                     ::
         :::::::::::::::::::::::::::::::::::::::::::::::::::::
         :: total energy           -1356.105549312761 Eh    ::
         :: gradient norm              3.488121488224 Eh/a0 ::
         :: HOMO-LUMO gap              2.183370174653 eV    ::
         ::.................................................::
         :: SCC energy             -1386.785517632570 Eh    ::
         :: -> isotropic ES            2.032595149473 Eh    ::
         :: -> anisotropic ES         -0.005920069237 Eh    ::
         :: -> anisotropic XC          0.258098240357 Eh    ::
         :: -> dispersion             -1.365253146707 Eh    ::
         :: repulsion energy          30.679968319810 Eh    ::
         :: add. restraining           0.000000000000 Eh    ::
         :: total charge               0.000000000000 e     ::
         :::::::::::::::::::::::::::::::::::::::::::::::::::::

           -------------------------------------------------
          |                Property Printout                |
           -------------------------------------------------

    * Orbital Energies and Occupations

         #    Occupation            Energy/Eh            Energy/eV
      -------------------------------------------------------------
         1        2.0000           -0.7286547             -19.8277
       ...           ...                  ...                  ...
      1206        2.0000           -0.3758962             -10.2287
      1207        2.0000           -0.3753151             -10.2128
      1208        2.0000           -0.3742724             -10.1845
      1209        2.0000           -0.3739716             -10.1763
      1210        2.0000           -0.3731874             -10.1549
      1211        2.0000           -0.3729887             -10.1495
      1212        2.0000           -0.3720647             -10.1244
      1213        2.0000           -0.3710077             -10.0956
      1214        2.0000           -0.3702202             -10.0742
      1215        2.0000           -0.3692540             -10.0479
      1216        2.0000           -0.3657170              -9.9517
      1217        2.0000           -0.3630750              -9.8798
      1218        2.0000           -0.3595347              -9.7834 (HOMO)
      1219                         -0.2792973              -7.6001 (LUMO)
      1220                         -0.2784789              -7.5778
      1221                         -0.2761977              -7.5157
      1222                         -0.2761832              -7.5153
      1223                         -0.2748122              -7.4780
      1224                         -0.2742177              -7.4618
      1225                         -0.2715578              -7.3895
      1226                         -0.2696662              -7.3380
      1227                         -0.2667285              -7.2581
      1228                         -0.2638011              -7.1784
      1229                         -0.2591316              -7.0513
       ...                                ...                  ...
      2254                          0.9004166              24.5016
      -------------------------------------------------------------
                  HL-Gap            0.0802374 Eh            2.1834 eV
             Fermi-level           -0.3194160 Eh           -8.6918 eV

     #   Z          covCN         q      C6AA      α(0)
     1   1 H        0.930     0.079     1.988     2.205
     2   6 C        2.936    -0.054    29.341     8.884
     3   1 H        0.930     0.071     2.071     2.250
     4   6 C        2.928     0.064    26.560     8.452
     5   6 C        3.764    -0.019    20.962     6.526
     6   1 H        0.930     0.066     2.129     2.282
     7   6 C        2.767     0.266    22.508     7.770
     8   6 C        3.096    -0.012    28.185     8.701
     9   6 C        3.070    -0.020    28.422     8.742
    10   6 C        3.821    -0.085    22.111     6.692
    11   1 H        0.930     0.072     2.064     2.247
    12   1 H        0.930     0.083     1.943     2.180
    13   6 C        3.172     0.022    27.134     8.509
    14   6 C        2.748     0.278    22.296     7.732
    15   6 C        2.920     0.038    27.147     8.544
    16   6 C        2.934    -0.046    29.141     8.853
    17   1 H        0.930     0.069     2.092     2.262
    18   6 C        2.932    -0.076    29.896     8.967
    19   1 H        0.930     0.101     1.773     2.082
    20   6 C        2.878     0.149    24.766     8.158
    21   6 C        2.936    -0.073    29.812     8.955
    22   1 H        0.930     0.075     2.026     2.226
    23   6 C        2.932    -0.051    29.279     8.874
    24   1 H        0.930     0.073     2.052     2.240
    25   6 C        3.664     0.009    20.691     6.524
    26   1 H        0.930     0.067     2.121     2.277
    27   1 H        0.930     0.054     2.266     2.354
    28   1 H        0.930     0.083     1.952     2.185
    29   1 H        0.862     0.230     0.964     1.538
    30   1 H        0.863     0.211     1.053     1.608
    31   7 N        2.745    -0.117    23.556     7.208
    32   7 N        3.019     0.089    19.698     6.592
    33   7 N        1.991    -0.250    27.317     7.751
    34   7 N        2.645    -0.284    27.326     7.764
    35   8 O        0.858    -0.452    22.739     6.393
    36   8 O        0.860    -0.470    23.120     6.447
    37   8 O        1.705    -0.281    18.663     5.833
    38   6 C        3.762    -0.010    20.791     6.500
    39   1 H        0.930     0.054     2.272     2.357
    40   1 H        0.930     0.061     2.192     2.315
    41   6 C        3.827    -0.083    22.070     6.685
    42   1 H        0.930     0.063     2.163     2.300
    43   1 H        0.930     0.071     2.072     2.251
    44   6 C        3.825    -0.084    22.085     6.687
    45   1 H        0.930     0.072     2.059     2.244
    46   1 H        0.930     0.044     2.393     2.419
    47   6 C        3.826    -0.113    22.631     6.769
    48   1 H        0.930     0.081     1.965     2.192
    49   1 H        0.930     0.075     2.031     2.228
    50   6 C        2.766     0.267    22.493     7.767
    51   6 C        2.935    -0.055    29.355     8.886
    52   1 H        0.930     0.075     2.031     2.229
    53   6 C        2.930     0.066    26.526     8.446
    54   6 C        2.938    -0.051    29.268     8.873
    55   6 C        2.935    -0.057    29.409     8.894
    56   1 H        0.930     0.079     1.989     2.205
    57   1 H        0.930     0.077     2.010     2.217
    58   7 N        2.739    -0.116    23.525     7.204
    59   8 O        0.859    -0.479    23.320     6.475
    60   6 C        3.762    -0.009    20.775     6.497
    61   1 H        0.930     0.052     2.298     2.370
    62   1 H        0.930     0.060     2.204     2.321
    63   6 C        3.827    -0.085    22.095     6.689
    64   1 H        0.930     0.064     2.155     2.295
    65   1 H        0.930     0.075     2.027     2.226
    66   6 C        3.825    -0.085    22.104     6.690
    67   1 H        0.930     0.077     2.014     2.219
    68   1 H        0.930     0.042     2.428     2.436
    69   6 C        3.826    -0.111    22.598     6.764
    70   1 H        0.930     0.079     1.986     2.204
    71   1 H        0.930     0.071     2.078     2.254
    72   6 C        2.766     0.265    22.530     7.773
    73   6 C        2.935    -0.053    29.323     8.881
    74   1 H        0.930     0.073     2.053     2.240
    75   6 C        2.930     0.070    26.436     8.432
    76   6 C        2.938    -0.046    29.138     8.853
    77   6 C        2.935    -0.056    29.390     8.891
    78   1 H        0.930     0.078     2.004     2.214
    79   1 H        0.930     0.075     2.032     2.229
    80   7 N        2.739    -0.118    23.569     7.210
    81   8 O        0.859    -0.475    23.235     6.463
    82   1 H        0.930     0.075     2.030     2.228
    83   6 C        2.936    -0.049    29.217     8.865
    84   1 H        0.930     0.069     2.100     2.266
    85   6 C        2.928     0.064    26.558     8.451
    86   6 C        3.764    -0.015    20.891     6.515
    87   1 H        0.930     0.061     2.182     2.310
    88   6 C        2.767     0.267    22.492     7.767
    89   6 C        3.096    -0.010    28.147     8.695
    90   6 C        3.070    -0.019    28.418     8.741
    91   6 C        3.821    -0.085    22.102     6.690
    92   1 H        0.930     0.073     2.055     2.241
    93   1 H        0.930     0.084     1.935     2.175
    94   6 C        3.172     0.021    27.150     8.511
    95   6 C        2.748     0.277    22.319     7.736
    96   6 C        2.920     0.045    26.999     8.521
    97   6 C        2.934    -0.045    29.106     8.848
    98   1 H        0.930     0.070     2.088     2.259
    99   6 C        2.932    -0.082    30.050     8.990
   100   1 H        0.930     0.069     2.101     2.266
   101   6 C        2.878     0.146    24.827     8.168
   102   6 C        2.936    -0.065    29.626     8.927
   103   1 H        0.930     0.085     1.930     2.173
   104   6 C        2.932    -0.043    29.072     8.843
   105   1 H        0.930     0.081     1.966     2.192
   106   6 C        3.664     0.012    20.641     6.516
   107   1 H        0.930     0.077     2.005     2.214
   108   1 H        0.930     0.056     2.242     2.341
   109   1 H        0.930     0.058     2.223     2.331
   110   1 H        0.862     0.206     1.075     1.624
   111   1 H        0.863     0.218     1.020     1.582
   112   7 N        2.745    -0.117    23.539     7.206
   113   7 N        3.019     0.092    19.639     6.582
   114   7 N        1.991    -0.241    27.100     7.721
   115   7 N        2.645    -0.283    27.319     7.763
   116   8 O        0.858    -0.453    22.769     6.398
   117   8 O        0.860    -0.461    22.940     6.422
   118   8 O        1.705    -0.275    18.570     5.818
   119   6 C        3.826    -0.106    22.511     6.751
   120   1 H        0.930     0.074     2.041     2.234
   121   1 H        0.930     0.076     2.017     2.221
   122   8 O        0.859    -0.493    23.628     6.517
   123   6 C        2.878     0.146    24.834     8.170
   124   6 C        2.936    -0.075    29.871     8.963
   125   1 H        0.930     0.069     2.099     2.265
   126   6 C        3.664     0.010    20.671     6.521
   127   1 H        0.930     0.065     2.143     2.289
   128   1 H        0.930     0.058     2.227     2.333
   129   1 H        0.930     0.071     2.078     2.254
   130   8 O        1.705    -0.287    18.762     5.848
   131   6 C        2.928     0.072    26.384     8.424
   132   1 H        0.930     0.071     2.070     2.250
   133   6 C        3.764    -0.015    20.889     6.515
   134   1 H        0.930     0.065     2.144     2.289
   135   1 H        0.930     0.068     2.106     2.269
   136   6 C        2.767     0.276    22.326     7.738
   137   6 C        3.096    -0.002    27.963     8.667
   138   6 C        3.070    -0.018    28.396     8.738
   139   6 C        3.821    -0.085    22.101     6.690
   140   1 H        0.930     0.073     2.047     2.237
   141   1 H        0.930     0.080     1.974     2.197
   142   6 C        3.172     0.025    27.063     8.498
   143   6 C        2.748     0.280    22.267     7.727
   144   6 C        2.920     0.042    27.062     8.531
   145   6 C        2.934    -0.044    29.102     8.847
   146   1 H        0.930     0.094     1.843     2.123
   147   6 C        2.932    -0.072    29.805     8.953
   148   6 C        2.932    -0.054    29.336     8.883
   149   1 H        0.930     0.074     2.039     2.233
   150   1 H        0.862     0.229     0.968     1.541
   151   1 H        0.863     0.208     1.067     1.618
   152   7 N        2.745    -0.114    23.489     7.198
   153   7 N        3.019     0.089    19.695     6.591
   154   7 N        1.991    -0.252    27.362     7.758
   155   7 N        2.645    -0.284    27.324     7.763
   156   8 O        0.858    -0.438    22.460     6.354
   157   8 O        0.860    -0.464    22.994     6.429
   158   6 C        3.762    -0.013    20.853     6.509
   159   1 H        0.930     0.061     2.181     2.309
   160   1 H        0.930     0.065     2.138     2.286
   161   6 C        3.827    -0.085    22.099     6.689
   162   1 H        0.930     0.057     2.230     2.335
   163   1 H        0.930     0.061     2.186     2.312
   164   6 C        3.825    -0.082    22.044     6.681
   165   1 H        0.930     0.056     2.241     2.341
   166   1 H        0.930     0.051     2.300     2.372
   167   6 C        2.766     0.266    22.519     7.772
   168   6 C        2.935    -0.060    29.492     8.906
   169   1 H        0.930     0.072     2.059     2.244
   170   6 C        2.930     0.060    26.664     8.468
   171   6 C        2.938    -0.048    29.191     8.861
   172   1 H        0.930     0.070     2.083     2.257
   173   6 C        2.936    -0.044    29.082     8.844
   174   1 H        0.930     0.097     1.815     2.107
   175   6 C        2.935    -0.059    29.471     8.903
   176   1 H        0.930     0.077     2.009     2.216
   177   7 N        2.739    -0.111    23.433     7.190
   178   6 C        3.826    -0.104    22.464     6.744
   179   1 H        0.930     0.072     2.061     2.245
   180   1 H        0.930     0.078     1.996     2.209
   181   8 O        0.859    -0.489    23.535     6.504
   182   6 C        2.878     0.145    24.839     8.170
   183   6 C        2.936    -0.074    29.845     8.960
   184   1 H        0.930     0.072     2.066     2.248
   185   6 C        3.664     0.013    20.622     6.513
   186   1 H        0.930     0.064     2.147     2.291
   187   1 H        0.930     0.053     2.283     2.363
   188   1 H        0.930     0.073     2.055     2.241
   189   8 O        1.705    -0.287    18.775     5.850
   190   6 C        2.928     0.073    26.379     8.423
   191   1 H        0.930     0.069     2.097     2.264
   192   6 C        3.764    -0.015    20.882     6.513
   193   1 H        0.930     0.065     2.136     2.286
   194   1 H        0.930     0.068     2.110     2.271
   195   6 C        2.767     0.276    22.327     7.738
   196   6 C        3.096    -0.002    27.968     8.667
   197   6 C        3.070    -0.017    28.370     8.734
   198   6 C        3.821    -0.084    22.093     6.689
   199   1 H        0.930     0.075     2.030     2.228
   200   1 H        0.930     0.083     1.949     2.183
   201   6 C        3.172     0.026    27.056     8.497
   202   6 C        2.748     0.278    22.303     7.733
   203   6 C        2.920     0.042    27.060     8.530
   204   6 C        2.934    -0.047    29.165     8.857
   205   1 H        0.930     0.093     1.851     2.127
   206   6 C        2.932    -0.075    29.872     8.963
   207   6 C        2.932    -0.054    29.341     8.883
   208   1 H        0.930     0.075     2.028     2.227
   209   1 H        0.862     0.230     0.966     1.540
   210   1 H        0.863     0.204     1.085     1.631
   211   7 N        2.745    -0.114    23.483     7.197
   212   7 N        3.019     0.088    19.720     6.595
   213   7 N        1.991    -0.255    27.432     7.768
   214   7 N        2.645    -0.286    27.379     7.771
   215   8 O        0.858    -0.440    22.495     6.359
   216   8 O        0.860    -0.455    22.804     6.403
   217   6 C        3.762    -0.012    20.827     6.505
   218   1 H        0.930     0.060     2.202     2.320
   219   1 H        0.930     0.063     2.166     2.302
   220   6 C        3.827    -0.084    22.077     6.686
   221   1 H        0.930     0.056     2.247     2.344
   222   1 H        0.930     0.059     2.212     2.325
   223   6 C        3.825    -0.080    22.010     6.676
   224   1 H        0.930     0.054     2.267     2.354
   225   1 H        0.930     0.053     2.284     2.363
   226   6 C        2.766     0.269    22.464     7.762
   227   6 C        2.935    -0.061    29.524     8.911
   228   1 H        0.930     0.064     2.155     2.295
   229   6 C        2.930     0.061    26.630     8.463
   230   6 C        2.938    -0.047    29.165     8.857
   231   1 H        0.930     0.072     2.068     2.249
   232   6 C        2.936    -0.043    29.057     8.841
   233   1 H        0.930     0.097     1.809     2.103
   234   6 C        2.935    -0.061    29.505     8.908
   235   1 H        0.930     0.074     2.042     2.234
   236   7 N        2.739    -0.110    23.413     7.186
   237   6 C        3.762    -0.012    20.829     6.506
   238   1 H        0.930     0.058     2.224     2.332
   239   1 H        0.930     0.054     2.274     2.358
   240   6 C        3.827    -0.083    22.069     6.685
   241   1 H        0.930     0.059     2.208     2.323
   242   1 H        0.930     0.068     2.111     2.272
   243   6 C        3.825    -0.082    22.036     6.680
   244   1 H        0.930     0.071     2.070     2.250
   245   1 H        0.930     0.047     2.361     2.403
   246   6 C        2.766     0.268    22.473     7.764
   247   6 C        2.935    -0.058    29.446     8.899
   248   1 H        0.930     0.065     2.138     2.286
   249   6 C        2.930     0.066    26.517     8.445
   250   6 C        2.938    -0.049    29.220     8.865
   251   1 H        0.930     0.073     2.054     2.241
   252   6 C        2.936    -0.048    29.180     8.859
   253   1 H        0.930     0.091     1.867     2.137
   254   6 C        2.935    -0.059    29.463     8.902
   255   1 H        0.930     0.092     1.858     2.131
   256   7 N        2.739    -0.112    23.443     7.191
   257   6 C        2.928     0.071    26.406     8.427
   258   1 H        0.930     0.068     2.102     2.267
   259   6 C        3.764    -0.011    20.812     6.503
   260   1 H        0.930     0.058     2.220     2.330
   261   1 H        0.930     0.067     2.119     2.276
   262   6 C        2.767     0.275    22.345     7.741
   263   6 C        3.096    -0.004    28.001     8.672
   264   6 C        3.070    -0.019    28.406     8.739
   265   6 C        3.821    -0.083    22.070     6.686
   266   1 H        0.930     0.076     2.022     2.223
   267   1 H        0.930     0.081     1.969     2.194
   268   6 C        3.172     0.023    27.127     8.508
   269   6 C        2.748     0.276    22.326     7.737
   270   6 C        2.920     0.041    27.073     8.532
   271   6 C        2.934    -0.046    29.145     8.854
   272   1 H        0.930     0.089     1.890     2.150
   273   6 C        2.932    -0.083    30.071     8.993
   274   6 C        2.932    -0.050    29.251     8.870
   275   1 H        0.930     0.076     2.020     2.222
   276   1 H        0.862     0.205     1.082     1.629
   277   1 H        0.863     0.211     1.050     1.605
   278   7 N        2.745    -0.115    23.502     7.200
   279   7 N        3.019     0.091    19.658     6.585
   280   7 N        1.991    -0.246    27.226     7.739
   281   7 N        2.645    -0.286    27.370     7.770
   282   8 O        0.858    -0.444    22.581     6.371
   283   8 O        0.860    -0.452    22.747     6.394
   284   6 C        3.664     0.013    20.627     6.514
   285   1 H        0.930     0.070     2.080     2.255
   286   1 H        0.930     0.057     2.239     2.340
   287   1 H        0.930     0.065     2.139     2.287
   288   8 O        1.705    -0.286    18.746     5.846
   289   6 C        2.878     0.142    24.905     8.181
   290   6 C        2.936    -0.071    29.778     8.950
   291   1 H        0.930     0.074     2.037     2.232
   292   6 C        3.826    -0.107    22.516     6.752
   293   1 H        0.930     0.073     2.051     2.240
   294   1 H        0.930     0.072     2.068     2.248
   295   8 O        0.859    -0.485    23.454     6.493
   296   6 C        3.762    -0.008    20.760     6.495
   297   1 H        0.930     0.054     2.266     2.354
   298   1 H        0.930     0.066     2.124     2.279
   299   6 C        3.827    -0.082    22.046     6.681
   300   1 H        0.930     0.058     2.219     2.329
   301   1 H        0.930     0.060     2.196     2.317
   302   6 C        3.825    -0.081    22.023     6.678
   303   1 H        0.930     0.053     2.285     2.364
   304   1 H        0.930     0.052     2.300     2.371
   305   6 C        2.766     0.270    22.445     7.759
   306   6 C        2.935    -0.056    29.382     8.890
   307   1 H        0.930     0.067     2.123     2.278
   308   6 C        2.930     0.067    26.504     8.443
   309   6 C        2.938    -0.046    29.137     8.853
   310   1 H        0.930     0.077     2.015     2.219
   311   6 C        2.936    -0.047    29.171     8.858
   312   1 H        0.930     0.074     2.045     2.236
   313   6 C        2.935    -0.058    29.440     8.899
   314   1 H        0.930     0.071     2.077     2.254
   315   7 N        2.739    -0.113    23.465     7.194
   316   6 C        2.928     0.066    26.529     8.447
   317   1 H        0.930     0.077     2.013     2.218
   318   6 C        3.764    -0.019    20.954     6.525
   319   1 H        0.930     0.068     2.102     2.267
   320   1 H        0.930     0.076     2.016     2.220
   321   6 C        2.767     0.268    22.483     7.765
   322   6 C        3.096    -0.009    28.126     8.692
   323   6 C        3.070    -0.018    28.383     8.736
   324   6 C        3.821    -0.086    22.125     6.694
   325   1 H        0.930     0.071     2.072     2.251
   326   1 H        0.930     0.087     1.912     2.162
   327   6 C        3.172     0.023    27.127     8.508
   328   6 C        2.748     0.279    22.274     7.728
   329   6 C        2.920     0.045    26.982     8.518
   330   6 C        2.934    -0.042    29.040     8.838
   331   1 H        0.930     0.072     2.066     2.248
   332   6 C        2.932    -0.078    29.956     8.976
   333   6 C        2.932    -0.045    29.120     8.850
   334   1 H        0.930     0.079     1.993     2.208
   335   1 H        0.862     0.207     1.073     1.622
   336   1 H        0.863     0.217     1.021     1.583
   337   7 N        2.745    -0.117    23.548     7.207
   338   7 N        3.019     0.092    19.649     6.584
   339   7 N        1.991    -0.243    27.142     7.727
   340   7 N        2.645    -0.283    27.308     7.761
   341   8 O        0.858    -0.447    22.650     6.381
   342   8 O        0.860    -0.462    22.957     6.424
   343   6 C        3.664     0.015    20.583     6.507
   344   1 H        0.930     0.073     2.055     2.241
   345   1 H        0.930     0.054     2.265     2.353
   346   1 H        0.930     0.062     2.178     2.308
   347   8 O        1.705    -0.281    18.656     5.832
   348   6 C        2.878     0.146    24.833     8.169
   349   6 C        2.936    -0.068    29.699     8.938
   350   1 H        0.930     0.080     1.974     2.197
   351   6 C        3.826    -0.107    22.523     6.753
   352   1 H        0.930     0.075     2.025     2.225
   353   1 H        0.930     0.080     1.976     2.198
   354   8 O        0.859    -0.476    23.249     6.465
   355   6 C        3.826    -0.113    22.629     6.769
   356   1 H        0.930     0.078     1.996     2.209
   357   1 H        0.930     0.071     2.079     2.254
   358   8 O        0.859    -0.473    23.202     6.458
   359   6 C        2.878     0.145    24.851     8.172
   360   6 C        2.936    -0.068    29.691     8.936
   361   1 H        0.930     0.079     1.992     2.207
   362   6 C        3.664     0.008    20.705     6.526
   363   1 H        0.930     0.073     2.053     2.240
   364   1 H        0.930     0.061     2.185     2.311
   365   1 H        0.930     0.064     2.152     2.294
   366   8 O        1.705    -0.280    18.651     5.831
   367   6 C        2.928     0.065    26.538     8.448
   368   1 H        0.930     0.082     1.960     2.189
   369   6 C        3.764    -0.014    20.871     6.512
   370   1 H        0.930     0.059     2.215     2.327
   371   1 H        0.930     0.075     2.028     2.227
   372   6 C        2.767     0.267    22.503     7.769
   373   6 C        3.096    -0.011    28.177     8.700
   374   6 C        3.070    -0.019    28.402     8.739
   375   6 C        3.821    -0.084    22.086     6.688
   376   1 H        0.930     0.076     2.018     2.221
   377   1 H        0.930     0.085     1.930     2.172
   378   6 C        3.172     0.022    27.148     8.511
   379   6 C        2.748     0.275    22.347     7.740
   380   6 C        2.920     0.041    27.085     8.534
   381   6 C        2.934    -0.042    29.052     8.840
   382   1 H        0.930     0.069     2.096     2.264
   383   6 C        2.932    -0.080    30.009     8.984
   384   6 C        2.932    -0.049    29.215     8.864
   385   1 H        0.930     0.077     2.007     2.215
   386   1 H        0.862     0.206     1.074     1.624
   387   1 H        0.863     0.213     1.039     1.597
   388   7 N        2.745    -0.117    23.548     7.207
   389   7 N        3.019     0.089    19.696     6.591
   390   7 N        1.991    -0.244    27.176     7.731
   391   7 N        2.645    -0.285    27.365     7.769
   392   8 O        0.858    -0.454    22.782     6.399
   393   8 O        0.860    -0.454    22.793     6.401
   394   6 C        3.762    -0.010    20.807     6.502
   395   1 H        0.930     0.054     2.270     2.356
   396   1 H        0.930     0.061     2.185     2.311
   397   6 C        3.827    -0.084    22.076     6.686
   398   1 H        0.930     0.062     2.171     2.304
   399   1 H        0.930     0.071     2.068     2.249
   400   6 C        3.825    -0.084    22.084     6.687
   401   1 H        0.930     0.071     2.071     2.250
   402   1 H        0.930     0.043     2.413     2.429
   403   6 C        2.766     0.265    22.529     7.773
   404   6 C        2.935    -0.051    29.277     8.874
   405   1 H        0.930     0.075     2.034     2.230
   406   6 C        2.930     0.069    26.451     8.435
   407   6 C        2.938    -0.049    29.226     8.866
   408   1 H        0.930     0.076     2.020     2.223
   409   6 C        2.936    -0.053    29.312     8.879
   410   1 H        0.930     0.067     2.117     2.275
   411   6 C        2.935    -0.053    29.326     8.881
   412   1 H        0.930     0.095     1.833     2.117
   413   7 N        2.739    -0.116    23.534     7.205
   414   6 C        3.826    -0.110    22.570     6.760
   415   1 H        0.930     0.077     2.006     2.214
   416   1 H        0.930     0.073     2.051     2.239
   417   8 O        0.859    -0.476    23.255     6.466
   418   6 C        2.878     0.145    24.843     8.171
   419   6 C        2.936    -0.068    29.693     8.937
   420   1 H        0.930     0.081     1.970     2.195
   421   6 C        3.664     0.012    20.644     6.517
   422   1 H        0.930     0.072     2.065     2.247
   423   1 H        0.930     0.056     2.244     2.342
   424   1 H        0.930     0.068     2.110     2.271
   425   8 O        1.705    -0.281    18.666     5.833
   426   6 C        2.928     0.065    26.537     8.448
   427   1 H        0.930     0.080     1.983     2.202
   428   6 C        3.764    -0.014    20.861     6.510
   429   1 H        0.930     0.058     2.217     2.328
   430   1 H        0.930     0.074     2.047     2.237
   431   6 C        2.767     0.267    22.494     7.767
   432   6 C        3.096    -0.011    28.166     8.698
   433   6 C        3.070    -0.019    28.413     8.740
   434   6 C        3.821    -0.084    22.082     6.687
   435   1 H        0.930     0.076     2.025     2.225
   436   1 H        0.930     0.084     1.934     2.174
   437   6 C        3.172     0.021    27.168     8.514
   438   6 C        2.748     0.275    22.353     7.742
   439   6 C        2.920     0.041    27.074     8.533
   440   6 C        2.934    -0.043    29.067     8.842
   441   1 H        0.930     0.069     2.101     2.267
   442   6 C        2.932    -0.081    30.019     8.985
   443   6 C        2.932    -0.047    29.161     8.856
   444   1 H        0.930     0.076     2.024     2.225
   445   1 H        0.862     0.206     1.076     1.625
   446   1 H        0.863     0.214     1.039     1.597
   447   7 N        2.745    -0.118    23.564     7.210
   448   7 N        3.019     0.091    19.655     6.585
   449   7 N        1.991    -0.245    27.198     7.735
   450   7 N        2.645    -0.286    27.382     7.772
   451   8 O        0.858    -0.451    22.731     6.392
   452   8 O        0.860    -0.455    22.813     6.404
   453   6 C        3.762    -0.008    20.767     6.496
   454   1 H        0.930     0.052     2.299     2.371
   455   1 H        0.930     0.059     2.211     2.325
   456   6 C        3.827    -0.082    22.051     6.682
   457   1 H        0.930     0.061     2.183     2.310
   458   1 H        0.930     0.069     2.091     2.261
   459   6 C        3.825    -0.084    22.072     6.685
   460   1 H        0.930     0.074     2.042     2.235
   461   1 H        0.930     0.044     2.397     2.421
   462   6 C        2.766     0.268    22.473     7.764
   463   6 C        2.935    -0.053    29.312     8.879
   464   1 H        0.930     0.066     2.129     2.282
   465   6 C        2.930     0.070    26.425     8.430
   466   6 C        2.938    -0.049    29.210     8.864
   467   1 H        0.930     0.077     2.013     2.219
   468   6 C        2.936    -0.052    29.300     8.877
   469   1 H        0.930     0.068     2.109     2.271
   470   6 C        2.935    -0.055    29.366     8.887
   471   1 H        0.930     0.095     1.827     2.114
   472   7 N        2.739    -0.115    23.505     7.201
   473   6 C        3.762    -0.008    20.766     6.496
   474   1 H        0.930     0.055     2.258     2.349
   475   1 H        0.930     0.066     2.132     2.283
   476   6 C        3.827    -0.082    22.040     6.680
   477   1 H        0.930     0.057     2.229     2.335
   478   1 H        0.930     0.060     2.197     2.318
   479   6 C        3.825    -0.081    22.017     6.677
   480   1 H        0.930     0.052     2.296     2.369
   481   1 H        0.930     0.050     2.316     2.380
   482   6 C        3.826    -0.107    22.521     6.753
   483   1 H        0.930     0.074     2.044     2.235
   484   1 H        0.930     0.076     2.022     2.223
   485   6 C        2.766     0.268    22.475     7.764
   486   6 C        2.935    -0.052    29.285     8.875
   487   1 H        0.930     0.068     2.108     2.270
   488   6 C        2.930     0.071    26.422     8.430
   489   6 C        2.938    -0.046    29.135     8.853
   490   6 C        2.935    -0.054    29.348     8.885
   491   1 H        0.930     0.082     1.963     2.191
   492   1 H        0.930     0.075     2.034     2.230
   493   7 N        2.739    -0.114    23.481     7.197
   494   8 O        0.859    -0.470    23.122     6.447
   495   1 H        0.930     0.074     2.041     2.234
   496   6 C        2.936    -0.049    29.209     8.864
   497   1 H        0.930     0.069     2.100     2.266
   498   6 C        2.928     0.066    26.532     8.447
   499   6 C        3.764    -0.014    20.875     6.512
   500   1 H        0.930     0.061     2.191     2.314
   501   6 C        2.767     0.268    22.482     7.765
   502   6 C        3.096    -0.009    28.129     8.692
   503   6 C        3.070    -0.019    28.400     8.738
   504   6 C        3.821    -0.084    22.092     6.689
   505   1 H        0.930     0.075     2.035     2.231
   506   1 H        0.930     0.083     1.951     2.184
   507   6 C        3.172     0.021    27.152     8.512
   508   6 C        2.748     0.277    22.316     7.735
   509   6 C        2.920     0.045    26.988     8.519
   510   6 C        2.934    -0.044    29.091     8.846
   511   1 H        0.930     0.070     2.083     2.257
   512   6 C        2.932    -0.081    30.028     8.987
   513   1 H        0.930     0.070     2.090     2.261
   514   6 C        2.878     0.145    24.835     8.170
   515   6 C        2.936    -0.067    29.673     8.934
   516   1 H        0.930     0.083     1.948     2.182
   517   6 C        2.932    -0.044    29.090     8.845
   518   1 H        0.930     0.081     1.970     2.194
   519   6 C        3.664     0.015    20.588     6.508
   520   1 H        0.930     0.077     2.011     2.218
   521   1 H        0.930     0.051     2.301     2.372
   522   1 H        0.930     0.062     2.175     2.306
   523   1 H        0.862     0.206     1.076     1.625
   524   1 H        0.863     0.218     1.019     1.581
   525   7 N        2.745    -0.115    23.506     7.201
   526   7 N        3.019     0.092    19.642     6.582
   527   7 N        1.991    -0.242    27.116     7.723
   528   7 N        2.645    -0.283    27.319     7.763
   529   8 O        0.858    -0.453    22.761     6.396
   530   8 O        0.860    -0.463    22.977     6.427
   531   8 O        1.705    -0.279    18.621     5.826
   532   1 H        0.930     0.072     2.065     2.247
   533   6 C        2.936    -0.045    29.112     8.849
   534   1 H        0.930     0.095     1.833     2.117
   535   6 C        2.928     0.068    26.473     8.438
   536   6 C        3.764    -0.016    20.903     6.517
   537   1 H        0.930     0.067     2.113     2.273
   538   6 C        2.767     0.276    22.338     7.740
   539   6 C        3.096    -0.002    27.955     8.665
   540   6 C        3.070    -0.020    28.434     8.743
   541   6 C        3.821    -0.084    22.092     6.689
   542   1 H        0.930     0.071     2.075     2.252
   543   1 H        0.930     0.082     1.960     2.189
   544   6 C        3.172     0.020    27.184     8.517
   545   6 C        2.748     0.278    22.301     7.733
   546   6 C        2.920     0.043    27.036     8.527
   547   6 C        2.934    -0.043    29.063     8.841
   548   1 H        0.930     0.094     1.844     2.123
   549   6 C        2.932    -0.078    29.950     8.975
   550   1 H        0.930     0.071     2.076     2.253
   551   6 C        2.878     0.144    24.871     8.176
   552   6 C        2.936    -0.069    29.718     8.941
   553   1 H        0.930     0.077     2.015     2.219
   554   6 C        2.932    -0.050    29.233     8.867
   555   1 H        0.930     0.076     2.024     2.225
   556   6 C        3.664     0.012    20.637     6.516
   557   1 H        0.930     0.072     2.060     2.244
   558   1 H        0.930     0.060     2.197     2.318
   559   1 H        0.930     0.057     2.235     2.338
   560   1 H        0.862     0.205     1.080     1.628
   561   1 H        0.863     0.213     1.040     1.597
   562   7 N        2.745    -0.112    23.435     7.190
   563   7 N        3.019     0.092    19.654     6.585
   564   7 N        1.991    -0.250    27.321     7.752
   565   7 N        2.645    -0.285    27.354     7.768
   566   8 O        0.858    -0.443    22.567     6.369
   567   8 O        0.860    -0.463    22.971     6.426
   568   8 O        1.705    -0.282    18.686     5.836
   569   6 C        3.762    -0.009    20.780     6.498
   570   1 H        0.930     0.054     2.269     2.355
   571   1 H        0.930     0.061     2.181     2.309
   572   6 C        3.827    -0.083    22.069     6.685
   573   1 H        0.930     0.063     2.162     2.299
   574   1 H        0.930     0.071     2.075     2.252
   575   6 C        3.825    -0.084    22.073     6.685
   576   1 H        0.930     0.072     2.061     2.245
   577   1 H        0.930     0.044     2.392     2.418
   578   6 C        3.826    -0.108    22.546     6.757
   579   1 H        0.930     0.076     2.024     2.225
   580   1 H        0.930     0.073     2.054     2.241
   581   6 C        2.766     0.266    22.507     7.770
   582   6 C        2.935    -0.058    29.450     8.900
   583   1 H        0.930     0.071     2.079     2.254
   584   6 C        2.930     0.062    26.621     8.461
   585   6 C        2.938    -0.049    29.206     8.863
   586   6 C        2.935    -0.059    29.465     8.902
   587   1 H        0.930     0.076     2.022     2.224
   588   1 H        0.930     0.073     2.050     2.239
   589   7 N        2.739    -0.115    23.501     7.200
   590   8 O        0.859    -0.492    23.609     6.515
   591   1 H        0.930     0.077     2.006     2.215
   592   6 C        2.936    -0.050    29.229     8.867
   593   1 H        0.930     0.071     2.072     2.251
   594   6 C        2.928     0.069    26.456     8.435
   595   6 C        3.764    -0.013    20.853     6.509
   596   1 H        0.930     0.058     2.227     2.334
   597   6 C        2.767     0.268    22.483     7.765
   598   6 C        3.096    -0.011    28.167     8.698
   599   6 C        3.070    -0.019    28.398     8.738
   600   6 C        3.821    -0.083    22.073     6.686
   601   1 H        0.930     0.075     2.034     2.230
   602   1 H        0.930     0.081     1.964     2.191
   603   6 C        3.172     0.025    27.076     8.500
   604   6 C        2.748     0.277    22.307     7.734
   605   6 C        2.920     0.039    27.125     8.541
   606   6 C        2.934    -0.044    29.091     8.846
   607   1 H        0.930     0.069     2.097     2.264
   608   6 C        2.932    -0.074    29.840     8.959
   609   1 H        0.930     0.103     1.757     2.073
   610   6 C        2.878     0.148    24.786     8.162
   611   6 C        2.936    -0.074    29.846     8.960
   612   1 H        0.930     0.073     2.050     2.239
   613   6 C        2.932    -0.051    29.274     8.873
   614   1 H        0.930     0.073     2.049     2.238
   615   6 C        3.664     0.009    20.688     6.524
   616   1 H        0.930     0.065     2.137     2.286
   617   1 H        0.930     0.054     2.275     2.358
   618   1 H        0.930     0.083     1.943     2.180
   619   1 H        0.862     0.229     0.971     1.544
   620   1 H        0.863     0.208     1.064     1.616
   621   7 N        2.745    -0.121    23.634     7.220
   622   7 N        3.019     0.090    19.682     6.589
   623   7 N        1.991    -0.247    27.238     7.740
   624   7 N        2.645    -0.284    27.341     7.766
   625   8 O        0.858    -0.446    22.621     6.377
   626   8 O        0.860    -0.461    22.946     6.422
   627   8 O        1.705    -0.284    18.712     5.840
   628   6 C        3.762    -0.012    20.827     6.505
   629   1 H        0.930     0.058     2.225     2.333
   630   1 H        0.930     0.061     2.189     2.314
   631   6 C        3.827    -0.083    22.070     6.685
   632   1 H        0.930     0.056     2.246     2.343
   633   1 H        0.930     0.059     2.214     2.327
   634   6 C        3.825    -0.080    22.011     6.676
   635   1 H        0.930     0.054     2.265     2.353
   636   1 H        0.930     0.051     2.310     2.377
   637   6 C        3.826    -0.108    22.546     6.757
   638   1 H        0.930     0.077     2.012     2.218
   639   1 H        0.930     0.077     2.011     2.217
   640   6 C        2.766     0.268    22.474     7.764
   641   6 C        2.935    -0.056    29.379     8.889
   642   1 H        0.930     0.066     2.124     2.279
   643   6 C        2.930     0.070    26.440     8.433
   644   6 C        2.938    -0.046    29.146     8.854
   645   6 C        2.935    -0.057    29.417     8.895
   646   1 H        0.930     0.070     2.086     2.259
   647   1 H        0.930     0.069     2.100     2.266
   648   7 N        2.739    -0.113    23.461     7.194
   649   8 O        0.859    -0.469    23.108     6.445
   650   6 C        3.762    -0.013    20.847     6.509
   651   1 H        0.930     0.058     2.221     2.331
   652   1 H        0.930     0.056     2.248     2.345
   653   6 C        3.827    -0.084    22.083     6.687
   654   1 H        0.930     0.060     2.194     2.316
   655   1 H        0.930     0.068     2.109     2.271
   656   6 C        3.825    -0.083    22.057     6.683
   657   1 H        0.930     0.072     2.068     2.249
   658   1 H        0.930     0.044     2.398     2.421
   659   6 C        2.766     0.265    22.534     7.774
   660   6 C        2.935    -0.058    29.437     8.898
   661   1 H        0.930     0.071     2.073     2.251
   662   6 C        2.930     0.064    26.565     8.453
   663   6 C        2.938    -0.048    29.197     8.862
   664   1 H        0.930     0.072     2.064     2.247
   665   6 C        2.936    -0.045    29.130     8.852
   666   1 H        0.930     0.092     1.857     2.131
   667   6 C        2.935    -0.057    29.428     8.897
   668   1 H        0.930     0.095     1.830     2.116
   669   7 N        2.739    -0.114    23.476     7.196
   670   6 C        2.928     0.073    26.379     8.423
   671   1 H        0.930     0.069     2.092     2.261
   672   6 C        3.764    -0.011    20.806     6.502
   673   1 H        0.930     0.056     2.240     2.340
   674   1 H        0.930     0.067     2.122     2.278
   675   6 C        2.767     0.276    22.339     7.740
   676   6 C        3.096    -0.003    27.973     8.668
   677   6 C        3.070    -0.020    28.430     8.743
   678   6 C        3.821    -0.083    22.063     6.684
   679   1 H        0.930     0.075     2.030     2.228
   680   1 H        0.930     0.079     1.987     2.204
   681   6 C        3.172     0.021    27.156     8.512
   682   6 C        2.748     0.276    22.327     7.737
   683   6 C        2.920     0.041    27.081     8.534
   684   6 C        2.934    -0.042    29.045     8.839
   685   1 H        0.930     0.090     1.878     2.143
   686   6 C        2.932    -0.078    29.943     8.974
   687   6 C        2.932    -0.051    29.265     8.872
   688   1 H        0.930     0.074     2.044     2.236
   689   1 H        0.862     0.203     1.090     1.635
   690   1 H        0.863     0.211     1.053     1.607
   691   7 N        2.745    -0.116    23.528     7.204
   692   7 N        3.019     0.092    19.643     6.583
   693   7 N        1.991    -0.249    27.285     7.747
   694   7 N        2.645    -0.287    27.397     7.774
   695   8 O        0.858    -0.436    22.404     6.346
   696   8 O        0.860    -0.454    22.795     6.401
   697   6 C        3.664     0.010    20.680     6.523
   698   1 H        0.930     0.067     2.123     2.278
   699   1 H        0.930     0.064     2.148     2.292
   700   1 H        0.930     0.062     2.181     2.309
   701   8 O        1.705    -0.286    18.753     5.847
   702   6 C        2.878     0.143    24.894     8.179
   703   6 C        2.936    -0.071    29.780     8.950
   704   1 H        0.930     0.072     2.058     2.243
   705   6 C        3.826    -0.109    22.559     6.758
   706   1 H        0.930     0.075     2.033     2.229
   707   1 H        0.930     0.069     2.100     2.266
   708   8 O        0.859    -0.486    23.467     6.495
   709   6 C        3.762    -0.009    20.778     6.498
   710   1 H        0.930     0.054     2.275     2.358
   711   1 H        0.930     0.068     2.107     2.270
   712   6 C        3.827    -0.083    22.060     6.683
   713   1 H        0.930     0.060     2.203     2.321
   714   1 H        0.930     0.061     2.182     2.310
   715   6 C        3.825    -0.082    22.041     6.681
   716   1 H        0.930     0.054     2.271     2.356
   717   1 H        0.930     0.047     2.355     2.400
   718   6 C        2.766     0.265    22.535     7.774
   719   6 C        2.935    -0.053    29.310     8.879
   720   1 H        0.930     0.072     2.063     2.246
   721   6 C        2.930     0.069    26.447     8.434
   722   6 C        2.938    -0.043    29.075     8.843
   723   1 H        0.930     0.075     2.030     2.228
   724   6 C        2.936    -0.046    29.137     8.853
   725   1 H        0.930     0.071     2.077     2.253
   726   6 C        2.935    -0.055    29.365     8.887
   727   1 H        0.930     0.070     2.080     2.255
   728   7 N        2.739    -0.116    23.527     7.204
   729   6 C        2.928     0.066    26.514     8.444
   730   1 H        0.930     0.077     2.006     2.215
   731   6 C        3.764    -0.015    20.887     6.514
   732   1 H        0.930     0.062     2.178     2.307
   733   1 H        0.930     0.075     2.031     2.228
   734   6 C        2.767     0.267    22.487     7.766
   735   6 C        3.096    -0.009    28.131     8.693
   736   6 C        3.070    -0.018    28.379     8.735
   737   6 C        3.821    -0.085    22.108     6.691
   738   1 H        0.930     0.073     2.050     2.239
   739   1 H        0.930     0.088     1.898     2.154
   740   6 C        3.172     0.024    27.098     8.503
   741   6 C        2.748     0.276    22.325     7.737
   742   6 C        2.920     0.046    26.977     8.517
   743   6 C        2.934    -0.041    29.006     8.833
   744   1 H        0.930     0.072     2.058     2.243
   745   6 C        2.932    -0.077    29.932     8.972
   746   6 C        2.932    -0.048    29.180     8.859
   747   1 H        0.930     0.078     1.997     2.210
   748   1 H        0.862     0.207     1.073     1.623
   749   1 H        0.863     0.216     1.029     1.589
   750   7 N        2.745    -0.117    23.542     7.206
   751   7 N        3.019     0.088    19.718     6.595
   752   7 N        1.991    -0.243    27.158     7.729
   753   7 N        2.645    -0.284    27.337     7.765
   754   8 O        0.858    -0.449    22.693     6.387
   755   8 O        0.860    -0.451    22.729     6.392
   756   6 C        3.664     0.012    20.644     6.517
   757   1 H        0.930     0.074     2.047     2.237
   758   1 H        0.930     0.060     2.195     2.317
   759   1 H        0.930     0.058     2.223     2.331
   760   8 O        1.705    -0.281    18.663     5.833
   761   6 C        2.878     0.145    24.847     8.172
   762   6 C        2.936    -0.069    29.716     8.940
   763   1 H        0.930     0.076     2.022     2.224
   764   6 C        3.826    -0.109    22.565     6.759
   765   1 H        0.930     0.076     2.016     2.220
   766   1 H        0.930     0.074     2.046     2.236
   767   8 O        0.859    -0.469    23.116     6.446
   768   6 C        3.762    -0.012    20.832     6.506
   769   1 H        0.930     0.058     2.217     2.328
   770   1 H        0.930     0.064     2.155     2.296
   771   6 C        3.827    -0.084    22.075     6.685
   772   1 H        0.930     0.057     2.232     2.336
   773   1 H        0.930     0.058     2.219     2.329
   774   6 C        3.825    -0.079    21.997     6.674
   775   1 H        0.930     0.053     2.278     2.360
   776   1 H        0.930     0.050     2.319     2.381
   777   6 C        3.826    -0.104    22.470     6.745
   778   1 H        0.930     0.071     2.071     2.250
   779   1 H        0.930     0.072     2.068     2.249
   780   6 C        2.766     0.267    22.498     7.768
   781   6 C        2.935    -0.059    29.473     8.904
   782   1 H        0.930     0.062     2.178     2.307
   783   6 C        2.930     0.064    26.558     8.451
   784   6 C        2.938    -0.047    29.160     8.856
   785   6 C        2.935    -0.059    29.455     8.901
   786   1 H        0.930     0.068     2.106     2.269
   787   1 H        0.930     0.064     2.147     2.291
   788   7 N        2.739    -0.109    23.393     7.183
   789   8 O        0.859    -0.486    23.480     6.497
   790   1 H        0.930     0.073     2.051     2.239
   791   6 C        2.936    -0.044    29.097     8.847
   792   1 H        0.930     0.095     1.832     2.116
   793   6 C        2.928     0.074    26.346     8.418
   794   6 C        3.764    -0.011    20.808     6.502
   795   1 H        0.930     0.058     2.226     2.333
   796   6 C        2.767     0.276    22.341     7.741
   797   6 C        3.096    -0.003    27.991     8.671
   798   6 C        3.070    -0.020    28.422     8.742
   799   6 C        3.821    -0.083    22.065     6.685
   800   1 H        0.930     0.075     2.035     2.231
   801   1 H        0.930     0.081     1.966     2.192
   802   6 C        3.172     0.024    27.099     8.504
   803   6 C        2.748     0.275    22.344     7.740
   804   6 C        2.920     0.038    27.144     8.544
   805   6 C        2.934    -0.046    29.152     8.855
   806   1 H        0.930     0.090     1.876     2.142
   807   6 C        2.932    -0.076    29.885     8.965
   808   1 H        0.930     0.099     1.797     2.096
   809   6 C        2.878     0.145    24.842     8.171
   810   6 C        2.936    -0.075    29.863     8.962
   811   1 H        0.930     0.071     2.079     2.254
   812   6 C        2.932    -0.055    29.378     8.889
   813   1 H        0.930     0.072     2.057     2.243
   814   6 C        3.664     0.007    20.732     6.531
   815   1 H        0.930     0.062     2.179     2.308
   816   1 H        0.930     0.064     2.157     2.296
   817   1 H        0.930     0.073     2.049     2.239
   818   1 H        0.862     0.228     0.975     1.547
   819   1 H        0.863     0.204     1.086     1.632
   820   7 N        2.745    -0.117    23.539     7.206
   821   7 N        3.019     0.088    19.710     6.594
   822   7 N        1.991    -0.255    27.448     7.770
   823   7 N        2.645    -0.287    27.406     7.775
   824   8 O        0.858    -0.435    22.394     6.345
   825   8 O        0.860    -0.454    22.798     6.402
   826   8 O        1.705    -0.287    18.769     5.849

 Mol. C6AA /au·bohr⁶  :    8202659.450428
 Mol. C8AA /au·bohr⁸  :  196028711.792900
 Mol. α(0) /au        :       4438.952524


Wiberg/Mayer (AO) data.
largest (>0.10) Wiberg bond orders for each atom

 ---------------------------------------------------------------------------
     #   Z sym  total        # sym  WBO       # sym  WBO       # sym  WBO
 ---------------------------------------------------------------------------
     1   1 H    0.994 --    54 C    0.972
     2   6 C    3.992 --    54 C    1.440     4 C    1.403     3 H    0.971
                            51 C    0.109
     3   1 H    0.995 --     2 C    0.971
     4   6 C    3.965 --     2 C    1.403    55 C    1.401    31 N    0.996
     5   6 C    3.965 --    10 C    0.998     6 H    0.972    57 H    0.971
                            31 N    0.961
     6   1 H    0.996 --     5 C    0.972
     7   6 C    3.957 --    35 O    1.643    31 N    1.208     8 C    1.012
     8   6 C    3.952 --     9 C    1.426    32 N    1.223     7 C    1.012
                            33 N    0.132
     9   6 C    3.980 --     8 C    1.426    13 C    1.326    10 C    1.012
    10   6 C    3.989 --     9 C    1.012     5 C    0.998    11 H    0.961
                            12 H    0.961
    11   1 H    0.994 --    10 C    0.961
    12   1 H    0.992 --    10 C    0.961
    13   6 C    3.967 --    33 N    1.422     9 C    1.326    14 C    0.999
    14   6 C    3.953 --    36 O    1.632    34 N    1.280    13 C    0.999
    15   6 C    3.951 --    16 C    1.397    23 C    1.370    32 N    1.002
    16   6 C    3.991 --    18 C    1.441    15 C    1.397    17 H    0.973
                            21 C    0.104
    17   1 H    0.995 --    16 C    0.973
    18   6 C    3.987 --    16 C    1.441    20 C    1.374    19 H    0.962
    19   1 H    0.989 --    18 C    0.962
    20   6 C    3.934 --    18 C    1.374    21 C    1.341    37 O    1.080
    21   6 C    3.991 --    23 C    1.476    20 C    1.341    22 H    0.971
                            16 C    0.104
    22   1 H    0.994 --    21 C    0.971
    23   6 C    3.991 --    21 C    1.476    15 C    1.370    24 H    0.973
    24   1 H    0.994 --    23 C    0.973
    25   6 C    3.929 --    27 H    0.981    26 H    0.977    28 H    0.975
                            37 O    0.962
    26   1 H    0.995 --    25 C    0.977
    27   1 H    0.997 --    25 C    0.981
    28   1 H    0.993 --    25 C    0.975
    29   1 H    0.947 --    34 N    0.919
    30   1 H    0.956 --    34 N    0.941
    31   7 N    3.478 --     7 C    1.208     4 C    0.996     5 C    0.961
                            35 O    0.189
    32   7 N    3.692 --     8 C    1.223    33 N    1.220    15 C    1.002
    33   7 N    2.962 --    13 C    1.422    32 N    1.220     8 C    0.132
    34   7 N    3.391 --    14 C    1.280    30 H    0.941    29 H    0.919
                            36 O    0.197
    35   8 O    1.991 --     7 C    1.643    31 N    0.189
    36   8 O    1.953 --    14 C    1.632    34 N    0.197
    37   8 O    2.214 --    20 C    1.080    25 C    0.962
    38   6 C    3.966 --    41 C    1.006    40 H    0.973    39 H    0.971
                            58 N    0.956
    39   1 H    0.997 --    38 C    0.971
    40   1 H    0.996 --    38 C    0.973
    41   6 C    3.988 --    44 C    1.007    38 C    1.006    42 H    0.976
                            43 H    0.966
    42   1 H    0.996 --    41 C    0.976
    43   1 H    0.994 --    41 C    0.966
    44   6 C    3.992 --    41 C    1.007    47 C    1.001    46 H    0.981
                            45 H    0.971
    45   1 H    0.995 --    44 C    0.971
    46   1 H    0.998 --    44 C    0.981
    47   6 C    3.989 --    44 C    1.001    50 C    0.980    49 H    0.963
                            48 H    0.950
    48   1 H    0.993 --    47 C    0.950
    49   1 H    0.994 --    47 C    0.963
    50   6 C    3.948 --    59 O    1.639    58 N    1.243    47 C    0.980
    51   6 C    3.993 --    55 C    1.442    53 C    1.405    52 H    0.972
                             2 C    0.109
    52   1 H    0.994 --    51 C    0.972
    53   6 C    3.970 --    51 C    1.405    54 C    1.404    58 N    0.993
    54   6 C    3.992 --     2 C    1.440    53 C    1.404     1 H    0.972
                            55 C    0.110
    55   6 C    3.991 --    51 C    1.442     4 C    1.401    56 H    0.970
                            54 C    0.110
    56   1 H    0.993 --    55 C    0.970
    57   1 H    0.994 --     5 C    0.971
    58   7 N    3.484 --    50 C    1.243    53 C    0.993    38 C    0.956
                            59 O    0.186
    59   8 O    1.960 --    50 C    1.639    58 N    0.186
    60   6 C    3.966 --    63 C    1.006    62 H    0.973    61 H    0.971
                            80 N    0.955
    61   1 H    0.997 --    60 C    0.971
    62   1 H    0.996 --    60 C    0.973
    63   6 C    3.987 --    66 C    1.007    60 C    1.006    64 H    0.978
                            65 H    0.965
    64   1 H    0.996 --    63 C    0.978
    65   1 H    0.994 --    63 C    0.965
    66   6 C    3.992 --    63 C    1.007    69 C    1.001    68 H    0.981
                            67 H    0.971
    67   1 H    0.994 --    66 C    0.971
    68   1 H    0.998 --    66 C    0.981
    69   6 C    3.990 --    66 C    1.001    72 C    0.978    71 H    0.964
                            70 H    0.952
    70   1 H    0.993 --    69 C    0.952
    71   1 H    0.995 --    69 C    0.964
    72   6 C    3.949 --    81 O    1.651    80 N    1.237    69 C    0.978
    73   6 C    3.993 --    77 C    1.441    75 C    1.405    74 H    0.972
                            83 C    0.109
    74   1 H    0.994 --    73 C    0.972
    75   6 C    3.970 --    73 C    1.405    76 C    1.404    80 N    0.994
    76   6 C    3.993 --    83 C    1.440    75 C    1.404    82 H    0.973
                            77 C    0.110
    77   6 C    3.991 --    73 C    1.441    85 C    1.402    78 H    0.970
                            76 C    0.110
    78   1 H    0.994 --    77 C    0.970
    79   1 H    0.994 --    86 C    0.973
    80   7 N    3.481 --    72 C    1.237    75 C    0.994    60 C    0.955
                            81 O    0.188
    81   8 O    1.960 --    72 C    1.651    80 N    0.188
    82   1 H    0.994 --    76 C    0.973
    83   6 C    3.993 --    76 C    1.440    85 C    1.404    84 H    0.973
                            73 C    0.109
    84   1 H    0.995 --    83 C    0.973
    85   6 C    3.963 --    83 C    1.404    77 C    1.402   112 N    0.993
    86   6 C    3.967 --    91 C    0.998    87 H    0.974    79 H    0.973
                           112 N    0.962
    87   1 H    0.996 --    86 C    0.974
    88   6 C    3.958 --   116 O    1.641   112 N    1.213    89 C    1.011
    89   6 C    3.953 --    90 C    1.428   113 N    1.223    88 C    1.011
                           114 N    0.132
    90   6 C    3.980 --    89 C    1.428    94 C    1.323    91 C    1.012
    91   6 C    3.990 --    90 C    1.012    86 C    0.998    93 H    0.963
                            92 H    0.961
    92   1 H    0.994 --    91 C    0.961
    93   1 H    0.992 --    91 C    0.963
    94   6 C    3.967 --   114 N    1.421    90 C    1.323    95 C    1.003
    95   6 C    3.951 --   117 O    1.645   115 N    1.260    94 C    1.003
    96   6 C    3.954 --    97 C    1.402   104 C    1.369   113 N    1.004
    97   6 C    3.991 --    99 C    1.435    96 C    1.402    98 H    0.974
                           102 C    0.108
    98   1 H    0.995 --    97 C    0.974
    99   6 C    3.990 --    97 C    1.435   101 C    1.378   100 H    0.971
   100   1 H    0.995 --    99 C    0.971
   101   6 C    3.933 --    99 C    1.378   102 C    1.341   118 O    1.076
   102   6 C    3.991 --   104 C    1.479   101 C    1.341   103 H    0.969
                            97 C    0.108
   103   1 H    0.992 --   102 C    0.969
   104   6 C    3.990 --   102 C    1.479    96 C    1.369   105 H    0.971
   105   1 H    0.993 --   104 C    0.971
   106   6 C    3.935 --   109 H    0.980   108 H    0.980   107 H    0.979
                           118 O    0.967
   107   1 H    0.994 --   106 C    0.979
   108   1 H    0.997 --   106 C    0.980
   109   1 H    0.996 --   106 C    0.980
   110   1 H    0.957 --   115 N    0.940
   111   1 H    0.953 --   115 N    0.939
   112   7 N    3.480 --    88 C    1.213    85 C    0.993    86 C    0.962
                           116 O    0.190
   113   7 N    3.696 --   114 N    1.224    89 C    1.223    96 C    1.004
   114   7 N    2.966 --    94 C    1.421   113 N    1.224    89 C    0.132
   115   7 N    3.375 --    95 C    1.260   110 H    0.940   111 H    0.939
                           117 O    0.192
   116   8 O    1.990 --    88 C    1.641   112 N    0.190
   117   8 O    1.961 --    95 C    1.645   115 N    0.192
   118   8 O    2.215 --   101 C    1.076   106 C    0.967
   119   6 C    3.990 --   164 C    1.001   167 C    0.979   121 H    0.962
                           120 H    0.953
   120   1 H    0.994 --   119 C    0.953
   121   1 H    0.994 --   119 C    0.962
   122   8 O    1.947 --   167 C    1.618   177 N    0.190
   123   6 C    3.932 --   147 C    1.379   124 C    1.345   130 O    1.068
   124   6 C    3.991 --   148 C    1.473   123 C    1.345   125 H    0.972
                           145 C    0.106
   125   1 H    0.995 --   124 C    0.972
   126   6 C    3.934 --   128 H    0.981   127 H    0.981   129 H    0.977
                           130 O    0.966
   127   1 H    0.995 --   126 C    0.981
   128   1 H    0.996 --   126 C    0.981
   129   1 H    0.995 --   126 C    0.977
   130   8 O    2.202 --   123 C    1.068   126 C    0.966
   131   6 C    3.968 --   173 C    1.402   175 C    1.401   152 N    1.002
   132   1 H    0.994 --   175 C    0.973
   133   6 C    3.967 --   139 C    0.998   135 H    0.974   134 H    0.973
                           152 N    0.961
   134   1 H    0.996 --   133 C    0.973
   135   1 H    0.995 --   133 C    0.974
   136   6 C    3.956 --   156 O    1.664   152 N    1.196   137 C    1.009
   137   6 C    3.955 --   138 C    1.432   153 N    1.224   136 C    1.009
                           154 N    0.135
   138   6 C    3.980 --   137 C    1.432   142 C    1.324   139 C    1.011
   139   6 C    3.990 --   138 C    1.011   133 C    0.998   141 H    0.962
                           140 H    0.962
   140   1 H    0.994 --   139 C    0.962
   141   1 H    0.993 --   139 C    0.962
   142   6 C    3.967 --   154 N    1.426   138 C    1.324   143 C    0.998
   143   6 C    3.953 --   157 O    1.639   155 N    1.276   142 C    0.998
   144   6 C    3.955 --   145 C    1.399   148 C    1.373   153 N    1.005
   145   6 C    3.987 --   147 C    1.438   144 C    1.399   146 H    0.966
                           124 C    0.106
   146   1 H    0.991 --   145 C    0.966
   147   6 C    3.991 --   145 C    1.438   123 C    1.379   176 H    0.969
                           148 C    0.101
   148   6 C    3.991 --   124 C    1.473   144 C    1.373   149 H    0.973
                           147 C    0.101
   149   1 H    0.994 --   148 C    0.973
   150   1 H    0.947 --   155 N    0.919
   151   1 H    0.957 --   155 N    0.942
   152   7 N    3.469 --   136 C    1.196   131 C    1.002   133 C    0.961
                           156 O    0.185
   153   7 N    3.690 --   137 C    1.224   154 N    1.214   144 C    1.005
   154   7 N    2.960 --   142 C    1.426   153 N    1.214   137 C    0.135
   155   7 N    3.388 --   143 C    1.276   151 H    0.942   150 H    0.919
                           157 O    0.197
   156   8 O    2.005 --   136 C    1.664   152 N    0.185
   157   8 O    1.959 --   143 C    1.639   155 N    0.197
   158   6 C    3.968 --   161 C    1.007   160 H    0.973   159 H    0.971
                           177 N    0.960
   159   1 H    0.996 --   158 C    0.971
   160   1 H    0.996 --   158 C    0.973
   161   6 C    3.991 --   158 C    1.007   164 C    1.007   162 H    0.979
                           163 H    0.970
   162   1 H    0.997 --   161 C    0.979
   163   1 H    0.996 --   161 C    0.970
   164   6 C    3.993 --   161 C    1.007   119 C    1.001   166 H    0.980
                           165 H    0.976
   165   1 H    0.997 --   164 C    0.976
   166   1 H    0.997 --   164 C    0.980
   167   6 C    3.950 --   122 O    1.618   177 N    1.263   119 C    0.979
   168   6 C    3.993 --   175 C    1.441   170 C    1.405   169 H    0.973
                           173 C    0.110
   169   1 H    0.994 --   168 C    0.973
   170   6 C    3.964 --   171 C    1.406   168 C    1.405   177 N    0.983
   171   6 C    3.994 --   173 C    1.440   170 C    1.406   172 H    0.974
                           175 C    0.109
   172   1 H    0.995 --   171 C    0.974
   173   6 C    3.988 --   171 C    1.440   131 C    1.402   174 H    0.967
                           168 C    0.110
   174   1 H    0.990 --   173 C    0.967
   175   6 C    3.993 --   168 C    1.441   131 C    1.401   132 H    0.973
                           171 C    0.109
   176   1 H    0.994 --   147 C    0.969
   177   7 N    3.498 --   167 C    1.263   170 C    0.983   158 C    0.960
                           122 O    0.190
   178   6 C    3.990 --   223 C    1.001   226 C    0.980   180 H    0.962
                           179 H    0.953
   179   1 H    0.994 --   178 C    0.953
   180   1 H    0.994 --   178 C    0.962
   181   8 O    1.952 --   226 C    1.625   236 N    0.188
   182   6 C    3.932 --   206 C    1.379   183 C    1.346   189 O    1.068
   183   6 C    3.991 --   207 C    1.473   182 C    1.346   184 H    0.973
                           204 C    0.107
   184   1 H    0.994 --   183 C    0.973
   185   6 C    3.934 --   187 H    0.982   186 H    0.977   188 H    0.977
                           189 O    0.965
   186   1 H    0.996 --   185 C    0.977
   187   1 H    0.997 --   185 C    0.982
   188   1 H    0.994 --   185 C    0.977
   189   8 O    2.201 --   182 C    1.068   185 C    0.965
   190   6 C    3.968 --   232 C    1.402   234 C    1.401   211 N    1.002
   191   1 H    0.995 --   234 C    0.974
   192   6 C    3.967 --   198 C    0.998   194 H    0.974   193 H    0.973
                           211 N    0.961
   193   1 H    0.996 --   192 C    0.973
   194   1 H    0.995 --   192 C    0.974
   195   6 C    3.956 --   215 O    1.662   211 N    1.197   196 C    1.009
   196   6 C    3.955 --   197 C    1.432   212 N    1.222   195 C    1.009
                           213 N    0.136
   197   6 C    3.980 --   196 C    1.432   201 C    1.324   198 C    1.012
   198   6 C    3.989 --   197 C    1.012   192 C    0.998   200 H    0.961
                           199 H    0.961
   199   1 H    0.994 --   198 C    0.961
   200   1 H    0.992 --   198 C    0.961
   201   6 C    3.968 --   213 N    1.427   197 C    1.324   202 C    0.996
   202   6 C    3.954 --   216 O    1.649   214 N    1.270   201 C    0.996
   203   6 C    3.956 --   204 C    1.399   207 C    1.373   212 N    1.005
   204   6 C    3.987 --   206 C    1.437   203 C    1.399   205 H    0.967
                           183 C    0.107
   205   1 H    0.991 --   204 C    0.967
   206   6 C    3.991 --   204 C    1.437   182 C    1.379   235 H    0.970
                           207 C    0.101
   207   6 C    3.991 --   183 C    1.473   203 C    1.373   208 H    0.973
                           206 C    0.101
   208   1 H    0.994 --   207 C    0.973
   209   1 H    0.947 --   214 N    0.920
   210   1 H    0.958 --   214 N    0.944
   211   7 N    3.471 --   195 C    1.197   190 C    1.002   192 C    0.961
                           215 O    0.185
   212   7 N    3.688 --   196 C    1.222   213 N    1.212   203 C    1.005
   213   7 N    2.958 --   201 C    1.427   212 N    1.212   196 C    0.136
   214   7 N    3.382 --   202 C    1.270   210 H    0.944   209 H    0.920
                           216 O    0.199
   215   8 O    2.003 --   195 C    1.662   211 N    0.185
   216   8 O    1.968 --   202 C    1.649   214 N    0.199
   217   6 C    3.969 --   220 C    1.007   219 H    0.973   218 H    0.972
                           236 N    0.960
   218   1 H    0.996 --   217 C    0.972
   219   1 H    0.996 --   217 C    0.973
   220   6 C    3.992 --   217 C    1.007   223 C    1.006   221 H    0.979
                           222 H    0.971
   221   1 H    0.997 --   220 C    0.979
   222   1 H    0.996 --   220 C    0.971
   223   6 C    3.993 --   220 C    1.006   178 C    1.001   225 H    0.981
                           224 H    0.976
   224   1 H    0.997 --   223 C    0.976
   225   1 H    0.997 --   223 C    0.981
   226   6 C    3.949 --   181 O    1.625   236 N    1.258   178 C    0.980
   227   6 C    3.994 --   234 C    1.441   229 C    1.405   228 H    0.975
                           232 C    0.110
   228   1 H    0.996 --   227 C    0.975
   229   6 C    3.965 --   230 C    1.406   227 C    1.405   236 N    0.986
   230   6 C    3.994 --   232 C    1.440   229 C    1.406   231 H    0.973
                           234 C    0.109
   231   1 H    0.995 --   230 C    0.973
   232   6 C    3.988 --   230 C    1.440   190 C    1.402   233 H    0.967
                           227 C    0.110
   233   1 H    0.990 --   232 C    0.967
   234   6 C    3.993 --   227 C    1.441   190 C    1.401   191 H    0.974
                           230 C    0.109
   235   1 H    0.994 --   206 C    0.970
   236   7 N    3.494 --   226 C    1.258   229 C    0.986   217 C    0.960
                           181 O    0.188
   237   6 C    3.969 --   240 C    1.007   239 H    0.974   238 H    0.972
                           256 N    0.958
   238   1 H    0.997 --   237 C    0.972
   239   1 H    0.997 --   237 C    0.974
   240   6 C    3.989 --   243 C    1.007   237 C    1.007   241 H    0.977
                           242 H    0.968
   241   1 H    0.996 --   240 C    0.977
   242   1 H    0.995 --   240 C    0.968
   243   6 C    3.992 --   240 C    1.007   292 C    1.001   245 H    0.981
                           244 H    0.971
   244   1 H    0.995 --   243 C    0.971
   245   1 H    0.998 --   243 C    0.981
   246   6 C    3.949 --   295 O    1.639   256 N    1.248   292 C    0.979
   247   6 C    3.994 --   254 C    1.442   249 C    1.405   248 H    0.974
                           252 C    0.110
   248   1 H    0.995 --   247 C    0.974
   249   6 C    3.968 --   250 C    1.406   247 C    1.405   256 N    0.990
   250   6 C    3.993 --   252 C    1.440   249 C    1.406   251 H    0.973
                           254 C    0.109
   251   1 H    0.994 --   250 C    0.973
   252   6 C    3.989 --   250 C    1.440   257 C    1.403   253 H    0.967
                           247 C    0.110
   253   1 H    0.992 --   252 C    0.967
   254   6 C    3.993 --   247 C    1.442   257 C    1.402   258 H    0.974
                           250 C    0.109
   255   1 H    0.991 --   273 C    0.964
   256   7 N    3.487 --   246 C    1.248   249 C    0.990   237 C    0.958
                           295 O    0.188
   257   6 C    3.966 --   252 C    1.403   254 C    1.402   278 N    0.998
   258   1 H    0.995 --   254 C    0.974
   259   6 C    3.969 --   265 C    0.998   261 H    0.974   260 H    0.974
                           278 N    0.962
   260   1 H    0.997 --   259 C    0.974
   261   1 H    0.995 --   259 C    0.974
   262   6 C    3.957 --   282 O    1.655   278 N    1.202   263 C    1.010
   263   6 C    3.954 --   264 C    1.430   279 N    1.225   262 C    1.010
                           280 N    0.132
   264   6 C    3.980 --   263 C    1.430   268 C    1.324   265 C    1.012
   265   6 C    3.990 --   264 C    1.012   259 C    0.998   267 H    0.963
                           266 H    0.961
   266   1 H    0.994 --   265 C    0.961
   267   1 H    0.993 --   265 C    0.963
   268   6 C    3.968 --   280 N    1.421   264 C    1.324   269 C    1.002
   269   6 C    3.951 --   283 O    1.658   281 N    1.251   268 C    1.002
   270   6 C    3.953 --   271 C    1.400   274 C    1.372   279 N    1.003
   271   6 C    3.988 --   273 C    1.437   270 C    1.400   272 H    0.967
                           290 C    0.107
   272   1 H    0.992 --   271 C    0.967
   273   6 C    3.988 --   271 C    1.437   289 C    1.380   255 H    0.964
                           274 C    0.101
   274   6 C    3.990 --   290 C    1.475   270 C    1.372   275 H    0.973
                           273 C    0.101
   275   1 H    0.994 --   274 C    0.973
   276   1 H    0.958 --   281 N    0.942
   277   1 H    0.955 --   281 N    0.942
   278   7 N    3.472 --   262 C    1.202   257 C    0.998   259 C    0.962
                           282 O    0.186
   279   7 N    3.694 --   263 C    1.225   280 N    1.222   270 C    1.003
   280   7 N    2.964 --   268 C    1.421   279 N    1.222   263 C    0.132
   281   7 N    3.367 --   269 C    1.251   277 H    0.942   276 H    0.942
                           283 O    0.191
   282   8 O    1.999 --   262 C    1.655   278 N    0.186
   283   8 O    1.970 --   269 C    1.658   281 N    0.191
   284   6 C    3.934 --   286 H    0.981   287 H    0.979   285 H    0.976
                           288 O    0.965
   285   1 H    0.995 --   284 C    0.976
   286   1 H    0.997 --   284 C    0.981
   287   1 H    0.995 --   284 C    0.979
   288   8 O    2.203 --   289 C    1.069   284 C    0.965
   289   6 C    3.933 --   273 C    1.380   290 C    1.345   288 O    1.069
   290   6 C    3.991 --   274 C    1.475   289 C    1.345   291 H    0.973
                           271 C    0.107
   291   1 H    0.994 --   290 C    0.973
   292   6 C    3.990 --   243 C    1.001   246 C    0.979   294 H    0.963
                           293 H    0.952
   293   1 H    0.994 --   292 C    0.952
   294   1 H    0.995 --   292 C    0.963
   295   8 O    1.952 --   246 C    1.639   256 N    0.188
   296   6 C    3.967 --   299 C    1.007   298 H    0.972   297 H    0.971
                           315 N    0.958
   297   1 H    0.997 --   296 C    0.971
   298   1 H    0.996 --   296 C    0.972
   299   6 C    3.991 --   296 C    1.007   302 C    1.006   300 H    0.979
                           301 H    0.970
   300   1 H    0.997 --   299 C    0.979
   301   1 H    0.996 --   299 C    0.970
   302   6 C    3.994 --   299 C    1.006   351 C    1.002   304 H    0.981
                           303 H    0.977
   303   1 H    0.997 --   302 C    0.977
   304   1 H    0.997 --   302 C    0.981
   305   6 C    3.949 --   354 O    1.643   315 N    1.244   351 C    0.979
   306   6 C    3.994 --   313 C    1.442   308 C    1.405   307 H    0.974
                           311 C    0.109
   307   1 H    0.995 --   306 C    0.974
   308   6 C    3.969 --   306 C    1.405   309 C    1.405   315 N    0.993
   309   6 C    3.993 --   311 C    1.440   308 C    1.405   310 H    0.973
                           313 C    0.110
   310   1 H    0.994 --   309 C    0.973
   311   6 C    3.992 --   309 C    1.440   316 C    1.403   312 H    0.973
                           306 C    0.109
   312   1 H    0.994 --   311 C    0.973
   313   6 C    3.992 --   306 C    1.442   316 C    1.401   317 H    0.970
                           309 C    0.110
   314   1 H    0.994 --   332 C    0.970
   315   7 N    3.485 --   305 C    1.244   308 C    0.993   296 C    0.958
                           354 O    0.187
   316   6 C    3.965 --   311 C    1.403   313 C    1.401   337 N    0.996
   317   1 H    0.994 --   313 C    0.970
   318   6 C    3.964 --   324 C    0.998   319 H    0.972   320 H    0.971
                           337 N    0.960
   319   1 H    0.995 --   318 C    0.972
   320   1 H    0.994 --   318 C    0.971
   321   6 C    3.958 --   341 O    1.649   337 N    1.207   322 C    1.010
   322   6 C    3.953 --   323 C    1.429   338 N    1.223   321 C    1.010
                           339 N    0.133
   323   6 C    3.981 --   322 C    1.429   327 C    1.323   324 C    1.012
   324   6 C    3.989 --   323 C    1.012   318 C    0.998   325 H    0.961
                           326 H    0.960
   325   1 H    0.995 --   324 C    0.961
   326   1 H    0.992 --   324 C    0.960
   327   6 C    3.968 --   339 N    1.421   323 C    1.323   328 C    1.003
   328   6 C    3.951 --   342 O    1.644   340 N    1.260   327 C    1.003
   329   6 C    3.954 --   330 C    1.401   333 C    1.371   338 N    1.004
   330   6 C    3.991 --   332 C    1.436   329 C    1.401   331 H    0.973
                           349 C    0.107
   331   1 H    0.995 --   330 C    0.973
   332   6 C    3.991 --   330 C    1.436   348 C    1.379   314 H    0.970
   333   6 C    3.990 --   349 C    1.477   329 C    1.371   334 H    0.972
   334   1 H    0.993 --   333 C    0.972
   335   1 H    0.957 --   340 N    0.940
   336   1 H    0.953 --   340 N    0.939
   337   7 N    3.478 --   321 C    1.207   316 C    0.996   318 C    0.960
                           341 O    0.190
   338   7 N    3.694 --   322 C    1.223   339 N    1.222   329 C    1.004
   339   7 N    2.965 --   327 C    1.421   338 N    1.222   322 C    0.133
   340   7 N    3.375 --   328 C    1.260   335 H    0.940   336 H    0.939
                           342 O    0.191
   341   8 O    1.996 --   321 C    1.649   337 N    0.190
   342   8 O    1.961 --   328 C    1.644   340 N    0.191
   343   6 C    3.935 --   345 H    0.981   346 H    0.980   344 H    0.976
                           347 O    0.966
   344   1 H    0.994 --   343 C    0.976
   345   1 H    0.997 --   343 C    0.981
   346   1 H    0.996 --   343 C    0.980
   347   8 O    2.209 --   348 C    1.073   343 C    0.966
   348   6 C    3.933 --   332 C    1.379   349 C    1.342   347 O    1.073
   349   6 C    3.991 --   333 C    1.477   348 C    1.342   350 H    0.970
                           330 C    0.107
   350   1 H    0.993 --   349 C    0.970
   351   6 C    3.990 --   302 C    1.002   305 C    0.979   353 H    0.962
                           352 H    0.953
   352   1 H    0.994 --   351 C    0.953
   353   1 H    0.993 --   351 C    0.962
   354   8 O    1.963 --   305 C    1.643   315 N    0.187
   355   6 C    3.990 --   400 C    1.001   403 C    0.977   357 H    0.964
                           356 H    0.952
   356   1 H    0.993 --   355 C    0.952
   357   1 H    0.995 --   355 C    0.964
   358   8 O    1.962 --   403 C    1.652   413 N    0.189
   359   6 C    3.933 --   383 C    1.377   360 C    1.343   366 O    1.074
   360   6 C    3.991 --   384 C    1.476   359 C    1.343   361 H    0.972
                           381 C    0.106
   361   1 H    0.993 --   360 C    0.972
   362   6 C    3.933 --   364 H    0.980   365 H    0.980   363 H    0.979
                           366 O    0.965
   363   1 H    0.994 --   362 C    0.979
   364   1 H    0.996 --   362 C    0.980
   365   1 H    0.996 --   362 C    0.980
   366   8 O    2.210 --   359 C    1.074   362 C    0.965
   367   6 C    3.963 --   409 C    1.404   411 C    1.402   388 N    0.993
   368   1 H    0.993 --   411 C    0.970
   369   6 C    3.967 --   375 C    0.998   370 H    0.974   371 H    0.973
                           388 N    0.962
   370   1 H    0.996 --   369 C    0.974
   371   1 H    0.994 --   369 C    0.973
   372   6 C    3.958 --   392 O    1.640   388 N    1.212   373 C    1.012
   373   6 C    3.952 --   374 C    1.427   389 N    1.222   372 C    1.012
                           390 N    0.132
   374   6 C    3.981 --   373 C    1.427   378 C    1.324   375 C    1.012
   375   6 C    3.989 --   374 C    1.012   369 C    0.998   377 H    0.962
                           376 H    0.960
   376   1 H    0.994 --   375 C    0.960
   377   1 H    0.992 --   375 C    0.962
   378   6 C    3.968 --   390 N    1.420   374 C    1.324   379 C    1.002
   379   6 C    3.951 --   393 O    1.654   391 N    1.254   378 C    1.002
   380   6 C    3.952 --   381 C    1.399   384 C    1.371   389 N    1.002
   381   6 C    3.991 --   383 C    1.438   380 C    1.399   382 H    0.973
                           360 C    0.106
   382   1 H    0.995 --   381 C    0.973
   383   6 C    3.988 --   381 C    1.438   359 C    1.377   412 H    0.963
   384   6 C    3.990 --   360 C    1.476   380 C    1.371   385 H    0.972
   385   1 H    0.994 --   384 C    0.972
   386   1 H    0.957 --   391 N    0.941
   387   1 H    0.954 --   391 N    0.941
   388   7 N    3.481 --   372 C    1.212   367 C    0.993   369 C    0.962
                           392 O    0.190
   389   7 N    3.693 --   390 N    1.223   373 C    1.222   380 C    1.002
   390   7 N    2.965 --   378 C    1.420   389 N    1.223   373 C    0.132
   391   7 N    3.370 --   379 C    1.254   386 H    0.941   387 H    0.941
                           393 O    0.192
   392   8 O    1.989 --   372 C    1.640   388 N    0.190
   393   8 O    1.968 --   379 C    1.654   391 N    0.192
   394   6 C    3.967 --   397 C    1.007   396 H    0.973   395 H    0.971
                           413 N    0.956
   395   1 H    0.997 --   394 C    0.971
   396   1 H    0.996 --   394 C    0.973
   397   6 C    3.988 --   400 C    1.007   394 C    1.007   398 H    0.977
                           399 H    0.966
   398   1 H    0.996 --   397 C    0.977
   399   1 H    0.994 --   397 C    0.966
   400   6 C    3.992 --   397 C    1.007   355 C    1.001   402 H    0.981
                           401 H    0.971
   401   1 H    0.995 --   400 C    0.971
   402   1 H    0.998 --   400 C    0.981
   403   6 C    3.950 --   358 O    1.652   413 N    1.239   355 C    0.977
   404   6 C    3.993 --   411 C    1.442   406 C    1.406   405 H    0.972
                           409 C    0.109
   405   1 H    0.994 --   404 C    0.972
   406   6 C    3.969 --   404 C    1.406   407 C    1.405   413 N    0.993
   407   6 C    3.993 --   409 C    1.440   406 C    1.405   408 H    0.972
                           411 C    0.111
   408   1 H    0.994 --   407 C    0.972
   409   6 C    3.993 --   407 C    1.440   367 C    1.404   410 H    0.972
                           404 C    0.109
   410   1 H    0.995 --   409 C    0.972
   411   6 C    3.991 --   404 C    1.442   367 C    1.402   368 H    0.970
                           407 C    0.111
   412   1 H    0.990 --   383 C    0.963
   413   7 N    3.482 --   403 C    1.239   406 C    0.993   394 C    0.956
                           358 O    0.189
   414   6 C    3.990 --   459 C    1.001   462 C    0.978   416 H    0.964
                           415 H    0.952
   415   1 H    0.994 --   414 C    0.952
   416   1 H    0.995 --   414 C    0.964
   417   8 O    1.959 --   462 C    1.652   472 N    0.187
   418   6 C    3.933 --   442 C    1.377   419 C    1.342   425 O    1.075
   419   6 C    3.991 --   443 C    1.477   418 C    1.342   420 H    0.972
                           440 C    0.106
   420   1 H    0.993 --   419 C    0.972
   421   6 C    3.933 --   423 H    0.980   424 H    0.979   422 H    0.976
                           425 O    0.964
   422   1 H    0.995 --   421 C    0.976
   423   1 H    0.997 --   421 C    0.980
   424   1 H    0.995 --   421 C    0.979
   425   8 O    2.210 --   418 C    1.075   421 C    0.964
   426   6 C    3.963 --   468 C    1.404   470 C    1.401   447 N    0.994
   427   1 H    0.993 --   470 C    0.971
   428   6 C    3.967 --   434 C    0.998   429 H    0.974   430 H    0.973
                           447 N    0.962
   429   1 H    0.997 --   428 C    0.974
   430   1 H    0.994 --   428 C    0.973
   431   6 C    3.958 --   451 O    1.642   447 N    1.210   432 C    1.012
   432   6 C    3.952 --   433 C    1.426   448 N    1.223   431 C    1.012
                           449 N    0.131
   433   6 C    3.981 --   432 C    1.426   437 C    1.324   434 C    1.012
   434   6 C    3.989 --   433 C    1.012   428 C    0.998   436 H    0.962
                           435 H    0.960
   435   1 H    0.994 --   434 C    0.960
   436   1 H    0.992 --   434 C    0.962
   437   6 C    3.967 --   449 N    1.419   433 C    1.324   438 C    1.002
   438   6 C    3.951 --   452 O    1.654   450 N    1.253   437 C    1.002
   439   6 C    3.951 --   440 C    1.399   443 C    1.370   448 N    1.002
   440   6 C    3.991 --   442 C    1.438   439 C    1.399   441 H    0.974
                           419 C    0.106
   441   1 H    0.995 --   440 C    0.974
   442   6 C    3.988 --   440 C    1.438   418 C    1.377   471 H    0.963
   443   6 C    3.990 --   419 C    1.477   439 C    1.370   444 H    0.972
   444   1 H    0.994 --   443 C    0.972
   445   1 H    0.957 --   450 N    0.941
   446   1 H    0.954 --   450 N    0.941
   447   7 N    3.479 --   431 C    1.210   426 C    0.994   428 C    0.962
                           451 O    0.190
   448   7 N    3.696 --   449 N    1.225   432 C    1.223   439 C    1.002
   449   7 N    2.965 --   437 C    1.419   448 N    1.225   432 C    0.131
   450   7 N    3.369 --   438 C    1.253   445 H    0.941   446 H    0.941
                           452 O    0.192
   451   8 O    1.991 --   431 C    1.642   447 N    0.190
   452   8 O    1.967 --   438 C    1.654   450 N    0.192
   453   6 C    3.967 --   456 C    1.006   455 H    0.973   454 H    0.972
                           472 N    0.956
   454   1 H    0.997 --   453 C    0.972
   455   1 H    0.997 --   453 C    0.973
   456   6 C    3.988 --   459 C    1.007   453 C    1.006   457 H    0.977
                           458 H    0.967
   457   1 H    0.996 --   456 C    0.977
   458   1 H    0.995 --   456 C    0.967
   459   6 C    3.992 --   456 C    1.007   414 C    1.001   461 H    0.981
                           460 H    0.971
   460   1 H    0.995 --   459 C    0.971
   461   1 H    0.998 --   459 C    0.981
   462   6 C    3.949 --   417 O    1.652   472 N    1.237   414 C    0.978
   463   6 C    3.994 --   470 C    1.442   465 C    1.405   464 H    0.974
                           468 C    0.109
   464   1 H    0.995 --   463 C    0.974
   465   6 C    3.971 --   463 C    1.405   466 C    1.404   472 N    0.996
   466   6 C    3.993 --   468 C    1.440   465 C    1.404   467 H    0.972
                           470 C    0.110
   467   1 H    0.994 --   466 C    0.972
   468   6 C    3.993 --   466 C    1.440   426 C    1.404   469 H    0.972
                           463 C    0.109
   469   1 H    0.995 --   468 C    0.972
   470   6 C    3.991 --   463 C    1.442   426 C    1.401   427 H    0.971
                           466 C    0.110
   471   1 H    0.990 --   442 C    0.963
   472   7 N    3.480 --   462 C    1.237   465 C    0.996   453 C    0.956
                           417 O    0.187
   473   6 C    3.968 --   476 C    1.007   475 H    0.973   474 H    0.971
                           493 N    0.958
   474   1 H    0.997 --   473 C    0.971
   475   1 H    0.996 --   473 C    0.973
   476   6 C    3.991 --   473 C    1.007   479 C    1.006   477 H    0.979
                           478 H    0.970
   477   1 H    0.997 --   476 C    0.979
   478   1 H    0.996 --   476 C    0.970
   479   6 C    3.994 --   476 C    1.006   482 C    1.002   481 H    0.981
                           480 H    0.977
   480   1 H    0.997 --   479 C    0.977
   481   1 H    0.997 --   479 C    0.981
   482   6 C    3.990 --   479 C    1.002   485 C    0.976   484 H    0.964
                           483 H    0.954
   483   1 H    0.994 --   482 C    0.954
   484   1 H    0.994 --   482 C    0.964
   485   6 C    3.950 --   494 O    1.656   493 N    1.238   482 C    0.976
   486   6 C    3.994 --   490 C    1.441   488 C    1.406   487 H    0.973
                           496 C    0.109
   487   1 H    0.995 --   486 C    0.973
   488   6 C    3.969 --   486 C    1.406   489 C    1.404   493 N    0.993
   489   6 C    3.993 --   496 C    1.440   488 C    1.404   495 H    0.973
                           490 C    0.110
   490   6 C    3.991 --   486 C    1.441   498 C    1.402   491 H    0.970
                           489 C    0.110
   491   1 H    0.993 --   490 C    0.970
   492   1 H    0.994 --   499 C    0.973
   493   7 N    3.482 --   485 C    1.238   488 C    0.993   473 C    0.958
                           494 O    0.189
   494   8 O    1.965 --   485 C    1.656   493 N    0.189
   495   1 H    0.994 --   489 C    0.973
   496   6 C    3.993 --   489 C    1.440   498 C    1.404   497 H    0.973
                           486 C    0.109
   497   1 H    0.995 --   496 C    0.973
   498   6 C    3.963 --   496 C    1.404   490 C    1.402   525 N    0.993
   499   6 C    3.967 --   504 C    0.998   500 H    0.974   492 H    0.973
                           525 N    0.962
   500   1 H    0.996 --   499 C    0.974
   501   6 C    3.958 --   529 O    1.640   525 N    1.214   502 C    1.011
   502   6 C    3.953 --   503 C    1.428   526 N    1.223   501 C    1.011
                           527 N    0.132
   503   6 C    3.981 --   502 C    1.428   507 C    1.323   504 C    1.012
   504   6 C    3.990 --   503 C    1.012   499 C    0.998   506 H    0.963
                           505 H    0.960
   505   1 H    0.994 --   504 C    0.960
   506   1 H    0.992 --   504 C    0.963
   507   6 C    3.967 --   527 N    1.420   503 C    1.323   508 C    1.003
   508   6 C    3.951 --   530 O    1.644   528 N    1.260   507 C    1.003
   509   6 C    3.954 --   510 C    1.401   517 C    1.370   526 N    1.004
   510   6 C    3.991 --   512 C    1.435   509 C    1.401   511 H    0.974
                           515 C    0.108
   511   1 H    0.995 --   510 C    0.974
   512   6 C    3.990 --   510 C    1.435   514 C    1.378   513 H    0.971
   513   1 H    0.995 --   512 C    0.971
   514   6 C    3.934 --   512 C    1.378   515 C    1.342   531 O    1.076
   515   6 C    3.991 --   517 C    1.478   514 C    1.342   516 H    0.970
                           510 C    0.108
   516   1 H    0.993 --   515 C    0.970
   517   6 C    3.990 --   515 C    1.478   509 C    1.370   518 H    0.972
   518   1 H    0.993 --   517 C    0.972
   519   6 C    3.934 --   521 H    0.981   522 H    0.980   520 H    0.975
                           531 O    0.965
   520   1 H    0.994 --   519 C    0.975
   521   1 H    0.997 --   519 C    0.981
   522   1 H    0.996 --   519 C    0.980
   523   1 H    0.957 --   528 N    0.940
   524   1 H    0.953 --   528 N    0.939
   525   7 N    3.482 --   501 C    1.214   498 C    0.993   499 C    0.962
                           529 O    0.191
   526   7 N    3.695 --   527 N    1.223   502 C    1.223   509 C    1.004
   527   7 N    2.966 --   507 C    1.420   526 N    1.223   502 C    0.132
   528   7 N    3.375 --   508 C    1.260   523 H    0.940   524 H    0.939
                           530 O    0.191
   529   8 O    1.990 --   501 C    1.640   525 N    0.191
   530   8 O    1.959 --   508 C    1.644   528 N    0.191
   531   8 O    2.212 --   514 C    1.076   519 C    0.965
   532   1 H    0.995 --   585 C    0.973
   533   6 C    3.988 --   585 C    1.440   535 C    1.403   534 H    0.968
                           582 C    0.110
   534   1 H    0.991 --   533 C    0.968
   535   6 C    3.965 --   533 C    1.403   586 C    1.402   562 N    0.997
   536   6 C    3.966 --   541 C    0.998   588 H    0.972   537 H    0.972
                           562 N    0.962
   537   1 H    0.995 --   536 C    0.972
   538   6 C    3.958 --   566 O    1.655   562 N    1.207   539 C    1.007
   539   6 C    3.955 --   540 C    1.431   563 N    1.226   538 C    1.007
                           564 N    0.133
   540   6 C    3.981 --   539 C    1.431   544 C    1.322   541 C    1.012
   541   6 C    3.990 --   540 C    1.012   536 C    0.998   543 H    0.961
                           542 H    0.961
   542   1 H    0.995 --   541 C    0.961
   543   1 H    0.992 --   541 C    0.961
   544   6 C    3.967 --   564 N    1.418   540 C    1.322   545 C    1.004
   545   6 C    3.950 --   567 O    1.647   565 N    1.255   544 C    1.004
   546   6 C    3.954 --   547 C    1.400   554 C    1.372   563 N    1.003
   547   6 C    3.987 --   549 C    1.436   546 C    1.400   548 H    0.967
                           552 C    0.108
   548   1 H    0.991 --   547 C    0.967
   549   6 C    3.991 --   547 C    1.436   551 C    1.380   550 H    0.970
   550   1 H    0.994 --   549 C    0.970
   551   6 C    3.932 --   549 C    1.380   552 C    1.344   568 O    1.070
   552   6 C    3.991 --   554 C    1.475   551 C    1.344   553 H    0.973
                           547 C    0.108
   553   1 H    0.994 --   552 C    0.973
   554   6 C    3.990 --   552 C    1.475   546 C    1.372   555 H    0.973
   555   1 H    0.994 --   554 C    0.973
   556   6 C    3.936 --   559 H    0.981   558 H    0.981   557 H    0.979
                           568 O    0.967
   557   1 H    0.994 --   556 C    0.979
   558   1 H    0.996 --   556 C    0.981
   559   1 H    0.997 --   556 C    0.981
   560   1 H    0.958 --   565 N    0.941
   561   1 H    0.954 --   565 N    0.941
   562   7 N    3.478 --   538 C    1.207   535 C    0.997   536 C    0.962
                           566 O    0.189
   563   7 N    3.694 --   539 C    1.226   564 N    1.220   546 C    1.003
   564   7 N    2.961 --   544 C    1.418   563 N    1.220   539 C    0.133
   565   7 N    3.370 --   545 C    1.255   560 H    0.941   561 H    0.941
                           567 O    0.190
   566   8 O    1.999 --   538 C    1.655   562 N    0.189
   567   8 O    1.960 --   545 C    1.647   565 N    0.190
   568   8 O    2.206 --   551 C    1.070   556 C    0.967
   569   6 C    3.966 --   572 C    1.007   571 H    0.972   570 H    0.970
                           589 N    0.956
   570   1 H    0.997 --   569 C    0.970
   571   1 H    0.996 --   569 C    0.972
   572   6 C    3.988 --   575 C    1.007   569 C    1.007   573 H    0.978
                           574 H    0.966
   573   1 H    0.996 --   572 C    0.978
   574   1 H    0.994 --   572 C    0.966
   575   6 C    3.992 --   572 C    1.007   578 C    1.001   577 H    0.981
                           576 H    0.971
   576   1 H    0.995 --   575 C    0.971
   577   1 H    0.998 --   575 C    0.981
   578   6 C    3.990 --   575 C    1.001   581 C    0.980   580 H    0.962
                           579 H    0.951
   579   1 H    0.994 --   578 C    0.951
   580   1 H    0.995 --   578 C    0.962
   581   6 C    3.948 --   590 O    1.621   589 N    1.257   578 C    0.980
   582   6 C    3.993 --   586 C    1.440   584 C    1.405   583 H    0.972
                           533 C    0.110
   583   1 H    0.995 --   582 C    0.972
   584   6 C    3.966 --   585 C    1.406   582 C    1.405   589 N    0.988
   585   6 C    3.993 --   533 C    1.440   584 C    1.406   532 H    0.973
                           586 C    0.110
   586   6 C    3.992 --   582 C    1.440   535 C    1.402   587 H    0.971
                           585 C    0.110
   587   1 H    0.994 --   586 C    0.971
   588   1 H    0.994 --   536 C    0.972
   589   7 N    3.493 --   581 C    1.257   584 C    0.988   569 C    0.956
                           590 O    0.188
   590   8 O    1.948 --   581 C    1.621   589 N    0.188
   591   1 H    0.994 --   644 C    0.972
   592   6 C    3.992 --   644 C    1.441   594 C    1.403   593 H    0.971
                           641 C    0.109
   593   1 H    0.995 --   592 C    0.971
   594   6 C    3.966 --   592 C    1.403   645 C    1.401   621 N    0.998
   595   6 C    3.968 --   600 C    0.998   596 H    0.975   647 H    0.974
                           621 N    0.961
   596   1 H    0.997 --   595 C    0.975
   597   6 C    3.956 --   625 O    1.652   621 N    1.199   598 C    1.014
   598   6 C    3.952 --   599 C    1.425   622 N    1.222   597 C    1.014
                           623 N    0.132
   599   6 C    3.980 --   598 C    1.425   603 C    1.327   600 C    1.011
   600   6 C    3.990 --   599 C    1.011   595 C    0.998   602 H    0.963
                           601 H    0.962
   601   1 H    0.994 --   600 C    0.962
   602   1 H    0.992 --   600 C    0.963
   603   6 C    3.967 --   623 N    1.424   599 C    1.327   604 C    0.997
   604   6 C    3.953 --   626 O    1.641   624 N    1.275   603 C    0.997
   605   6 C    3.952 --   606 C    1.397   613 C    1.370   622 N    1.002
   606   6 C    3.992 --   608 C    1.440   605 C    1.397   607 H    0.973
                           611 C    0.104
   607   1 H    0.995 --   606 C    0.973
   608   6 C    3.987 --   606 C    1.440   610 C    1.375   609 H    0.962
                           613 C    0.100
   609   1 H    0.989 --   608 C    0.962
   610   6 C    3.934 --   608 C    1.375   611 C    1.343   627 O    1.076
   611   6 C    3.991 --   613 C    1.475   610 C    1.343   612 H    0.971
                           606 C    0.104
   612   1 H    0.994 --   611 C    0.971
   613   6 C    3.991 --   611 C    1.475   605 C    1.370   614 H    0.973
                           608 C    0.100
   614   1 H    0.994 --   613 C    0.973
   615   6 C    3.929 --   617 H    0.981   616 H    0.977   618 H    0.975
                           627 O    0.963
   616   1 H    0.995 --   615 C    0.977
   617   1 H    0.997 --   615 C    0.981
   618   1 H    0.993 --   615 C    0.975
   619   1 H    0.947 --   624 N    0.920
   620   1 H    0.957 --   624 N    0.942
   621   7 N    3.469 --   597 C    1.199   594 C    0.998   595 C    0.961
                           625 O    0.186
   622   7 N    3.693 --   598 C    1.222   623 N    1.221   605 C    1.002
   623   7 N    2.964 --   603 C    1.424   622 N    1.221   598 C    0.132
   624   7 N    3.388 --   604 C    1.275   620 H    0.942   619 H    0.920
                           626 O    0.198
   625   8 O    1.998 --   597 C    1.652   621 N    0.186
   626   8 O    1.960 --   604 C    1.641   624 N    0.198
   627   8 O    2.210 --   610 C    1.076   615 C    0.963
   628   6 C    3.970 --   631 C    1.007   630 H    0.974   629 H    0.972
                           648 N    0.960
   629   1 H    0.997 --   628 C    0.972
   630   1 H    0.996 --   628 C    0.974
   631   6 C    3.991 --   628 C    1.007   634 C    1.006   632 H    0.978
                           633 H    0.971
   632   1 H    0.997 --   631 C    0.978
   633   1 H    0.996 --   631 C    0.971
   634   6 C    3.994 --   631 C    1.006   637 C    1.002   636 H    0.981
                           635 H    0.976
   635   1 H    0.997 --   634 C    0.976
   636   1 H    0.997 --   634 C    0.981
   637   6 C    3.990 --   634 C    1.002   640 C    0.977   639 H    0.963
                           638 H    0.953
   638   1 H    0.994 --   637 C    0.953
   639   1 H    0.994 --   637 C    0.963
   640   6 C    3.950 --   649 O    1.657   648 N    1.237   637 C    0.977
   641   6 C    3.994 --   645 C    1.442   643 C    1.405   642 H    0.974
                           592 C    0.109
   642   1 H    0.995 --   641 C    0.974
   643   6 C    3.969 --   641 C    1.405   644 C    1.405   648 N    0.992
   644   6 C    3.993 --   592 C    1.441   643 C    1.405   591 H    0.972
                           645 C    0.110
   645   6 C    3.993 --   641 C    1.442   594 C    1.401   646 H    0.974
                           644 C    0.110
   646   1 H    0.995 --   645 C    0.974
   647   1 H    0.995 --   595 C    0.974
   648   7 N    3.480 --   640 C    1.237   643 C    0.992   628 C    0.960
                           649 O    0.189
   649   8 O    1.966 --   640 C    1.657   648 N    0.189
   650   6 C    3.969 --   653 C    1.007   652 H    0.974   651 H    0.971
                           669 N    0.959
   651   1 H    0.997 --   650 C    0.971
   652   1 H    0.997 --   650 C    0.974
   653   6 C    3.989 --   656 C    1.007   650 C    1.007   654 H    0.977
                           655 H    0.968
   654   1 H    0.996 --   653 C    0.977
   655   1 H    0.995 --   653 C    0.968
   656   6 C    3.992 --   653 C    1.007   705 C    1.001   658 H    0.981
                           657 H    0.971
   657   1 H    0.995 --   656 C    0.971
   658   1 H    0.998 --   656 C    0.981
   659   6 C    3.950 --   708 O    1.635   669 N    1.252   705 C    0.978
   660   6 C    3.993 --   667 C    1.441   662 C    1.406   661 H    0.973
                           665 C    0.110
   661   1 H    0.995 --   660 C    0.973
   662   6 C    3.966 --   663 C    1.406   660 C    1.406   669 N    0.986
   663   6 C    3.994 --   665 C    1.440   662 C    1.406   664 H    0.973
                           667 C    0.110
   664   1 H    0.995 --   663 C    0.973
   665   6 C    3.989 --   663 C    1.440   670 C    1.403   666 H    0.966
                           660 C    0.110
   666   1 H    0.991 --   665 C    0.966
   667   6 C    3.993 --   660 C    1.441   670 C    1.402   671 H    0.974
                           663 C    0.110
   668   1 H    0.990 --   686 C    0.963
   669   7 N    3.490 --   659 C    1.252   662 C    0.986   650 C    0.959
                           708 O    0.190
   670   6 C    3.966 --   665 C    1.403   667 C    1.402   691 N    0.999
   671   1 H    0.995 --   667 C    0.974
   672   6 C    3.970 --   678 C    0.998   673 H    0.975   674 H    0.975
                           691 N    0.963
   673   1 H    0.997 --   672 C    0.975
   674   1 H    0.995 --   672 C    0.975
   675   6 C    3.957 --   695 O    1.665   691 N    1.197   676 C    1.008
   676   6 C    3.955 --   677 C    1.430   692 N    1.227   675 C    1.008
                           693 N    0.132
   677   6 C    3.980 --   676 C    1.430   681 C    1.324   678 C    1.011
   678   6 C    3.990 --   677 C    1.011   672 C    0.998   680 H    0.964
                           679 H    0.961
   679   1 H    0.994 --   678 C    0.961
   680   1 H    0.993 --   678 C    0.964
   681   6 C    3.967 --   693 N    1.418   677 C    1.324   682 C    1.003
   682   6 C    3.950 --   696 O    1.657   694 N    1.248   681 C    1.003
   683   6 C    3.952 --   684 C    1.399   687 C    1.372   692 N    1.002
   684   6 C    3.987 --   686 C    1.437   683 C    1.399   685 H    0.967
                           703 C    0.106
   685   1 H    0.992 --   684 C    0.967
   686   6 C    3.988 --   684 C    1.437   702 C    1.381   668 H    0.963
                           687 C    0.101
   687   6 C    3.991 --   703 C    1.474   683 C    1.372   688 H    0.973
                           686 C    0.101
   688   1 H    0.994 --   687 C    0.973
   689   1 H    0.958 --   694 N    0.942
   690   1 H    0.956 --   694 N    0.942
   691   7 N    3.468 --   675 C    1.197   670 C    0.999   672 C    0.963
                           695 O    0.187
   692   7 N    3.696 --   676 C    1.227   693 N    1.222   683 C    1.002
   693   7 N    2.963 --   681 C    1.418   692 N    1.222   676 C    0.132
   694   7 N    3.365 --   682 C    1.248   689 H    0.942   690 H    0.942
                           696 O    0.190
   695   8 O    2.008 --   675 C    1.665   691 N    0.187
   696   8 O    1.968 --   682 C    1.657   694 N    0.190
   697   6 C    3.936 --   698 H    0.981   700 H    0.980   699 H    0.980
                           701 O    0.966
   698   1 H    0.995 --   697 C    0.981
   699   1 H    0.996 --   697 C    0.980
   700   1 H    0.996 --   697 C    0.980
   701   8 O    2.201 --   702 C    1.067   697 C    0.966
   702   6 C    3.932 --   686 C    1.381   703 C    1.345   701 O    1.067
   703   6 C    3.991 --   687 C    1.474   702 C    1.345   704 H    0.973
                           684 C    0.106
   704   1 H    0.994 --   703 C    0.973
   705   6 C    3.990 --   656 C    1.001   659 C    0.978   707 H    0.963
                           706 H    0.952
   706   1 H    0.994 --   705 C    0.952
   707   1 H    0.995 --   705 C    0.963
   708   8 O    1.951 --   659 C    1.635   669 N    0.190
   709   6 C    3.968 --   712 C    1.007   711 H    0.972   710 H    0.971
                           728 N    0.958
   710   1 H    0.997 --   709 C    0.971
   711   1 H    0.995 --   709 C    0.972
   712   6 C    3.991 --   709 C    1.007   715 C    1.006   713 H    0.979
                           714 H    0.969
   713   1 H    0.996 --   712 C    0.979
   714   1 H    0.996 --   712 C    0.969
   715   6 C    3.994 --   712 C    1.006   764 C    1.002   717 H    0.981
                           716 H    0.976
   716   1 H    0.997 --   715 C    0.976
   717   1 H    0.998 --   715 C    0.981
   718   6 C    3.951 --   767 O    1.654   728 N    1.240   764 C    0.976
   719   6 C    3.993 --   726 C    1.441   721 C    1.406   720 H    0.972
                           724 C    0.109
   720   1 H    0.994 --   719 C    0.972
   721   6 C    3.968 --   719 C    1.406   722 C    1.405   728 N    0.991
   722   6 C    3.993 --   724 C    1.440   721 C    1.405   723 H    0.973
                           726 C    0.111
   723   1 H    0.994 --   722 C    0.973
   724   6 C    3.992 --   722 C    1.440   729 C    1.404   725 H    0.973
                           719 C    0.109
   725   1 H    0.995 --   724 C    0.973
   726   6 C    3.992 --   719 C    1.441   729 C    1.402   730 H    0.970
                           722 C    0.111
   727   1 H    0.994 --   745 C    0.970
   728   7 N    3.483 --   718 C    1.240   721 C    0.991   709 C    0.958
                           767 O    0.191
   729   6 C    3.963 --   724 C    1.404   726 C    1.402   750 N    0.993
   730   1 H    0.994 --   726 C    0.970
   731   6 C    3.966 --   737 C    0.998   732 H    0.974   733 H    0.973
                           750 N    0.962
   732   1 H    0.996 --   731 C    0.974
   733   1 H    0.994 --   731 C    0.973
   734   6 C    3.958 --   754 O    1.646   750 N    1.210   735 C    1.010
   735   6 C    3.953 --   736 C    1.430   751 N    1.221   734 C    1.010
                           752 N    0.134
   736   6 C    3.981 --   735 C    1.430   740 C    1.322   737 C    1.012
   737   6 C    3.989 --   736 C    1.012   731 C    0.998   739 H    0.962
                           738 H    0.960
   738   1 H    0.994 --   737 C    0.960
   739   1 H    0.991 --   737 C    0.962
   740   6 C    3.968 --   752 N    1.425   736 C    1.322   741 C    1.001
   741   6 C    3.952 --   755 O    1.654   753 N    1.256   740 C    1.001
   742   6 C    3.956 --   743 C    1.401   746 C    1.372   751 N    1.005
   743   6 C    3.991 --   745 C    1.436   742 C    1.401   744 H    0.973
                           762 C    0.107
   744   1 H    0.995 --   743 C    0.973
   745   6 C    3.991 --   743 C    1.436   761 C    1.379   727 H    0.970
   746   6 C    3.990 --   762 C    1.476   742 C    1.372   747 H    0.972
   747   1 H    0.993 --   746 C    0.972
   748   1 H    0.957 --   753 N    0.940
   749   1 H    0.953 --   753 N    0.940
   750   7 N    3.479 --   734 C    1.210   729 C    0.993   731 C    0.962
                           754 O    0.192
   751   7 N    3.691 --   735 C    1.221   752 N    1.219   742 C    1.005
   752   7 N    2.964 --   740 C    1.425   751 N    1.219   735 C    0.134
   753   7 N    3.373 --   741 C    1.256   748 H    0.940   749 H    0.940
                           755 O    0.193
   754   8 O    1.995 --   734 C    1.646   750 N    0.192
   755   8 O    1.971 --   741 C    1.654   753 N    0.193
   756   6 C    3.935 --   758 H    0.981   759 H    0.981   757 H    0.979
                           760 O    0.966
   757   1 H    0.994 --   756 C    0.979
   758   1 H    0.996 --   756 C    0.981
   759   1 H    0.996 --   756 C    0.981
   760   8 O    2.208 --   761 C    1.072   756 C    0.966
   761   6 C    3.933 --   745 C    1.379   762 C    1.344   760 O    1.072
   762   6 C    3.991 --   746 C    1.476   761 C    1.344   763 H    0.971
                           743 C    0.107
   763   1 H    0.994 --   762 C    0.971
   764   6 C    3.990 --   715 C    1.002   718 C    0.976   766 H    0.964
                           765 H    0.954
   765   1 H    0.994 --   764 C    0.954
   766   1 H    0.995 --   764 C    0.964
   767   8 O    1.965 --   718 C    1.654   728 N    0.191
   768   6 C    3.970 --   771 C    1.007   770 H    0.973   769 H    0.972
                           788 N    0.961
   769   1 H    0.997 --   768 C    0.972
   770   1 H    0.996 --   768 C    0.973
   771   6 C    3.991 --   768 C    1.007   774 C    1.006   772 H    0.978
                           773 H    0.971
   772   1 H    0.997 --   771 C    0.978
   773   1 H    0.996 --   771 C    0.971
   774   6 C    3.994 --   771 C    1.006   777 C    1.001   776 H    0.981
                           775 H    0.976
   775   1 H    0.997 --   774 C    0.976
   776   1 H    0.997 --   774 C    0.981
   777   6 C    3.991 --   774 C    1.001   780 C    0.977   779 H    0.963
                           778 H    0.954
   778   1 H    0.994 --   777 C    0.954
   779   1 H    0.995 --   777 C    0.963
   780   6 C    3.951 --   789 O    1.634   788 N    1.257   777 C    0.977
   781   6 C    3.994 --   785 C    1.441   783 C    1.405   782 H    0.975
                           791 C    0.110
   782   1 H    0.996 --   781 C    0.975
   783   6 C    3.965 --   784 C    1.406   781 C    1.405   788 N    0.985
   784   6 C    3.993 --   791 C    1.440   783 C    1.406   790 H    0.973
                           785 C    0.109
   785   6 C    3.993 --   781 C    1.441   793 C    1.401   786 H    0.974
                           784 C    0.109
   786   1 H    0.995 --   785 C    0.974
   787   1 H    0.996 --   794 C    0.975
   788   7 N    3.494 --   780 C    1.257   783 C    0.985   768 C    0.961
                           789 O    0.191
   789   8 O    1.950 --   780 C    1.634   788 N    0.191
   790   1 H    0.994 --   784 C    0.973
   791   6 C    3.988 --   784 C    1.440   793 C    1.402   792 H    0.966
                           781 C    0.110
   792   1 H    0.991 --   791 C    0.966
   793   6 C    3.967 --   791 C    1.402   785 C    1.401   820 N    1.001
   794   6 C    3.969 --   799 C    0.998   787 H    0.975   795 H    0.974
                           820 N    0.962
   795   1 H    0.997 --   794 C    0.974
   796   6 C    3.956 --   824 O    1.666   820 N    1.193   797 C    1.009
   797   6 C    3.955 --   798 C    1.430   821 N    1.225   796 C    1.009
                           822 N    0.133
   798   6 C    3.980 --   797 C    1.430   802 C    1.325   799 C    1.011
   799   6 C    3.990 --   798 C    1.011   794 C    0.998   801 H    0.964
                           800 H    0.962
   800   1 H    0.994 --   799 C    0.962
   801   1 H    0.992 --   799 C    0.964
   802   6 C    3.967 --   822 N    1.424   798 C    1.325   803 C    0.997
   803   6 C    3.953 --   825 O    1.651   823 N    1.267   802 C    0.997
   804   6 C    3.953 --   805 C    1.398   812 C    1.372   821 N    1.003
   805   6 C    3.988 --   807 C    1.439   804 C    1.398   806 H    0.967
                           810 C    0.105
   806   1 H    0.992 --   805 C    0.967
   807   6 C    3.988 --   805 C    1.439   809 C    1.378   808 H    0.962
                           812 C    0.101
   808   1 H    0.990 --   807 C    0.962
   809   6 C    3.932 --   807 C    1.378   810 C    1.345   826 O    1.069
   810   6 C    3.991 --   812 C    1.473   809 C    1.345   811 H    0.974
                           805 C    0.105
   811   1 H    0.994 --   810 C    0.974
   812   6 C    3.991 --   810 C    1.473   804 C    1.372   813 H    0.973
                           807 C    0.101
   813   1 H    0.994 --   812 C    0.973
   814   6 C    3.933 --   815 H    0.981   816 H    0.980   817 H    0.977
                           826 O    0.965
   815   1 H    0.996 --   814 C    0.981
   816   1 H    0.996 --   814 C    0.980
   817   1 H    0.994 --   814 C    0.977
   818   1 H    0.948 --   823 N    0.921
   819   1 H    0.958 --   823 N    0.944
   820   7 N    3.466 --   796 C    1.193   793 C    1.001   794 C    0.962
                           824 O    0.185
   821   7 N    3.691 --   797 C    1.225   822 N    1.215   804 C    1.003
   822   7 N    2.959 --   802 C    1.424   821 N    1.215   797 C    0.133
   823   7 N    3.381 --   803 C    1.267   819 H    0.944   818 H    0.921
                           825 O    0.198
   824   8 O    2.009 --   796 C    1.666   820 N    0.185
   825   8 O    1.967 --   803 C    1.651   823 N    0.198
   826   8 O    2.202 --   809 C    1.069   814 C    0.965
 ---------------------------------------------------------------------------

Topologies differ in total number of bonds
Writing topology from bond orders to xtbtopo.mol

molecular dipole:
                 x           y           z       tot (Debye)
 q only:        0.512      -0.122      -0.654
   full:        0.557      -0.150      -0.571       2.064
molecular quadrupole (traceless):
                xx          xy          yy          xz          yz          zz
 q only:     -271.828     123.923     218.010      97.303    -170.894      53.818
  q+dip:     -274.549     155.103     188.602      99.821    -179.792      85.947
   full:     -253.143     154.741     161.096     135.135    -181.128      92.047


           -------------------------------------------------
          | TOTAL ENERGY            -1356.105549312761 Eh   |
          | GRADIENT NORM               3.488121488224 Eh/α |
          | HOMO-LUMO GAP               2.183370174653 eV   |
           -------------------------------------------------

------------------------------------------------------------------------
 * finished run on 2026/10/03 at 19:17:50.797     
------------------------------------------------------------------------
 total:
 * wall-time:     0 d,  0 h,  1 min,  0.341 sec
 *  cpu-time:     0 d,  0 h,  1 min,  0.172 sec
 * ratio c/w:     0.997 speedup
 SCF:
 * wall-time:     0 d,  0 h,  0 min, 58.943 sec
 *  cpu-time:     0 d,  0 h,  0 min, 58.844 sec
 * ratio c/w:     0.998 speedup

normal termination of xtb
