26

C          0.68382        0.20435        0.51994
C          2.17786        0.07000        0.26260
C          2.90417        1.40026        0.47499
C          4.44300        1.33827        0.39542
C          5.03052        1.22389       -1.02934
C          4.88874       -0.15669       -1.67441
C          5.68922       -0.27205       -2.96225
C          5.12466        2.52705        1.07694
O          4.40303        3.65705        1.21135
O          6.29692        2.49283        1.42951
H          0.18050       -0.74256        0.30756
H          0.24488        0.97334       -0.12606
H          0.48593        0.47329        1.56133
H          2.28962       -0.27358       -0.76401
H          2.59597       -0.70000        0.92017
H          2.62030        1.76527        1.47110
H          2.52341        2.13445       -0.24708
H          4.76534        0.47113        0.98865
H          6.10310        1.46100       -0.99187
H          4.58066        1.98608       -1.67764
H          3.84925       -0.34980       -1.93661
H          5.21123       -0.93706       -0.97601
H          5.38016        0.48975       -3.68328
H          5.52489       -1.25599       -3.41884
H          6.76034       -0.16022       -2.77321
H          3.48624        3.63377        0.89037
