59
m_D7b
C     18.53816469    51.98742738    35.41210134
H     17.88455681    51.44315208    35.87762154
H     18.07090106    52.75677686    35.05167323
O     18.43288594    51.04823411    33.23930664
C     21.89053171    41.07838956    31.07941247
C     22.96987195    41.01914495    30.21539187
H     23.50415053    40.25865448    30.19667037
C     20.71896058    40.11012767    32.89571214
H     20.73644627    39.32845864    33.45326658
H     20.87649487    40.88985880    33.43281453
H     19.85953379    40.18113816    32.47314125
O     21.72629657    40.00686486    31.90473149
C     21.78361611    48.36284731    31.19347199
H     23.14674988    49.83607266    31.06981573
C     21.99491972    48.27218090    28.72396520
H     21.09802577    48.06288684    28.42048819
H     22.06083498    49.23532118    28.82008985
C     22.45712652    46.29371526    30.14679883
C     22.66889264    45.64783821    28.84164317
C     22.99882083    46.31780069    27.69821605
C     22.99392571    47.80639087    27.68201173
H     23.87861754    48.14594004    27.89030803
H     22.73828750    48.13071362    26.80477596
C     23.28146572    45.31867069    26.76591706
C     23.75248471    45.49225188    25.37376151
C     22.45229410    43.19430826    29.40973828
C     21.35334835    43.24206385    30.23741716
H     20.79897925    43.98912738    30.23128154
C     21.07414720    42.18313555    31.07437811
C     23.25722419    42.07198268    29.38692638
H     23.98879962    42.03184030    28.81379691
H     23.97842244    44.44176732    23.77944528
H     23.33936801    43.73166246    24.88385617
N     22.22336441    47.63751603    30.03509915
N     22.75838967    44.31165064    28.57450788
N     23.11936151    44.09903445    27.29169216
N     23.71244776    44.40619287    24.60759612
O     22.57025763    45.72327820    31.21250814
O     24.17547358    46.57581929    25.00892834
C     21.20504504    50.87769821    35.54267983
H     21.89921547    51.49436822    35.25934023
H     21.63592629    50.04508988    35.79109362
C     20.53741456    51.43346254    36.72622444
H     20.09794807    50.71228392    37.20543178
H     21.20740656    51.81273882    37.31555822
C     19.54088671    52.47024332    36.40638578
H     19.08332075    52.73601356    37.21959090
H     19.99448026    53.25094340    36.05067738
C     19.08765175    51.18970140    34.26835958
C     21.92435507    50.28829733    32.60277580
H     22.33625164    51.09156020    32.82869233
C     20.83722181    49.84645431    33.32536259
C     20.24948384    48.64716610    32.99435397
H     19.53427203    48.33004130    33.49731716
C     20.71188030    47.91477530    31.92675677
H     20.29764099    47.11331192    31.70068292
C     22.40369015    49.54192591    31.54571929
H     20.33372603    42.21594156    31.63460706
N     20.30757771    50.62480122    34.40884945
