
                                 *****************
                                 * O   R   C   A *
                                 *****************

                                            #,                                       
                                            ###                                      
                                            ####                                     
                                            #####                                    
                                            ######                                   
                                           ########,                                 
                                     ,,################,,,,,                         
                               ,,#################################,,                 
                          ,,##########################################,,             
                       ,#########################################, ''#####,          
                    ,#############################################,,   '####,        
                  ,##################################################,,,,####,       
                ,###########''''           ''''###############################       
              ,#####''   ,,,,##########,,,,          '''####'''          '####       
            ,##' ,,,,###########################,,,                        '##       
           ' ,,###''''                  '''############,,,                           
         ,,##''                                '''############,,,,        ,,,,,,###''
      ,#''                                            '''#######################'''  
     '                                                          ''''####''''         
             ,#######,   #######,   ,#######,      ##                                
            ,#'     '#,  ##    ##  ,#'     '#,    #''#        ,####,    ,#,          
            ##       ##  ##   ,#'  ##            #'  '#       #'       ,# #          
            ##       ##  #######   ##           ,######,      #####,      #          
            '#,     ,#'  ##    ##  '#,     ,#' ,#      #,     #,   #      #          
             '#######'   ##     ##  '#######'  #'      '#     '####' #    #          



                #########################################################
                #                        -***-                          #
                #          Department of theory and spectroscopy        #
                #                                                       #
                #                      Frank Neese                      #
                #                                                       #
                #     Directorship, Architecture, Infrastructure        #
                #                    SHARK, DRIVERS                     #
                #        Core code/Algorithms in most modules           #
                #                                                       #
                #        Max Planck Institute fuer Kohlenforschung      #
                #                Kaiser Wilhelm Platz 1                 #
                #                 D-45470 Muelheim/Ruhr                 #
                #                      Germany                          #
                #                                                       #
                #                  All rights reserved                  #
                #                        -***-                          #
                #########################################################


                         Program Version 6.1.1  -  RELEASE   -


 With contributions from (in alphabetic order):
[Max-Planck-Institut fuer Kohlenforschung]                               
  Daniel Aravena         : Magnetic Suceptibility                        
  Michael Atanasov       : Ab Initio Ligand Field Theory (pilot matlab implementation)
  Alexander A. Auer      : GIAO ZORA, VPT2 properties, NMR spectrum      
  Ute Becker             : All parallelization in ORCA, NUMFREQ, NUMCALC 
  Giovanni Bistoni       : ED, misc. LED, open-shell LED, HFLD           
  Dmytro Bykov           : pre 5.0 version of the SCF Hessian            
  Marcos Casanova-Pﾃ｡ez   : Triplet and SCS-CIS(D). UHF-(DLPNO)-IP/EA/STEOM-CCSD. UHF-CVS-IP/STEOM-CCSD   
  Vijay G. Chilkuri      : MRCI spin determinant printing, contributions to CSF-ICE 
  Pauline Colinet        : FMM embedding                                 
  Dipayan Datta          : RHF DLPNO-CCSD density                        
  Achintya Kumar Dutta   : EOM-CC, STEOM-CC                              
  Nicolas Foglia         : Exact transition moments, OPA infrastructure, MCD improvements    
  Dmitry Ganyushin       : Spin-Orbit,Spin-Spin,Magnetic field MRCI      
  Miquel Garcia-Rates    : C-PCM and meta-GGA Hessian, CCSD/C-PCM, Gaussian charge scheme 
  Tiago L. C. Gouveia    : GS-ROHF, GS-ROCIS                             
  Yang Guo               : DLPNO-NEVPT2, F12-NEVPT2, CIM, IAO-localization        
  Andreas Hansen         : Spin unrestricted coupled pair/coupled cluster methods 
  Ingolf Harden          : AUTO-CI MPn and infrastructure                
  Benjamin Helmich-Paris : MC-RPA, TRAH-(SCF,CASSCF), AVAS, COSX integrals, SCF dyn. polar., MC-PDFT, srDFT 
  Lee Huntington         : MR-EOM, pCC                                   
  Robert Izsak           : Overlap fitted RIJCOSX, COSX-SCS-MP3, EOM     
  Riya Kayal             : Wick's Theorem for AUTO-CI, AUTO-CI UHF-CCSDT 
  Emily Kempfer          : AUTO-CI RHF CISDT and CCSDT, approximate NEVPT4
  Christian Kollmar      : KDIIS, OOCD, Brueckner-CCSD(T), CCSD density, CASPT2, CASPT2-K, improved NEVPT2 
  Axel Koslowski         : Symmetry handling                             
  Simone Kossmann        : meta-GGA functionals, TD-DFT gradient, OOMP2, (MP2 Hessian; deprecated post 5.0) 
  Lucas Lang             : DCDCAS, Hyperfine gauge corrections, ICE-SOC+SSC
  Marvin Lechner         : AUTO-CI (C++ implementation), FIC-MRCC        
  Spencer Leger          : CASSCF response                               
  Dagmar Lenk            : GEPOL surface, SMD, ORCA-2-JSON               
  Dimitrios Liakos       : Extrapolation schemes; Compound Job, Property file
  Dimitrios Manganas     : Further ROCIS development; embedding schemes. LFT, Crystal Embedding 
  Dimitrios Pantazis     : SARC Basis sets                               
  Anastasios Papadopoulos: AUTO-CI, single reference methods and gradients 
  Taras Petrenko         : pre 6.0 DFT Hessian and TD-DFT gradient,  ECA, NRVS 
  Petra Pikulova         : Analytic Raman intensities                    
  Peter Pinski           : DLPNO-MP2, DLPNO-MP2 Gradient                 
  Shashank Vittal Rao    : ES-AILFT, MagRelax                            
  Christoph Reimann      : Effective Core Potentials                     
  Marius Retegan         : Local ZFS, SOC                                
  Christoph Riplinger    : Optimizer, TS searches, QM/MM, DLPNO-CCSD(T), (RO)-DLPNO pert. Triples 
  Michael Roemelt        : Original ROCIS implementation, recursive CI coupling coefficients
  Masaaki Saitow         : Open-shell DLPNO-CCSD energy and density      
  Barbara Sandhoefer     : DKH picture change effects                    
  Yorick L. A. Schmerwitz: GMF and freeze-and-release deltaSCF, NEB S-IDPP initial path                    
  Kantharuban Sivalingam : CASSCF convergence/infrastructure, NEVPT2, NEVPT3, NEVPT4(SD), FIC-MRCI and CEPA variants
  Bernardo de Souza      : ESD, SOC TD-DFT                               
  Georgi L. Stoychev     : AutoAux, RI-MP2 NMR, DLPNO-MP2 response, X2C  
  Van Anh Tran           : RI-MP2 g-tensors                              
  Willem Van den Heuvel  : Paramagnetic NMR                              
  Zikuan Wang            : NOTCH, Electric field optimization            
  Frank Wennmohs         : Technical directorship and infrastructure     
  Hang Xu                : AUTO-CI-Response properties                   
                                                                         
[FACCTs GmbH]                                                            
  Markus Bursch, Nicolas Foglia, Miquel Garcia-Rates, Ingolf Harden, Hagen Neugebauer, Anastasios Papadopoulos, 
  Christoph Riplinger, Bernardo de Souza, Georgi L. Stoychev                                                    
                                                                 
  APM, various basis sets, CI-OPT, improved COSX, DLPNO-Multilevel,           
  DOCKER, DRACO, updates on ESD, Fragmentator, GOAT, IRC, LR-CPCM, L-BFGS, MBIS, meta-GGA TD-DFT gradient, ML-optimized integration grids, 
  MM, NACMEs, nearIR, NEB, NEB-TS, NL-DFT gradient (VV10), 2- and 3-layer-ONIOM, interface openCOSMO-RS, QMMM,   
  Crystal-QMMM, RESP, rigid body optimization, SF, symmetry and pop. for TD-DFT, various functionals, SOLVATOR                                   
                                                                         
[Other institutions]                                                     
  V. Asgeirsson          : NEB                                           
  Christoph Bannwarth    : sTDA-DFT, sTD-DFT, PBEh-3c, B97-3c, D3        
  Giovanni Bistoni       : ETS/NOCV, ADLD/ADEX, COVALED                  
  Martin Brehm           : Molecular dynamics                            
  Ronald Cardenas        : ETS/NOCV                                      
  Martina Colucci        : COVALED                                       
  Sebastian Ehlert       : rSCAN, r2SCAN, r2SCAN-3c, D4, dhf basis sets  
  Marvin Friede          : D4 for Fr, Ra, Ac-Lr                          
  Lars Goerigk           : TD-DFT with DH, B97 family of functionals     
  Stefan Grimme          : VdW corrections, initial TS optimization, DFT functionals, gCP, sTDA/sTD-DF 
  Waldemar Hujo          : DFT-NL                                        
  H. Jonsson             : NEB                                           
  Holger Kruse           : gCP                                           
  Marcel Mueller         : wB97X-3c, vDZP basis set                      
  Hagen Neugebauer       : wr2SCAN, Native XTB                           
  Gianluca Regni         : ADLD/ADEX                                     
  Tobias Risthaus        : pre 6.0 range-separated hybrid DFT and stability analysis
  Lukas Wittmann         : regularized MP2, r2SCAN double-hybrids, wr2SCAN        
                                                                         
We gratefully acknowledge several colleagues who have allowed us to      
interface, adapt or use parts of their codes:                            
  Ed Valeev, F. Pavosevic, A. Kumar             : LibInt (2-el integral package), F12 methods 
  Garnet Chan, S. Sharma, J. Yang, R. Olivares  : DMRG                   
  Ulf Ekstrom                                   : XCFun DFT Library      
  Mihaly Kallay                                 : mrcc  (arbitrary order and MRCC methods)
  Frank Weinhold                                : gennbo (NPA and NBO analysis)           
  Simon Mueller                                 : openCOSMO-RS                            
  Christopher J. Cramer and Donald G. Truhlar   : smd solvation model                     
  S Lehtola, MJT Oliveira, MAL Marques          : LibXC Library                           
  Liviu Ungur et al                             : ANISO software                          


 Your calculation uses the libint2 library for the computation of 2-el integrals
 For citations please refer to: http://libint.valeyev.net

 Your ORCA version has been built with support for libXC version: 7.0.0
 For citations please refer to: https://libxc.gitlab.io

 This ORCA versions uses:
   CBLAS   interface :  Fast vector & matrix operations
   LAPACKE interface :  Fast linear algebra routines
   Shared memory     :  Shared parallel matrices


  ***********************************
  * Starting time: Sat Oct  3 10:43:11 2026
  * Host name:     DESKTOP-2KDTO5M
  * Process ID:    10948
  * Working dir.:  C:\Users\naoki\Downloads\デスクトップ\data\Molecules\Calculations\Apixaban\CrystalFragment\ManyBody\HalfShell
  ***********************************

NOTE: MaxCore=2000 MB was set to SCF,MP2,MDCI,CIPSI,MRCI,RASCI and CIS
      => If you want to overwrite this, your respective input block should be placed after the MaxCore statement
Your calculation utilizes the semiempirical GFN2-xTB method
Please cite in your paper:
Bannwarth, C.; Ehlert S.; Grimme, S. J. Chem. Theory Comput. 2019, 15, 1652.
   

================================================================================

================================================================================
                                        WARNINGS
                       Please study these warnings very carefully!
================================================================================


WARNING: Found dipole moment calculation with XTB calculation
  ===> : Switching off dipole moment calculation

Environment variable XTBEXE for xtb has been set!

================================================================================
                                       INPUT FILE
================================================================================
NAME = HS_pair_03_D1_+2.0A_XTB2_SP.inp
|  1> # A displaced +2.0 A along v + neighbour #3 (D1), XTB2 SP
|  2> 
|  3> ! XTB2
|  4> 
|  5> %pal
|  6>   nprocs 4
|  7> end
|  8> 
|  9> %maxcore 2000
| 10> 
| 11> * xyz 0 1
| 12> H     20.88062527    41.22217460    36.94075264
| 13> C     19.70301700    40.80690860    38.51131303
| 14> H     20.11725631    40.00544522    38.73738688
| 15> C     18.63128120    41.25498062    39.24459780
| 16> C     18.41997758    41.16431421    41.71410460
| 17> H     19.31687154    40.95502014    42.01758161
| 18> C     17.95777078    39.18584856    40.29127097
| 19> C     17.74600466    38.53997151    41.59642663
| 20> C     17.41607648    39.20993399    42.73985375
| 21> C     17.42097159    40.69852418    42.75605807
| 22> H     16.53627976    41.03807334    42.54776177
| 23> H     17.67660981    41.02284692    43.63329384
| 24> C     17.13343158    38.21080399    43.67215274
| 25> C     16.66241259    38.38438518    45.06430829
| 26> C     17.96260320    36.08644156    41.02833152
| 27> C     19.06154896    36.13419715    40.20065264
| 28> H     19.61591806    36.88126068    40.20678826
| 29> C     19.34075010    35.07526885    39.36369169
| 30> H     20.08117127    35.10807486    38.80346274
| 31> C     18.52436559    33.97052287    39.35865733
| 32> C     17.44502536    33.91127825    40.22267793
| 33> H     16.91074678    33.15078778    40.24139943
| 34> C     17.15767311    34.96411598    41.05114342
| 35> H     16.42609768    34.92397360    41.62427289
| 36> C     19.69593672    33.00226098    37.54235766
| 37> H     19.67845103    32.22059194    36.98480322
| 38> H     19.53840244    33.78199210    37.00525527
| 39> H     20.55536352    33.07327146    37.96492855
| 40> H     16.43647486    37.33390062    46.65862452
| 41> H     17.07552929    36.62379576    45.55421363
| 42> N     18.19153289    40.52964934    40.40297065
| 43> N     17.65650763    37.20378394    41.86356192
| 44> N     17.29553579    36.99116775    43.14637764
| 45> N     16.70244954    37.29832617    45.83047368
| 46> O     17.84463967    38.61541150    39.22556166
| 47> O     16.23942372    39.46795260    45.42914146
| 48> O     18.68860073    32.89899817    38.53333831
| 49> C     19.20985227    43.76983151    34.89538997
| 50> H     18.51568184    44.38650152    35.17872957
| 51> H     18.77897101    42.93722318    34.64697618
| 52> C     19.87748275    44.32559584    33.71184536
| 53> H     20.31694923    43.60441722    33.23263802
| 54> H     19.20749074    44.70487212    33.12251158
| 55> C     20.87401059    45.36237662    34.03168402
| 56> H     21.33157655    45.62814686    33.21847890
| 57> H     20.42041704    46.14307670    34.38739242
| 58> C     21.87673262    44.87956069    35.02596846
| 59> H     22.53034049    44.33528538    34.56044826
| 60> H     22.34399624    45.64891016    35.38639657
| 61> C     21.32724555    44.08183470    36.16971022
| 62> C     18.49054223    43.18043064    37.83529400
| 63> H     18.07864566    43.98369350    37.60937747
| 64> C     19.57767549    42.73858761    37.11270721
| 65> C     20.16541346    41.53929941    37.44371583
| 66> C     18.01120715    42.43405921    38.89235051
| 67> H     17.26814742    42.72820596    39.36825407
| 68> H     18.35406232    42.12745448    41.61797995
| 69> N     20.10731959    43.51693452    36.02922035
| 70> O     21.98201136    43.94036742    37.19876316
| 71> C     17.73376538    38.14522738    51.14445018
| 72> H     17.08015751    37.60095208    51.60997038
| 73> H     17.26650175    38.91457686    50.78402207
| 74> O     17.62848663    37.20603411    48.97165548
| 75> C     21.08613240    27.23618956    46.81176131
| 76> C     22.16547264    27.17694495    45.94774071
| 77> H     22.69975122    26.41645448    45.92901922
| 78> C     19.91456127    26.26792767    48.62806098
| 79> H     19.93204696    25.48625864    49.18561543
| 80> H     20.07209556    27.04765880    49.16516337
| 81> H     19.05513448    26.33893816    48.20549009
| 82> O     20.92189726    26.16466486    47.63708033
| 83> C     20.97921680    34.52064731    46.92582084
| 84> H     22.34235057    35.99387266    46.80216458
| 85> C     21.19052041    34.42998090    44.45631404
| 86> H     20.29362646    34.22068684    44.15283703
| 87> H     21.25643568    35.39312118    44.55243869
| 88> C     21.65272721    32.45151526    45.87914767
| 89> C     21.86449333    31.80563821    44.57399201
| 90> C     22.19442152    32.47560069    43.43056490
| 91> C     22.18952640    33.96419087    43.41436058
| 92> H     23.07421823    34.30374004    43.62265688
| 93> H     21.93388819    34.28851362    42.53712481
| 94> C     22.47706641    31.47647069    42.49826590
| 95> C     22.94808540    31.65005188    41.10611035
| 96> C     21.64789479    29.35210826    45.14208713
| 97> C     20.54894904    29.39986385    45.96976600
| 98> H     19.99457994    30.14692738    45.96363038
| 99> C     20.26974789    28.34093555    46.80672696
|100> C     22.45282488    28.22978268    45.11927522
|101> H     23.18440032    28.18964030    44.54614575
|102> H     23.17402313    30.59956732    39.51179412
|103> H     22.53496870    29.88946246    40.61620501
|104> N     21.41896510    33.79531603    45.76744799
|105> N     21.95399036    30.46945064    44.30685673
|106> N     22.31496220    30.25683445    43.02404100
|107> N     22.90804845    30.56399287    40.33994497
|108> O     21.76585832    31.88107820    46.94485698
|109> O     23.37107427    32.73361929    40.74127718
|110> C     20.40064573    37.03549821    51.27502868
|111> H     21.09481616    37.65216822    50.99168907
|112> H     20.83152698    36.20288988    51.52344247
|113> C     19.73301525    37.59126254    52.45857328
|114> H     19.29354876    36.87008392    52.93778063
|115> H     20.40300725    37.97053882    53.04790707
|116> C     18.73648740    38.62804332    52.13873463
|117> H     18.27892144    38.89381356    52.95193974
|118> H     19.19008095    39.40874340    51.78302622
|119> C     18.28325244    37.34750140    50.00070842
|120> C     21.11995576    36.44609733    48.33512465
|121> H     21.53185233    37.24936020    48.56104118
|122> C     20.03282250    36.00425431    49.05771143
|123> C     19.44508453    34.80496610    48.72670281
|124> H     18.72987272    34.48784130    49.22966600
|125> C     19.90748099    34.07257530    47.65910562
|126> H     19.49324168    33.27111192    47.43303177
|127> C     21.59929084    35.69972591    47.27806813
|128> H     19.52932672    28.37374156    47.36695590
|129> N     19.50317840    36.78260122    50.14119830
|130> *
|131> 
|132>                          ****END OF INPUT****
================================================================================

                       ****************************
                       * Single Point Calculation *
                       ****************************

      -----------------------------------------------------------      
     |                   =====================                   |     
     |                           x T B                           |     
     |                   =====================                   |     
     |                         S. Grimme                         |     
     |          Mulliken Center for Theoretical Chemistry        |     
     |                    University of Bonn                     |     
      -----------------------------------------------------------      

   * xtb version 6.7.1pre (5071a88) compiled by 'Marcel@Raven' on 2024-07-23

   xtb is free software: you can redistribute it and/or modify it under
   the terms of the GNU Lesser General Public License as published by
   the Free Software Foundation, either version 3 of the License, or
   (at your option) any later version.
   
   xtb is distributed in the hope that it will be useful,
   but WITHOUT ANY WARRANTY; without even the implied warranty of
   MERCHANTABILITY or FITNESS FOR A PARTICULAR PURPOSE.  See the
   GNU Lesser General Public License for more details.
   
   Cite this work as:
   * C. Bannwarth, E. Caldeweyher, S. Ehlert, A. Hansen, P. Pracht,
     J. Seibert, S. Spicher, S. Grimme, WIREs Comput. Mol. Sci., 2020, 11,
     e01493. DOI: 10.1002/wcms.1493
   
   for GFN2-xTB:
   * C. Bannwarth, S. Ehlert and S. Grimme., J. Chem. Theory Comput., 2019,
     15, 1652-1671. DOI: 10.1021/acs.jctc.8b01176
   for GFN1-xTB:
   * S. Grimme, C. Bannwarth, P. Shushkov, J. Chem. Theory Comput., 2017,
     13, 1989-2009. DOI: 10.1021/acs.jctc.7b00118
   for GFN0-xTB:
   * P. Pracht, E. Caldeweyher, S. Ehlert, S. Grimme, ChemRxiv, 2019, preprint.
     DOI: 10.26434/chemrxiv.8326202.v1
   for GFN-FF:
   * S. Spicher and S. Grimme, Angew. Chem. Int. Ed., 2020, 59, 15665-15673.
     DOI: 10.1002/anie.202004239
   
   for ALPB and GBSA implicit solvation:
   * S. Ehlert, M. Stahn, S. Spicher, S. Grimme, J. Chem. Theory Comput.,
     2021, 17, 4250-4261. DOI: 10.1021/acs.jctc.1c00471
   
   for ddCOSMO and CPCM-X implicit solvation:
   * M. Stahn, S. Ehlert, S. Grimme, J. Phys. Chem. A,
     2023, XX, XXXX-XXXX. DOI: 10.1021/acs.jpca.3c04382
   
   for DFT-D4:
   * E. Caldeweyher, C. Bannwarth and S. Grimme, J. Chem. Phys., 2017,
     147, 034112. DOI: 10.1063/1.4993215
   * E. Caldeweyher, S. Ehlert, A. Hansen, H. Neugebauer, S. Spicher,
     C. Bannwarth and S. Grimme, J. Chem. Phys., 2019, 150, 154122.
     DOI: 10.1063/1.5090222
   * E. Caldeweyher, J.-M. Mewes, S. Ehlert and S. Grimme, Phys. Chem. Chem. Phys.
     2020, 22, 8499-8512. DOI: 10.1039/D0CP00502A
   
   for sTDA-xTB:
   * S. Grimme and C. Bannwarth, J. Chem. Phys., 2016, 145, 054103.
     DOI: 10.1063/1.4959605
   
   in the mass-spec context:
   * V. Asgeirsson, C. Bauer and S. Grimme, Chem. Sci., 2017, 8, 4879.
     DOI: 10.1039/c7sc00601b
   * J. Koopman and S. Grimme, ACS Omega 2019, 4, 12, 15120-15133.
     DOI: 10.1021/acsomega.9b02011
   
   for metadynamics refer to:
   * S. Grimme, J. Chem. Theory Comput., 2019, 155, 2847-2862
     DOI: 10.1021/acs.jctc.9b00143
   
   for SPH calculations refer to:
   * S. Spicher and S. Grimme, J. Chem. Theory Comput., 2021, 17, 1701-1714
     DOI: 10.1021/acs.jctc.0c01306
   
   for ONIOM refer to:
   * C. Plett, A. Katbashev, S. Ehlert, S. Grimme, M. Bursch,
     Phys. Chem. Chem. Phys., 2023, 25, 17860-17868. DOI: 10.1039/D3CP02178E
   
   for DIPRO refer to:
   * J. Kohn, N. Gildemeister, S. Grimme, D. Fazzi, A. Hansen,
     J. Chem. Phys., 2023, just accepted.
   
   for PTB refer to:
   * S. Grimme, M. Mueller, A. Hansen, J. Chem. Phys., 2023, 158, 124111.
     DOI: 10.1063/5.0137838
   
   with help from (in alphabetical order)
   P. Atkinson, C. Bannwarth, F. Bohle, G. Brandenburg, E. Caldeweyher
   M. Checinski, S. Dohm, S. Ehlert, S. Ehrlich, I. Gerasimov, C. Hﾃｶlzer
   A. Katbashev, J. Kohn, J. Koopman, C. Lavigne, S. Lehtola, F. Mﾃ､rz, M. Mﾃｼller,
   F. Musil, H. Neugebauer, J. Pisarek, C. Plett, P. Pracht, F. Pultar,
   J. Seibert, P. Shushkov, S. Spicher, M. Stahn, M. Steiner, T. Strunk,
   J. Stﾃｼckrath, T. Rose, and J. Unsleber
   
 * started run on 2026/10/03 at 10:43:11.412     
   ID    Z sym.   atoms
    1    1 H      1, 3, 6, 11, 12, 17, 19, 22, 24, 26-30, 39, 40, 42, 43, 45,
                  46, 48, 49, 52, 56, 57, 61, 62, 66, 68-70, 73, 75, 76, 81,
                  82, 87, 90-92, 100, 101, 103, 104, 106, 107, 110, 113, 115,
                  117
    2    6 C      2, 4, 5, 7-10, 13-16, 18, 20, 21, 23, 25, 38, 41, 44, 47,
                  50, 51, 53-55, 60, 64, 65, 67, 72, 74, 77-80, 83-86, 88,
                  89, 99, 102, 105, 108, 109, 111, 112, 114, 116
    3    7 N      31-34, 58, 93-96, 118
    4    8 O      35-37, 59, 63, 71, 97, 98

           -------------------------------------------------
          |                Calculation Setup                |
           -------------------------------------------------

          program call               : C:\ORCA_6.1.1\xtb-6.7.1pre\xtb.exe  HS_pair_03_D1_+2.0A_XTB2_SP_XTB.xyz --grad -c 0 -u 0 -P 4 --namespace HS_pair_03_D1_+2.0A_XTB2_SP --input HS_pair_03_D1_+2.0A_XTB2_SP_XTB.input.tmp --acc 1.000000      
          calculation namespace      : HS_pair_03_D1_+2.0A_XTB2_SP
          coordinate file            : HS_pair_03_D1_+2.0A_XTB2_SP_XTB.xyz
          omp threads                :                     4


molecular fragmentation (1/2 indicates fragments):
111111111111111111111111111111111111111111111111111111111112222222222222
2222222222222222222222222222222222222222222222
# atoms in fragment 1/2:    59    59
 fragment masses (1/2) :      459.50      459.50
CMA distance (Bohr)    :  18.775
constraining FC (au)   :  0.0500

           -------------------------------------------------
          |                 G F N 2 - x T B                 |
           -------------------------------------------------

        Reference                      10.1021/acs.jctc.8b01176
      * Hamiltonian:
        H0-scaling (s, p, d)           1.850000    2.230000    2.230000
        zeta-weighting                 0.500000
      * Dispersion:
        s8                             2.700000
        a1                             0.520000
        a2                             5.000000
        s9                             5.000000
      * Repulsion:
        kExp                           1.500000    1.000000
        rExp                           1.000000
      * Coulomb:
        alpha                          2.000000
        third order                    shell-resolved
        anisotropic                    true
        a3                             3.000000
        a5                             4.000000
        cn-shift                       1.200000
        cn-exp                         4.000000
        max-rad                        5.000000


          ...................................................
          :                      SETUP                      :
          :.................................................:
          :  # basis functions                 322          :
          :  # atomic orbitals                 322          :
          :  # shells                          186          :
          :  # electrons                       348          :
          :  max. iterations                   250          :
          :  Hamiltonian                  GFN2-xTB          :
          :  restarted?                      false          :
          :  GBSA solvation                  false          :
          :  PC potential                    false          :
          :  electronic temp.          300.0000000     K    :
          :  accuracy                    1.0000000          :
          :  -> integral cutoff          0.2500000E+02      :
          :  -> integral neglect         0.1000000E-07      :
          :  -> SCF convergence          0.1000000E-05 Eh   :
          :  -> wf. convergence          0.1000000E-03 e    :
          :  Broyden damping             0.4000000          :
          :  net charge                          0          :
          :  unpaired electrons                  0          :
          ...................................................

 iter      E             dE          RMSdq      gap      omega  full diag
   1   -197.4543016 -0.197454E+03  0.413E+00    2.83       0.0  T
   2   -197.9786919 -0.524390E+00  0.242E+00    2.33       1.0  T
   3   -198.0293358 -0.506440E-01  0.129E+00    3.01       1.0  T
   4   -198.0362839 -0.694803E-02  0.435E-01    2.76       1.0  T
   5   -198.0513386 -0.150548E-01  0.922E-02    2.85       1.0  T
   6   -198.0515549 -0.216228E-03  0.531E-02    2.84       1.0  T
   7   -198.0517182 -0.163333E-03  0.224E-02    2.85       1.0  T
   8   -198.0517256 -0.743707E-05  0.836E-03    2.85       1.1  T
   9   -198.0517286 -0.290798E-05  0.370E-03    2.85       2.5  T
  10   -198.0517288 -0.234435E-06  0.151E-03    2.84       6.1  T
  11   -198.0517289 -0.131876E-06  0.542E-04    2.84      17.0  T
  12   -198.0517289 -0.973009E-08  0.258E-04    2.84      35.7  T

   *** convergence criteria satisfied after 12 iterations ***

         #    Occupation            Energy/Eh            Energy/eV
      -------------------------------------------------------------
         1        2.0000           -0.7219226             -19.6445
       ...           ...                  ...                  ...
       168        2.0000           -0.3847418             -10.4694
       169        2.0000           -0.3835280             -10.4363
       170        2.0000           -0.3814773             -10.3805
       171        2.0000           -0.3797796             -10.3343
       172        2.0000           -0.3780652             -10.2877
       173        2.0000           -0.3772022             -10.2642
       174        2.0000           -0.3735739             -10.1655 (HOMO)
       175                         -0.2690279              -7.3206 (LUMO)
       176                         -0.2618087              -7.1242
       177                         -0.2424091              -6.5963
       178                         -0.2366242              -6.4389
       179                         -0.2336144              -6.3570
       ...                                ...                  ...
       322                          0.8726483              23.7460
      -------------------------------------------------------------
                  HL-Gap            0.1045459 Eh            2.8448 eV
             Fermi-level           -0.3213009 Eh           -8.7430 eV

 SCC (total)                   0 d,  0 h,  0 min,  0.330 sec
 SCC setup                      ...        0 min,  0.001 sec (  0.303%)
 Dispersion                     ...        0 min,  0.003 sec (  0.909%)
 classical contributions        ...        0 min,  0.000 sec (  0.000%)
 integral evaluation            ...        0 min,  0.016 sec (  4.848%)
 iterations                     ...        0 min,  0.219 sec ( 66.364%)
 molecular gradient             ...        0 min,  0.089 sec ( 26.970%)
 printout                       ...        0 min,  0.002 sec (  0.606%)

         :::::::::::::::::::::::::::::::::::::::::::::::::::::
         ::                     SUMMARY                     ::
         :::::::::::::::::::::::::::::::::::::::::::::::::::::
         :: total energy            -193.667631215594 Eh    ::
         :: gradient norm              1.319366742468 Eh/a0 ::
         :: HOMO-LUMO gap              2.844839612885 eV    ::
         ::.................................................::
         :: SCC energy              -198.050426438750 Eh    ::
         :: -> isotropic ES            0.296134805579 Eh    ::
         :: -> anisotropic ES          0.003508773449 Eh    ::
         :: -> anisotropic XC          0.036943390080 Eh    ::
         :: -> dispersion             -0.142494330213 Eh    ::
         :: repulsion energy           4.382795223156 Eh    ::
         :: add. restraining           0.000000000000 Eh    ::
         :: total charge              -0.000000000000 e     ::
         :::::::::::::::::::::::::::::::::::::::::::::::::::::


Property printout bound to 'properties.out'

           -------------------------------------------------
          | TOTAL ENERGY             -193.667631215594 Eh   |
          | GRADIENT NORM               1.319366742468 Eh/ﾎｱ |
          | HOMO-LUMO GAP               2.844839612885 eV   |
           -------------------------------------------------

------------------------------------------------------------------------
 * finished run on 2026/10/03 at 10:43:11.863     
------------------------------------------------------------------------
 total:
 * wall-time:     0 d,  0 h,  0 min,  0.448 sec
 *  cpu-time:     0 d,  0 h,  0 min,  1.703 sec
 * ratio c/w:     3.802 speedup
 SCF:
 * wall-time:     0 d,  0 h,  0 min,  0.332 sec
 *  cpu-time:     0 d,  0 h,  0 min,  1.312 sec
 * ratio c/w:     3.953 speedup


-------------------------   --------------------
FINAL SINGLE POINT ENERGY      -193.667631215590
-------------------------   --------------------


-------------
DIPOLE MOMENT
-------------
                                X             Y             Z
Total Dipole Moment    :      0.00700      -0.32200       0.22500
                        -----------------------------------------
Magnitude (a.u.)       :      0.39288
Magnitude (Debye)      :      0.99863


--------------------------------
SUGGESTED CITATIONS FOR THIS RUN
--------------------------------

Below you find a list of papers that are relevant to this ORCA run
We neither can nor want to force you to cite these papers, but we appreciate if you do
You receive ORCA, which is the product of decades of hard work by many enthusiastic individuals, for free
The only thing we kindly ask in return is that you cite our papers,
We deeply appreciate it, if you show your appreciation for ORCA by not just citing the generic ORCA reference.

Please note that relegating all ORCA citations to the supporting information does *not* help us.
SI sections are not indexed - citations you put there will not count into any citation statistics
But we need these citations in order to attract the funding resources that allow us to do what we are doing

Therefore, if you are a happy ORCA user, please consider citing a few of the papers listed below in the main body of your paper

In addition to the list printed below, the program has created the file HS_pair_03_D1_+2.0A_XTB2_SP.bibtex that contains the list in bibtex format
You can import this file easily into all common literature databanks and citation aid programs

It goes without saying that in many instances, there are alternative algorithms to achieve similar
results as the ones you have gotten from ORCA. It is, of course, also the case that in some instances
ORCA just re-implements algorithms worked out by others. We are fully aware of that and we are also
fully appreciative of our colleagues work. Hence this citation list should not be read as indicating
that the listed papers, which are focused on our own work, are the only ones worth citing. It simply
meant to make it easier for users to cite ORCA specific papers. It is not a substitute for doing your
own literature research and citing the relevant literature in a scientifically appropriate manner.

List of essential papers. We consider these as the minimum necessary citations

  1. Bannwarth, C.; Ehlert, S.; Grimme, S.
     GFN2-xTB窶尿n Accurate and Broadly Parametrized Self-Consistent Tight-Binding Quantum Chemical Method with Multipole Electrostatics and Density-Dependent Dispersion Contributions
     J. Chem. Theory Comput. 2019 15(3), 1652-1671
     doi.org/10.1021/acs.jctc.8b01176
  2. Neese, F.
     Software update: the ORCA program system, version 6.0
     WIRES Comput. Molec. Sci. 2025 15(1), e70019
     doi.org/10.1002/wcms.70019

List of papers to cite with high priority. The work reported in these papers was absolutely
necessary for this run to complete.
Our perspective: the developers of density functionals and basis sets usually get cited in chemistry papers
Good! But without the algorithms to do something with them, the functionals or basis sets would not do anything.
Hence, in our opinion, the algorithm design and method developments papers are equally worthy of getting cited

  1. Bannwarth, C.; Caldeweyher, E.; Ehlert, S.; Hansen, A.; Pracht, P.; Seibert, J.; Spicher, S.; Grimme, S.
     Extended tight-binding quantum chemistry methods
     WIRES Comput. Molec. Sci. 2020 11(2), e1493
     doi.org/10.1002/wcms.1493

List of suggested additional citations. These are papers that are important in the 'surrounding' of 
of this run, or papers that preceded the highly important papers. If you like your results we are grateful for a citation.

  1. Neese, F.
     The ORCA program system
     WIRES Comput. Molec. Sci. 2012 2(1), 73-78
     doi.org/10.1002/wcms.81
  2. Neese, F.
     Software update: the ORCA program system, version 4.0
     WIRES Comput. Molec. Sci. 2018 8(1), 1-6
     doi.org/10.1002/wcms.1327
  3. Neese, F.; Wennmohs, F.; Becker, U.; Riplinger, C.
     The ORCA quantum chemistry program package
     J. Chem. Phys. 2020 152(22), 224108
     doi.org/10.1063/5.0004608
  4. Neese, F.
     Software update: The ORCA program system窶之ersion 5.0
     WIRES Comput. Molec. Sci. 2022 12(1), e1606
     doi.org/10.1002/wcms.1606

List of optional additional citations

  1. Neese, F.
     Approximate second-order SCF convergence for spin unrestricted wavefunctions
     Chem. Phys. Lett. 2000 325(1-3), 93-98
     doi.org/10.1016/s0009-2614(00)00662-x

Timings for individual modules:

Sum of individual times          ...        0.523 sec (=   0.009 min)
XTB module                       ...        0.523 sec (=   0.009 min) 100.0 %
                             ****ORCA TERMINATED NORMALLY****
TOTAL RUN TIME: 0 days 0 hours 0 minutes 0 seconds 905 msec
