
                                 *****************
                                 * O   R   C   A *
                                 *****************

                                            #,                                       
                                            ###                                      
                                            ####                                     
                                            #####                                    
                                            ######                                   
                                           ########,                                 
                                     ,,################,,,,,                         
                               ,,#################################,,                 
                          ,,##########################################,,             
                       ,#########################################, ''#####,          
                    ,#############################################,,   '####,        
                  ,##################################################,,,,####,       
                ,###########''''           ''''###############################       
              ,#####''   ,,,,##########,,,,          '''####'''          '####       
            ,##' ,,,,###########################,,,                        '##       
           ' ,,###''''                  '''############,,,                           
         ,,##''                                '''############,,,,        ,,,,,,###''
      ,#''                                            '''#######################'''  
     '                                                          ''''####''''         
             ,#######,   #######,   ,#######,      ##                                
            ,#'     '#,  ##    ##  ,#'     '#,    #''#        ,####,    ,#,          
            ##       ##  ##   ,#'  ##            #'  '#       #'       ,# #          
            ##       ##  #######   ##           ,######,      #####,      #          
            '#,     ,#'  ##    ##  '#,     ,#' ,#      #,     #,   #      #          
             '#######'   ##     ##  '#######'  #'      '#     '####' #    #          



                #########################################################
                #                        -***-                          #
                #          Department of theory and spectroscopy        #
                #                                                       #
                #                      Frank Neese                      #
                #                                                       #
                #     Directorship, Architecture, Infrastructure        #
                #                    SHARK, DRIVERS                     #
                #        Core code/Algorithms in most modules           #
                #                                                       #
                #        Max Planck Institute fuer Kohlenforschung      #
                #                Kaiser Wilhelm Platz 1                 #
                #                 D-45470 Muelheim/Ruhr                 #
                #                      Germany                          #
                #                                                       #
                #                  All rights reserved                  #
                #                        -***-                          #
                #########################################################


                         Program Version 6.1.1  -  RELEASE   -


 With contributions from (in alphabetic order):
[Max-Planck-Institut fuer Kohlenforschung]                               
  Daniel Aravena         : Magnetic Suceptibility                        
  Michael Atanasov       : Ab Initio Ligand Field Theory (pilot matlab implementation)
  Alexander A. Auer      : GIAO ZORA, VPT2 properties, NMR spectrum      
  Ute Becker             : All parallelization in ORCA, NUMFREQ, NUMCALC 
  Giovanni Bistoni       : ED, misc. LED, open-shell LED, HFLD           
  Dmytro Bykov           : pre 5.0 version of the SCF Hessian            
  Marcos Casanova-Pﾃ｡ez   : Triplet and SCS-CIS(D). UHF-(DLPNO)-IP/EA/STEOM-CCSD. UHF-CVS-IP/STEOM-CCSD   
  Vijay G. Chilkuri      : MRCI spin determinant printing, contributions to CSF-ICE 
  Pauline Colinet        : FMM embedding                                 
  Dipayan Datta          : RHF DLPNO-CCSD density                        
  Achintya Kumar Dutta   : EOM-CC, STEOM-CC                              
  Nicolas Foglia         : Exact transition moments, OPA infrastructure, MCD improvements    
  Dmitry Ganyushin       : Spin-Orbit,Spin-Spin,Magnetic field MRCI      
  Miquel Garcia-Rates    : C-PCM and meta-GGA Hessian, CCSD/C-PCM, Gaussian charge scheme 
  Tiago L. C. Gouveia    : GS-ROHF, GS-ROCIS                             
  Yang Guo               : DLPNO-NEVPT2, F12-NEVPT2, CIM, IAO-localization        
  Andreas Hansen         : Spin unrestricted coupled pair/coupled cluster methods 
  Ingolf Harden          : AUTO-CI MPn and infrastructure                
  Benjamin Helmich-Paris : MC-RPA, TRAH-(SCF,CASSCF), AVAS, COSX integrals, SCF dyn. polar., MC-PDFT, srDFT 
  Lee Huntington         : MR-EOM, pCC                                   
  Robert Izsak           : Overlap fitted RIJCOSX, COSX-SCS-MP3, EOM     
  Riya Kayal             : Wick's Theorem for AUTO-CI, AUTO-CI UHF-CCSDT 
  Emily Kempfer          : AUTO-CI RHF CISDT and CCSDT, approximate NEVPT4
  Christian Kollmar      : KDIIS, OOCD, Brueckner-CCSD(T), CCSD density, CASPT2, CASPT2-K, improved NEVPT2 
  Axel Koslowski         : Symmetry handling                             
  Simone Kossmann        : meta-GGA functionals, TD-DFT gradient, OOMP2, (MP2 Hessian; deprecated post 5.0) 
  Lucas Lang             : DCDCAS, Hyperfine gauge corrections, ICE-SOC+SSC
  Marvin Lechner         : AUTO-CI (C++ implementation), FIC-MRCC        
  Spencer Leger          : CASSCF response                               
  Dagmar Lenk            : GEPOL surface, SMD, ORCA-2-JSON               
  Dimitrios Liakos       : Extrapolation schemes; Compound Job, Property file
  Dimitrios Manganas     : Further ROCIS development; embedding schemes. LFT, Crystal Embedding 
  Dimitrios Pantazis     : SARC Basis sets                               
  Anastasios Papadopoulos: AUTO-CI, single reference methods and gradients 
  Taras Petrenko         : pre 6.0 DFT Hessian and TD-DFT gradient,  ECA, NRVS 
  Petra Pikulova         : Analytic Raman intensities                    
  Peter Pinski           : DLPNO-MP2, DLPNO-MP2 Gradient                 
  Shashank Vittal Rao    : ES-AILFT, MagRelax                            
  Christoph Reimann      : Effective Core Potentials                     
  Marius Retegan         : Local ZFS, SOC                                
  Christoph Riplinger    : Optimizer, TS searches, QM/MM, DLPNO-CCSD(T), (RO)-DLPNO pert. Triples 
  Michael Roemelt        : Original ROCIS implementation, recursive CI coupling coefficients
  Masaaki Saitow         : Open-shell DLPNO-CCSD energy and density      
  Barbara Sandhoefer     : DKH picture change effects                    
  Yorick L. A. Schmerwitz: GMF and freeze-and-release deltaSCF, NEB S-IDPP initial path                    
  Kantharuban Sivalingam : CASSCF convergence/infrastructure, NEVPT2, NEVPT3, NEVPT4(SD), FIC-MRCI and CEPA variants
  Bernardo de Souza      : ESD, SOC TD-DFT                               
  Georgi L. Stoychev     : AutoAux, RI-MP2 NMR, DLPNO-MP2 response, X2C  
  Van Anh Tran           : RI-MP2 g-tensors                              
  Willem Van den Heuvel  : Paramagnetic NMR                              
  Zikuan Wang            : NOTCH, Electric field optimization            
  Frank Wennmohs         : Technical directorship and infrastructure     
  Hang Xu                : AUTO-CI-Response properties                   
                                                                         
[FACCTs GmbH]                                                            
  Markus Bursch, Nicolas Foglia, Miquel Garcia-Rates, Ingolf Harden, Hagen Neugebauer, Anastasios Papadopoulos, 
  Christoph Riplinger, Bernardo de Souza, Georgi L. Stoychev                                                    
                                                                 
  APM, various basis sets, CI-OPT, improved COSX, DLPNO-Multilevel,           
  DOCKER, DRACO, updates on ESD, Fragmentator, GOAT, IRC, LR-CPCM, L-BFGS, MBIS, meta-GGA TD-DFT gradient, ML-optimized integration grids, 
  MM, NACMEs, nearIR, NEB, NEB-TS, NL-DFT gradient (VV10), 2- and 3-layer-ONIOM, interface openCOSMO-RS, QMMM,   
  Crystal-QMMM, RESP, rigid body optimization, SF, symmetry and pop. for TD-DFT, various functionals, SOLVATOR                                   
                                                                         
[Other institutions]                                                     
  V. Asgeirsson          : NEB                                           
  Christoph Bannwarth    : sTDA-DFT, sTD-DFT, PBEh-3c, B97-3c, D3        
  Giovanni Bistoni       : ETS/NOCV, ADLD/ADEX, COVALED                  
  Martin Brehm           : Molecular dynamics                            
  Ronald Cardenas        : ETS/NOCV                                      
  Martina Colucci        : COVALED                                       
  Sebastian Ehlert       : rSCAN, r2SCAN, r2SCAN-3c, D4, dhf basis sets  
  Marvin Friede          : D4 for Fr, Ra, Ac-Lr                          
  Lars Goerigk           : TD-DFT with DH, B97 family of functionals     
  Stefan Grimme          : VdW corrections, initial TS optimization, DFT functionals, gCP, sTDA/sTD-DF 
  Waldemar Hujo          : DFT-NL                                        
  H. Jonsson             : NEB                                           
  Holger Kruse           : gCP                                           
  Marcel Mueller         : wB97X-3c, vDZP basis set                      
  Hagen Neugebauer       : wr2SCAN, Native XTB                           
  Gianluca Regni         : ADLD/ADEX                                     
  Tobias Risthaus        : pre 6.0 range-separated hybrid DFT and stability analysis
  Lukas Wittmann         : regularized MP2, r2SCAN double-hybrids, wr2SCAN        
                                                                         
We gratefully acknowledge several colleagues who have allowed us to      
interface, adapt or use parts of their codes:                            
  Ed Valeev, F. Pavosevic, A. Kumar             : LibInt (2-el integral package), F12 methods 
  Garnet Chan, S. Sharma, J. Yang, R. Olivares  : DMRG                   
  Ulf Ekstrom                                   : XCFun DFT Library      
  Mihaly Kallay                                 : mrcc  (arbitrary order and MRCC methods)
  Frank Weinhold                                : gennbo (NPA and NBO analysis)           
  Simon Mueller                                 : openCOSMO-RS                            
  Christopher J. Cramer and Donald G. Truhlar   : smd solvation model                     
  S Lehtola, MJT Oliveira, MAL Marques          : LibXC Library                           
  Liviu Ungur et al                             : ANISO software                          


 Your calculation uses the libint2 library for the computation of 2-el integrals
 For citations please refer to: http://libint.valeyev.net

 Your ORCA version has been built with support for libXC version: 7.0.0
 For citations please refer to: https://libxc.gitlab.io

 This ORCA versions uses:
   CBLAS   interface :  Fast vector & matrix operations
   LAPACKE interface :  Fast linear algebra routines
   Shared memory     :  Shared parallel matrices


  ***********************************
  * Starting time: Sat Oct  3 10:52:27 2026
  * Host name:     DESKTOP-2KDTO5M
  * Process ID:    4108
  * Working dir.:  C:\Users\naoki\Downloads\デスクトップ\data\Molecules\Calculations\Apixaban\CrystalFragment\ManyBody\HalfShell
  ***********************************

NOTE: MaxCore=2000 MB was set to SCF,MP2,MDCI,CIPSI,MRCI,RASCI and CIS
      => If you want to overwrite this, your respective input block should be placed after the MaxCore statement
Your calculation utilizes the semiempirical GFN2-xTB method
Please cite in your paper:
Bannwarth, C.; Ehlert S.; Grimme, S. J. Chem. Theory Comput. 2019, 15, 1652.
   

================================================================================

================================================================================
                                        WARNINGS
                       Please study these warnings very carefully!
================================================================================


WARNING: Found dipole moment calculation with XTB calculation
  ===> : Switching off dipole moment calculation

Environment variable XTBEXE for xtb has been set!

================================================================================
                                       INPUT FILE
================================================================================
NAME = HS_shell_XTB2_SP.inp
|  1> # half shell only (9 neighbours), XTB2 SP
|  2> 
|  3> ! XTB2
|  4> 
|  5> %pal
|  6>   nprocs 1
|  7> end
|  8> 
|  9> %maxcore 2000
| 10> 
| 11> * xyz 0 1
| 12> C     25.91324538    39.09660179    43.40885425
| 13> H     26.60741581    38.47993178    43.12551465
| 14> H     26.34412664    39.92921012    43.65726804
| 15> C     25.24561490    38.54083746    44.59239886
| 16> H     24.80614842    39.26201608    45.07160620
| 17> H     25.91560690    38.16156118    45.18173265
| 18> C     24.24908706    37.50405668    44.27256021
| 19> H     23.79152110    37.23828644    45.08576532
| 20> H     24.70268061    36.72335660    43.91685180
| 21> C     23.24636503    37.98687262    43.27827576
| 22> H     22.59275716    38.53114792    43.74379596
| 23> H     22.77910140    37.21752314    42.91784765
| 24> C     23.79585209    38.78459860    42.13453400
| 25> C     26.63255542    39.68600267    40.46895023
| 26> H     27.04445199    38.88273980    40.69486676
| 27> C     25.54542216    40.12784569    41.19153701
| 28> C     24.95768419    41.32713390    40.86052839
| 29> C     27.11189049    40.43237409    39.41189371
| 30> H     27.85495023    40.13822734    38.93599015
| 31> H     26.76903533    40.73897882    36.68626427
| 32> N     25.01577806    39.34949878    42.27502387
| 33> O     23.14108628    38.92606589    41.10548106
| 34> H     24.24247238    41.64425870    41.36349158
| 35> C     25.42008065    42.05952470    39.79293120
| 36> H     25.00584134    42.86098808    39.56685734
| 37> C     26.49181645    41.61145269    39.05964642
| 38> C     26.70312007    41.70211910    36.59013962
| 39> H     25.80622611    41.91141316    36.28666261
| 40> C     27.16532686    43.68058474    38.01297325
| 41> C     27.37709298    44.32646179    36.70781759
| 42> C     27.70702117    43.65649931    35.56439047
| 43> C     27.70212606    42.16790913    35.54818615
| 44> H     28.58681789    41.82835996    35.75648245
| 45> H     27.44648784    41.84358638    34.67095038
| 46> C     27.98966607    44.65562931    34.63209148
| 47> C     28.46068506    44.48204812    33.23993593
| 48> C     27.16049444    46.77999174    37.27591270
| 49> C     26.06154869    46.73223615    38.10359158
| 50> H     25.50717959    45.98517262    38.09745596
| 51> C     25.78234755    47.79116445    38.94055254
| 52> H     25.04192637    47.75835844    39.50078148
| 53> C     26.59873206    48.89591044    38.94558689
| 54> C     27.67807229    48.95515505    38.08156629
| 55> H     28.21235087    49.71564552    38.06284479
| 56> C     27.96542454    47.90231732    37.25310080
| 57> H     28.69699997    47.94245970    36.67997133
| 58> C     25.42716093    49.86417233    40.76188656
| 59> H     25.44464661    50.64584136    41.31944100
| 60> H     25.58469521    49.08444120    41.29898895
| 61> H     24.56773413    49.79316184    40.33931567
| 62> H     28.68662279    45.53253268    31.64561970
| 63> H     28.04756836    46.24263754    32.75003059
| 64> N     26.93156476    42.33678397    37.90127357
| 65> N     27.46659002    45.66264936    36.44068230
| 66> N     27.82756186    45.87526555    35.15786658
| 67> N     28.42064811    45.56810713    32.47377054
| 68> O     27.27845798    44.25102180    39.07868256
| 69> O     28.88367393    43.39848071    32.87510276
| 70> O     26.43449692    49.96743514    39.77090591
| 71> C     17.73376538    38.14522738    51.14445018
| 72> H     17.08015751    37.60095208    51.60997038
| 73> H     17.26650175    38.91457686    50.78402207
| 74> O     17.62848663    37.20603411    48.97165548
| 75> C     21.08613240    27.23618956    46.81176131
| 76> C     22.16547264    27.17694495    45.94774071
| 77> H     22.69975122    26.41645448    45.92901922
| 78> C     19.91456127    26.26792767    48.62806098
| 79> H     19.93204696    25.48625864    49.18561543
| 80> H     20.07209556    27.04765880    49.16516337
| 81> H     19.05513448    26.33893816    48.20549009
| 82> O     20.92189726    26.16466486    47.63708033
| 83> C     20.97921680    34.52064731    46.92582084
| 84> H     22.34235057    35.99387266    46.80216458
| 85> C     21.19052041    34.42998090    44.45631404
| 86> H     20.29362646    34.22068684    44.15283703
| 87> H     21.25643568    35.39312118    44.55243869
| 88> C     21.65272721    32.45151526    45.87914767
| 89> C     21.86449333    31.80563821    44.57399201
| 90> C     22.19442152    32.47560069    43.43056490
| 91> C     22.18952640    33.96419087    43.41436058
| 92> H     23.07421823    34.30374004    43.62265688
| 93> H     21.93388819    34.28851362    42.53712481
| 94> C     22.47706641    31.47647069    42.49826590
| 95> C     22.94808540    31.65005188    41.10611035
| 96> C     21.64789479    29.35210826    45.14208713
| 97> C     20.54894904    29.39986385    45.96976600
| 98> H     19.99457994    30.14692738    45.96363038
| 99> C     20.26974789    28.34093555    46.80672696
|100> C     22.45282488    28.22978268    45.11927522
|101> H     23.18440032    28.18964030    44.54614575
|102> H     23.17402313    30.59956732    39.51179412
|103> H     22.53496870    29.88946246    40.61620501
|104> N     21.41896510    33.79531603    45.76744799
|105> N     21.95399036    30.46945064    44.30685673
|106> N     22.31496220    30.25683445    43.02404100
|107> N     22.90804845    30.56399287    40.33994497
|108> O     21.76585832    31.88107820    46.94485698
|109> O     23.37107427    32.73361929    40.74127718
|110> C     20.40064573    37.03549821    51.27502868
|111> H     21.09481616    37.65216822    50.99168907
|112> H     20.83152698    36.20288988    51.52344247
|113> C     19.73301525    37.59126254    52.45857328
|114> H     19.29354876    36.87008392    52.93778063
|115> H     20.40300725    37.97053882    53.04790707
|116> C     18.73648740    38.62804332    52.13873463
|117> H     18.27892144    38.89381356    52.95193974
|118> H     19.19008095    39.40874340    51.78302622
|119> C     18.28325244    37.34750140    50.00070842
|120> C     21.11995576    36.44609733    48.33512465
|121> H     21.53185233    37.24936020    48.56104118
|122> C     20.03282250    36.00425431    49.05771143
|123> C     19.44508453    34.80496610    48.72670281
|124> H     18.72987272    34.48784130    49.22966600
|125> C     19.90748099    34.07257530    47.65910562
|126> H     19.49324168    33.27111192    47.43303177
|127> C     21.59929084    35.69972591    47.27806813
|128> H     19.52932672    28.37374156    47.36695590
|129> N     19.50317840    36.78260122    50.14119830
|130> C     17.73376538    51.98742738    51.14445018
|131> H     17.08015751    51.44315208    51.60997038
|132> H     17.26650175    52.75677686    50.78402207
|133> O     17.62848663    51.04823411    48.97165548
|134> C     21.08613240    41.07838956    46.81176131
|135> C     22.16547264    41.01914495    45.94774071
|136> H     22.69975122    40.25865448    45.92901922
|137> C     19.91456127    40.11012767    48.62806098
|138> H     19.93204696    39.32845864    49.18561543
|139> H     20.07209556    40.88985880    49.16516337
|140> H     19.05513448    40.18113816    48.20549009
|141> O     20.92189726    40.00686486    47.63708033
|142> C     20.97921680    48.36284731    46.92582084
|143> H     22.34235057    49.83607266    46.80216458
|144> C     21.19052041    48.27218090    44.45631404
|145> H     20.29362646    48.06288684    44.15283703
|146> H     21.25643568    49.23532118    44.55243869
|147> C     21.65272721    46.29371526    45.87914767
|148> C     21.86449333    45.64783821    44.57399201
|149> C     22.19442152    46.31780069    43.43056490
|150> C     22.18952640    47.80639087    43.41436058
|151> H     23.07421823    48.14594004    43.62265688
|152> H     21.93388819    48.13071362    42.53712481
|153> C     22.47706641    45.31867069    42.49826590
|154> C     22.94808540    45.49225188    41.10611035
|155> C     21.64789479    43.19430826    45.14208713
|156> C     20.54894904    43.24206385    45.96976600
|157> H     19.99457994    43.98912738    45.96363038
|158> C     20.26974789    42.18313555    46.80672696
|159> C     22.45282488    42.07198268    45.11927522
|160> H     23.18440032    42.03184030    44.54614575
|161> H     23.17402313    44.44176732    39.51179412
|162> H     22.53496870    43.73166246    40.61620501
|163> N     21.41896510    47.63751603    45.76744799
|164> N     21.95399036    44.31165064    44.30685673
|165> N     22.31496220    44.09903445    43.02404100
|166> N     22.90804845    44.40619287    40.33994497
|167> O     21.76585832    45.72327820    46.94485698
|168> O     23.37107427    46.57581929    40.74127718
|169> C     20.40064573    50.87769821    51.27502868
|170> H     21.09481616    51.49436822    50.99168907
|171> H     20.83152698    50.04508988    51.52344247
|172> C     19.73301525    51.43346254    52.45857328
|173> H     19.29354876    50.71228392    52.93778063
|174> H     20.40300725    51.81273882    53.04790707
|175> C     18.73648740    52.47024332    52.13873463
|176> H     18.27892144    52.73601356    52.95193974
|177> H     19.19008095    53.25094340    51.78302622
|178> C     18.28325244    51.18970140    50.00070842
|179> C     21.11995576    50.28829733    48.33512465
|180> H     21.53185233    51.09156020    48.56104118
|181> C     20.03282250    49.84645431    49.05771143
|182> C     19.44508453    48.64716610    48.72670281
|183> H     18.72987272    48.33004130    49.22966600
|184> C     19.90748099    47.91477530    47.65910562
|185> H     19.49324168    47.11331192    47.43303177
|186> C     21.59929084    49.54192591    47.27806813
|187> H     19.52932672    42.21594156    47.36695590
|188> N     19.50317840    50.62480122    50.14119830
|189> C     26.68135773    32.17550179    27.38671554
|190> H     25.98718729    31.55883178    27.67005515
|191> H     26.25047647    33.00811012    27.13830176
|192> C     27.34898821    31.61973746    26.20317094
|193> H     27.78845469    32.34091608    25.72396360
|194> H     26.67899620    31.24046118    25.61383715
|195> C     28.34551605    30.58295668    26.52300959
|196> H     28.80308201    30.31718644    25.70980448
|197> H     27.89192250    29.80225660    26.87871800
|198> C     28.79875101    31.86349860    28.66103580
|199> C     25.96204769    32.76490267    30.32661957
|200> H     25.55015112    31.96163980    30.10070304
|201> C     27.04918095    33.20674569    29.60403279
|202> C     27.63691892    34.40603390    29.93504141
|203> H     28.35213073    34.72315870    29.43207822
|204> C     27.17452246    35.13842470    31.00263860
|205> H     27.58876177    35.93988808    31.22871246
|206> C     25.48271261    33.51127409    31.38367609
|207> H     27.55267673    40.83725844    31.29478832
|208> N     27.57882505    32.42839878    28.52054593
|209> C     26.10278666    34.69035269    31.73592338
|210> H     24.73965288    33.21712734    31.85957964
|211> C     25.89148304    34.78101910    34.20543018
|212> H     26.78837699    34.99031316    34.50890719
|213> H     25.82556778    33.81787882    34.10930553
|214> C     25.42927624    36.75948474    32.78259655
|215> C     25.21751012    37.40536179    34.08775221
|216> C     24.88758193    36.73539931    35.23117933
|217> C     24.89247705    35.24680913    35.24738364
|218> H     24.00778522    34.90725996    35.03908735
|219> H     25.14811527    34.92248638    36.12461942
|220> C     24.60493704    37.73452931    36.16347832
|221> C     24.13391805    37.56094812    37.55563387
|222> C     25.43410866    39.85889174    33.51965709
|223> C     26.53305441    39.81113615    32.69197822
|224> H     27.08742352    39.06407262    32.69811384
|225> C     26.81225556    40.87006445    31.85501726
|226> C     24.62917857    40.98121732    33.54246900
|227> H     23.89760314    41.02135970    34.11559847
|228> H     23.90798032    38.61143268    39.14995010
|229> H     24.54703475    39.32153754    38.04553921
|230> N     25.66303835    35.41568397    32.89429623
|231> N     25.12801309    38.74154936    34.35488749
|232> N     24.76704125    38.95416555    35.63770322
|233> N     24.17395500    38.64700713    38.32179926
|234> O     25.31614513    37.32992180    31.71688724
|235> O     23.71092918    36.47738071    37.92046704
|236> C     27.16744218    42.94307233    30.03368324
|237> H     27.14995649    43.72474136    29.47612879
|238> H     27.00990789    42.16334120    29.49658085
|239> H     28.02686898    42.87206184    30.45625413
|240> O     26.16010619    43.04633514    31.02466389
|241> C     25.99587105    41.97481044    31.84998291
|242> C     24.91653082    42.03405505    32.71400351
|243> H     24.38225224    42.79454552    32.73272501
|244> C     29.34823808    31.06577262    27.51729404
|245> H     30.00184595    31.61004792    27.05177384
|246> H     29.81550170    30.29642314    27.87772215
|247> O     29.45351682    32.00496589    29.69008874
|248> C     18.53816469    51.98742738    35.41210134
|249> H     17.88455681    51.44315208    35.87762154
|250> H     18.07090106    52.75677686    35.05167323
|251> O     18.43288594    51.04823411    33.23930664
|252> C     21.89053171    41.07838956    31.07941247
|253> C     22.96987195    41.01914495    30.21539187
|254> H     23.50415053    40.25865448    30.19667037
|255> C     20.71896058    40.11012767    32.89571214
|256> H     20.73644627    39.32845864    33.45326658
|257> H     20.87649487    40.88985880    33.43281453
|258> H     19.85953379    40.18113816    32.47314125
|259> O     21.72629657    40.00686486    31.90473149
|260> C     21.78361611    48.36284731    31.19347199
|261> H     23.14674988    49.83607266    31.06981573
|262> C     21.99491972    48.27218090    28.72396520
|263> H     21.09802577    48.06288684    28.42048819
|264> H     22.06083498    49.23532118    28.82008985
|265> C     22.45712652    46.29371526    30.14679883
|266> C     22.66889264    45.64783821    28.84164317
|267> C     22.99882083    46.31780069    27.69821605
|268> C     22.99392571    47.80639087    27.68201173
|269> H     23.87861754    48.14594004    27.89030803
|270> H     22.73828750    48.13071362    26.80477596
|271> C     23.28146572    45.31867069    26.76591706
|272> C     23.75248471    45.49225188    25.37376151
|273> C     22.45229410    43.19430826    29.40973828
|274> C     21.35334835    43.24206385    30.23741716
|275> H     20.79897925    43.98912738    30.23128154
|276> C     21.07414720    42.18313555    31.07437811
|277> C     23.25722419    42.07198268    29.38692638
|278> H     23.98879962    42.03184030    28.81379691
|279> H     23.97842244    44.44176732    23.77944528
|280> H     23.33936801    43.73166246    24.88385617
|281> N     22.22336441    47.63751603    30.03509915
|282> N     22.75838967    44.31165064    28.57450788
|283> N     23.11936151    44.09903445    27.29169216
|284> N     23.71244776    44.40619287    24.60759612
|285> O     22.57025763    45.72327820    31.21250814
|286> O     24.17547358    46.57581929    25.00892834
|287> C     21.20504504    50.87769821    35.54267983
|288> H     21.89921547    51.49436822    35.25934023
|289> H     21.63592629    50.04508988    35.79109362
|290> C     20.53741456    51.43346254    36.72622444
|291> H     20.09794807    50.71228392    37.20543178
|292> H     21.20740656    51.81273882    37.31555822
|293> C     19.54088671    52.47024332    36.40638578
|294> H     19.08332075    52.73601356    37.21959090
|295> H     19.99448026    53.25094340    36.05067738
|296> C     19.08765175    51.18970140    34.26835958
|297> C     21.92435507    50.28829733    32.60277580
|298> H     22.33625164    51.09156020    32.82869233
|299> C     20.83722181    49.84645431    33.32536259
|300> C     20.24948384    48.64716610    32.99435397
|301> H     19.53427203    48.33004130    33.49731716
|302> C     20.71188030    47.91477530    31.92675677
|303> H     20.29764099    47.11331192    31.70068292
|304> C     22.40369015    49.54192591    31.54571929
|305> H     20.33372603    42.21594156    31.63460706
|306> N     20.30757771    50.62480122    34.40884945
|307> H     22.83953108    27.56674130    37.29825264
|308> C     21.66192281    27.15147530    38.86881303
|309> H     22.07616212    26.35001192    39.09488688
|310> C     20.59018700    27.59954731    39.60209780
|311> C     20.37888339    27.50888090    42.07160460
|312> H     21.27577734    27.29958684    42.37508161
|313> C     19.91667659    25.53041526    40.64877097
|314> C     19.70491047    24.88453821    41.95392663
|315> C     19.37498228    25.55450069    43.09735375
|316> C     19.37987740    27.04309087    43.11355807
|317> H     18.49518556    27.38264004    42.90526177
|318> H     19.63551561    27.36741362    43.99079384
|319> C     19.09233738    24.55537069    44.02965274
|320> C     18.62131839    24.72895188    45.42180829
|321> C     19.92150901    22.43100826    41.38583152
|322> C     21.02045476    22.47876385    40.55815264
|323> H     21.57482386    23.22582738    40.56428826
|324> C     21.29965591    21.41983555    39.72119169
|325> H     22.04007708    21.45264156    39.16096274
|326> C     20.48327140    20.31508956    39.71615733
|327> C     19.40393116    20.25584495    40.58017793
|328> H     18.86965258    19.49535448    40.59889943
|329> C     19.11657892    21.30868268    41.40864342
|330> H     18.38500348    21.26854030    41.98177289
|331> C     21.65484253    19.34682767    37.89985766
|332> H     21.63735684    18.56515864    37.34230322
|333> H     21.49730824    20.12655880    37.36275527
|334> H     22.51426932    19.41783816    38.32242855
|335> H     18.39538066    23.67846732    47.01612452
|336> H     19.03443510    22.96836246    45.91171363
|337> N     20.15043870    26.87421603    40.76047065
|338> N     19.61541343    23.54835064    42.22106192
|339> N     19.25444159    23.33573445    43.50387764
|340> N     18.66135535    23.64289287    46.18797368
|341> O     19.80354548    24.95997820    39.58306166
|342> O     18.19832953    25.81251929    45.78664146
|343> O     20.64750653    19.24356486    38.89083831
|344> C     21.16875807    30.11439821    35.25288997
|345> H     20.47458764    30.73106822    35.53622957
|346> H     20.73787682    29.28178988    35.00447618
|347> C     21.83638855    30.67016254    34.06934536
|348> H     22.27585503    29.94898392    33.59013802
|349> H     21.16639655    31.04943882    33.48001158
|350> C     22.83291639    31.70694332    34.38918402
|351> H     23.29048235    31.97271356    33.57597890
|352> H     22.37932284    32.48764340    34.74489242
|353> C     23.83563842    31.22412738    35.38346846
|354> H     24.48924629    30.67985208    34.91794826
|355> H     24.30290205    31.99347686    35.74389657
|356> C     23.28615136    30.42640140    36.52721022
|357> C     20.44944804    29.52499733    38.19279400
|358> H     20.03755147    30.32826020    37.96687747
|359> C     21.53658130    29.08315431    37.47020721
|360> C     22.12431926    27.88386610    37.80121583
|361> C     19.97011296    28.77862591    39.24985051
|362> H     19.22705322    29.07277266    39.72575407
|363> H     20.31296812    28.47202118    41.97547995
|364> N     22.06622540    29.86150122    36.38672035
|365> O     23.94091717    30.28493411    37.55626316
|366> H     22.83953108    55.25114130    37.29825264
|367> C     21.66192281    54.83587530    38.86881303
|368> H     22.07616212    54.03441192    39.09488688
|369> C     20.59018700    55.28394731    39.60209780
|370> C     20.37888339    55.19328090    42.07160460
|371> H     21.27577734    54.98398684    42.37508161
|372> C     19.91667659    53.21481526    40.64877097
|373> C     19.70491047    52.56893821    41.95392663
|374> C     19.37498228    53.23890069    43.09735375
|375> C     19.37987740    54.72749087    43.11355807
|376> H     18.49518556    55.06704004    42.90526177
|377> H     19.63551561    55.05181362    43.99079384
|378> C     19.09233738    52.23977069    44.02965274
|379> C     18.62131839    52.41335188    45.42180829
|380> C     19.92150901    50.11540826    41.38583152
|381> C     21.02045476    50.16316385    40.55815264
|382> H     21.57482386    50.91022738    40.56428826
|383> C     21.29965591    49.10423555    39.72119169
|384> H     22.04007708    49.13704156    39.16096274
|385> C     20.48327140    47.99948956    39.71615733
|386> C     19.40393116    47.94024495    40.58017793
|387> H     18.86965258    47.17975448    40.59889943
|388> C     19.11657892    48.99308268    41.40864342
|389> H     18.38500348    48.95294030    41.98177289
|390> C     21.65484253    47.03122767    37.89985766
|391> H     21.63735684    46.24955864    37.34230322
|392> H     21.49730824    47.81095880    37.36275527
|393> H     22.51426932    47.10223816    38.32242855
|394> H     18.39538066    51.36286732    47.01612452
|395> H     19.03443510    50.65276246    45.91171363
|396> N     20.15043870    54.55861603    40.76047065
|397> N     19.61541343    51.23275064    42.22106192
|398> N     19.25444159    51.02013445    43.50387764
|399> N     18.66135535    51.32729287    46.18797368
|400> O     19.80354548    52.64437820    39.58306166
|401> O     18.19832953    53.49691929    45.78664146
|402> O     20.64750653    46.92796486    38.89083831
|403> C     21.16875807    57.79879821    35.25288997
|404> H     20.47458764    58.41546822    35.53622957
|405> H     20.73787682    56.96618988    35.00447618
|406> C     21.83638855    58.35456254    34.06934536
|407> H     22.27585503    57.63338392    33.59013802
|408> H     21.16639655    58.73383882    33.48001158
|409> C     22.83291639    59.39134332    34.38918402
|410> H     23.29048235    59.65711356    33.57597890
|411> H     22.37932284    60.17204340    34.74489242
|412> C     23.83563842    58.90852738    35.38346846
|413> H     24.48924629    58.36425208    34.91794826
|414> H     24.30290205    59.67787686    35.74389657
|415> C     23.28615136    58.11080140    36.52721022
|416> C     20.44944804    57.20939733    38.19279400
|417> H     20.03755147    58.01266020    37.96687747
|418> C     21.53658130    56.76755431    37.47020721
|419> C     22.12431926    55.56826610    37.80121583
|420> C     19.97011296    56.46302591    39.24985051
|421> H     19.22705322    56.75717266    39.72575407
|422> H     20.31296812    56.15642118    41.97547995
|423> N     22.06622540    57.54590122    36.38672035
|424> O     23.94091717    57.96933411    37.55626316
|425> C     26.68135773    46.01770179    27.38671554
|426> H     25.98718729    45.40103178    27.67005515
|427> H     26.25047647    46.85031012    27.13830176
|428> C     27.34898821    45.46193746    26.20317094
|429> H     27.78845469    46.18311608    25.72396360
|430> H     26.67899620    45.08266118    25.61383715
|431> C     28.34551605    44.42515668    26.52300959
|432> H     28.80308201    44.15938644    25.70980448
|433> H     27.89192250    43.64445660    26.87871800
|434> C     28.79875101    45.70569860    28.66103580
|435> C     25.96204769    46.60710267    30.32661957
|436> H     25.55015112    45.80383980    30.10070304
|437> C     27.04918095    47.04894569    29.60403279
|438> C     27.63691892    48.24823390    29.93504141
|439> H     28.35213073    48.56535870    29.43207822
|440> C     27.17452246    48.98062470    31.00263860
|441> H     27.58876177    49.78208808    31.22871246
|442> C     25.48271261    47.35347409    31.38367609
|443> H     27.55267673    54.67945844    31.29478832
|444> N     27.57882505    46.27059878    28.52054593
|445> C     26.10278666    48.53255269    31.73592338
|446> H     24.73965288    47.05932734    31.85957964
|447> C     25.89148304    48.62321910    34.20543018
|448> H     26.78837699    48.83251316    34.50890719
|449> H     25.82556778    47.66007882    34.10930553
|450> C     25.42927624    50.60168474    32.78259655
|451> C     25.21751012    51.24756179    34.08775221
|452> C     24.88758193    50.57759931    35.23117933
|453> C     24.89247705    49.08900913    35.24738364
|454> H     24.00778522    48.74945996    35.03908735
|455> H     25.14811527    48.76468638    36.12461942
|456> C     24.60493704    51.57672931    36.16347832
|457> C     24.13391805    51.40314812    37.55563387
|458> C     25.43410866    53.70109174    33.51965709
|459> C     26.53305441    53.65333615    32.69197822
|460> H     27.08742352    52.90627262    32.69811384
|461> C     26.81225556    54.71226445    31.85501726
|462> C     24.62917857    54.82341732    33.54246900
|463> H     23.89760314    54.86355970    34.11559847
|464> H     23.90798032    52.45363268    39.14995010
|465> H     24.54703475    53.16373754    38.04553921
|466> N     25.66303835    49.25788397    32.89429623
|467> N     25.12801309    52.58374936    34.35488749
|468> N     24.76704125    52.79636555    35.63770322
|469> N     24.17395500    52.48920713    38.32179926
|470> O     25.31614513    51.17212180    31.71688724
|471> O     23.71092918    50.31958071    37.92046704
|472> C     27.16744218    56.78527233    30.03368324
|473> H     27.14995649    57.56694136    29.47612879
|474> H     27.00990789    56.00554120    29.49658085
|475> H     28.02686898    56.71426184    30.45625413
|476> O     26.16010619    56.88853514    31.02466389
|477> C     25.99587105    55.81701044    31.84998291
|478> C     24.91653082    55.87625505    32.71400351
|479> H     24.38225224    56.63674552    32.73272501
|480> C     29.34823808    44.90797262    27.51729404
|481> H     30.00184595    45.45224792    27.05177384
|482> H     29.81550170    44.13862314    27.87772215
|483> O     29.45351682    45.84716589    29.69008874
|484> C     25.91324538    25.25440179    43.40885425
|485> H     26.60741581    24.63773178    43.12551465
|486> H     26.34412664    26.08701012    43.65726804
|487> C     25.24561490    24.69863746    44.59239886
|488> H     24.80614842    25.41981608    45.07160620
|489> H     25.91560690    24.31936118    45.18173265
|490> C     24.24908706    23.66185668    44.27256021
|491> H     23.79152110    23.39608644    45.08576532
|492> H     24.70268061    22.88115660    43.91685180
|493> C     23.24636503    24.14467262    43.27827576
|494> H     22.59275716    24.68894792    43.74379596
|495> H     22.77910140    23.37532314    42.91784765
|496> C     23.79585209    24.94239860    42.13453400
|497> C     26.63255542    25.84380267    40.46895023
|498> H     27.04445199    25.04053980    40.69486676
|499> C     25.54542216    26.28564569    41.19153701
|500> C     24.95768419    27.48493390    40.86052839
|501> C     27.11189049    26.59017409    39.41189371
|502> H     27.85495023    26.29602734    38.93599015
|503> H     26.76903533    26.89677882    36.68626427
|504> N     25.01577806    25.50729878    42.27502387
|505> O     23.14108628    25.08386589    41.10548106
|506> H     24.24247238    27.80205870    41.36349158
|507> C     25.42008065    28.21732470    39.79293120
|508> H     25.00584134    29.01878808    39.56685734
|509> C     26.49181645    27.76925269    39.05964642
|510> C     26.70312007    27.85991910    36.59013962
|511> H     25.80622611    28.06921316    36.28666261
|512> C     27.16532686    29.83838474    38.01297325
|513> C     27.37709298    30.48426179    36.70781759
|514> C     27.70702117    29.81429931    35.56439047
|515> C     27.70212606    28.32570913    35.54818615
|516> H     28.58681789    27.98615996    35.75648245
|517> H     27.44648784    28.00138638    34.67095038
|518> C     27.98966607    30.81342931    34.63209148
|519> C     28.46068506    30.63984812    33.23993593
|520> C     27.16049444    32.93779174    37.27591270
|521> C     26.06154869    32.89003615    38.10359158
|522> H     25.50717959    32.14297262    38.09745596
|523> C     25.78234755    33.94896445    38.94055254
|524> H     25.04192637    33.91615844    39.50078148
|525> C     26.59873206    35.05371044    38.94558689
|526> C     27.67807229    35.11295505    38.08156629
|527> H     28.21235087    35.87344552    38.06284479
|528> C     27.96542454    34.06011732    37.25310080
|529> H     28.69699997    34.10025970    36.67997133
|530> C     25.42716093    36.02197233    40.76188656
|531> H     25.44464661    36.80364136    41.31944100
|532> H     25.58469521    35.24224120    41.29898895
|533> H     24.56773413    35.95096184    40.33931567
|534> H     28.68662279    31.69033268    31.64561970
|535> H     28.04756836    32.40043754    32.75003059
|536> N     26.93156476    28.49458397    37.90127357
|537> N     27.46659002    31.82044936    36.44068230
|538> N     27.82756186    32.03306555    35.15786658
|539> N     28.42064811    31.72590713    32.47377054
|540> O     27.27845798    30.40882180    39.07868256
|541> O     28.88367393    29.55628071    32.87510276
|542> O     26.43449692    36.12523514    39.77090591
|543> *
|544> 
|545>                          ****END OF INPUT****
================================================================================

                       ****************************
                       * Single Point Calculation *
                       ****************************

      -----------------------------------------------------------      
     |                   =====================                   |     
     |                           x T B                           |     
     |                   =====================                   |     
     |                         S. Grimme                         |     
     |          Mulliken Center for Theoretical Chemistry        |     
     |                    University of Bonn                     |     
      -----------------------------------------------------------      

   * xtb version 6.7.1pre (5071a88) compiled by 'Marcel@Raven' on 2024-07-23

   xtb is free software: you can redistribute it and/or modify it under
   the terms of the GNU Lesser General Public License as published by
   the Free Software Foundation, either version 3 of the License, or
   (at your option) any later version.
   
   xtb is distributed in the hope that it will be useful,
   but WITHOUT ANY WARRANTY; without even the implied warranty of
   MERCHANTABILITY or FITNESS FOR A PARTICULAR PURPOSE.  See the
   GNU Lesser General Public License for more details.
   
   Cite this work as:
   * C. Bannwarth, E. Caldeweyher, S. Ehlert, A. Hansen, P. Pracht,
     J. Seibert, S. Spicher, S. Grimme, WIREs Comput. Mol. Sci., 2020, 11,
     e01493. DOI: 10.1002/wcms.1493
   
   for GFN2-xTB:
   * C. Bannwarth, S. Ehlert and S. Grimme., J. Chem. Theory Comput., 2019,
     15, 1652-1671. DOI: 10.1021/acs.jctc.8b01176
   for GFN1-xTB:
   * S. Grimme, C. Bannwarth, P. Shushkov, J. Chem. Theory Comput., 2017,
     13, 1989-2009. DOI: 10.1021/acs.jctc.7b00118
   for GFN0-xTB:
   * P. Pracht, E. Caldeweyher, S. Ehlert, S. Grimme, ChemRxiv, 2019, preprint.
     DOI: 10.26434/chemrxiv.8326202.v1
   for GFN-FF:
   * S. Spicher and S. Grimme, Angew. Chem. Int. Ed., 2020, 59, 15665-15673.
     DOI: 10.1002/anie.202004239
   
   for ALPB and GBSA implicit solvation:
   * S. Ehlert, M. Stahn, S. Spicher, S. Grimme, J. Chem. Theory Comput.,
     2021, 17, 4250-4261. DOI: 10.1021/acs.jctc.1c00471
   
   for ddCOSMO and CPCM-X implicit solvation:
   * M. Stahn, S. Ehlert, S. Grimme, J. Phys. Chem. A,
     2023, XX, XXXX-XXXX. DOI: 10.1021/acs.jpca.3c04382
   
   for DFT-D4:
   * E. Caldeweyher, C. Bannwarth and S. Grimme, J. Chem. Phys., 2017,
     147, 034112. DOI: 10.1063/1.4993215
   * E. Caldeweyher, S. Ehlert, A. Hansen, H. Neugebauer, S. Spicher,
     C. Bannwarth and S. Grimme, J. Chem. Phys., 2019, 150, 154122.
     DOI: 10.1063/1.5090222
   * E. Caldeweyher, J.-M. Mewes, S. Ehlert and S. Grimme, Phys. Chem. Chem. Phys.
     2020, 22, 8499-8512. DOI: 10.1039/D0CP00502A
   
   for sTDA-xTB:
   * S. Grimme and C. Bannwarth, J. Chem. Phys., 2016, 145, 054103.
     DOI: 10.1063/1.4959605
   
   in the mass-spec context:
   * V. Asgeirsson, C. Bauer and S. Grimme, Chem. Sci., 2017, 8, 4879.
     DOI: 10.1039/c7sc00601b
   * J. Koopman and S. Grimme, ACS Omega 2019, 4, 12, 15120-15133.
     DOI: 10.1021/acsomega.9b02011
   
   for metadynamics refer to:
   * S. Grimme, J. Chem. Theory Comput., 2019, 155, 2847-2862
     DOI: 10.1021/acs.jctc.9b00143
   
   for SPH calculations refer to:
   * S. Spicher and S. Grimme, J. Chem. Theory Comput., 2021, 17, 1701-1714
     DOI: 10.1021/acs.jctc.0c01306
   
   for ONIOM refer to:
   * C. Plett, A. Katbashev, S. Ehlert, S. Grimme, M. Bursch,
     Phys. Chem. Chem. Phys., 2023, 25, 17860-17868. DOI: 10.1039/D3CP02178E
   
   for DIPRO refer to:
   * J. Kohn, N. Gildemeister, S. Grimme, D. Fazzi, A. Hansen,
     J. Chem. Phys., 2023, just accepted.
   
   for PTB refer to:
   * S. Grimme, M. Mueller, A. Hansen, J. Chem. Phys., 2023, 158, 124111.
     DOI: 10.1063/5.0137838
   
   with help from (in alphabetical order)
   P. Atkinson, C. Bannwarth, F. Bohle, G. Brandenburg, E. Caldeweyher
   M. Checinski, S. Dohm, S. Ehlert, S. Ehrlich, I. Gerasimov, C. Hﾃｶlzer
   A. Katbashev, J. Kohn, J. Koopman, C. Lavigne, S. Lehtola, F. Mﾃ､rz, M. Mﾃｼller,
   F. Musil, H. Neugebauer, J. Pisarek, C. Plett, P. Pracht, F. Pultar,
   J. Seibert, P. Shushkov, S. Spicher, M. Stahn, M. Steiner, T. Strunk,
   J. Stﾃｼckrath, T. Rose, and J. Unsleber
   
 * started run on 2026/10/03 at 10:52:27.507     
   ID    Z sym.   atoms
    1    6 C      1, 4, 7, 10, 13, 14, 16-18, 24, 26, 27, 29-32, 35-38, 40,
                  42, 43, 45, 47, 60, 64, 65, 67, 72, 74, 77-80, 83-86, 88,
                  89, 99, 102, 105, 108, 109, 111, 112, 114, 116, 119, 123,
                  124, 126, 131, 133, 136-139, 142-145, 147, 148, 158, 161,
                  164, 167, 168, 170, 171, 173, 175, 178, 181, 184, 187, 188,
                  190, 191, 193, 195, 198, 200, 203-206, 209-212, 214, 215,
                  225, 230, 231, 233, 237, 241, 242, 244, 249, 251, 254-257,
                  260-263, 265, 266, 276, 279, 282, 285, 286, 288, 289, 291,
                  293, 297, 299, 300, 302-305, 308-311, 313, 315, 316, 318,
                  320, 333, 336, 339, 342, 345, 346, 348-350, 356, 358, 359,
                  361-364, 367-370, 372, 374, 375, 377, 379, 392, 395, 398,
                  401, 404, 405, 407-409, 414, 417, 420, 423, 424, 426, 427,
                  429, 431, 434, 436, 439-442, 445-448, 450, 451, 461, 466,
                  467, 469, 473, 476, 479, 482, 485, 486, 488-490, 496, 498,
                  499, 501-504, 507-510, 512, 514, 515, 517, 519
    2    1 H      2, 3, 5, 6, 8, 9, 11, 12, 15, 19, 20, 23, 25, 28, 33, 34,
                  39, 41, 44, 46, 48-52, 61, 62, 66, 68-70, 73, 75, 76, 81,
                  82, 87, 90-92, 100, 101, 103, 104, 106, 107, 110, 113, 115,
                  117, 120, 121, 125, 127-129, 132, 134, 135, 140, 141, 146,
                  149-151, 159, 160, 162, 163, 165, 166, 169, 172, 174, 176,
                  179, 180, 182, 183, 185, 186, 189, 192, 194, 196, 199, 201,
                  202, 207, 208, 213, 216-218, 226-228, 232, 234, 235, 238,
                  239, 243, 245-247, 250, 252, 253, 258, 259, 264, 267-269,
                  277, 278, 280, 281, 283, 284, 287, 290, 292, 294, 296, 298,
                  301, 306, 307, 312, 314, 317, 319, 321-325, 334, 335, 337,
                  338, 340, 341, 343, 344, 347, 351, 352, 355, 357, 360, 365,
                  366, 371, 373, 376, 378, 380-384, 393, 394, 396, 397, 399,
                  400, 402, 403, 406, 410, 411, 415, 416, 418, 419, 421, 422,
                  425, 428, 430, 432, 435, 437, 438, 443, 444, 449, 452-454,
                  462-464, 468, 470, 471, 474, 475, 477, 478, 480, 481, 483,
                  484, 487, 491, 492, 495, 497, 500, 505, 506, 511, 513, 516,
                  518, 520-524
    3    7 N      21, 53-56, 93-96, 118, 152-155, 177, 197, 219-222, 270-273,
                  295, 326-329, 353, 385-388, 412, 433, 455-458, 493, 525-528
    4    8 O      22, 57-59, 63, 71, 97, 98, 122, 130, 156, 157, 223, 224,
                  229, 236, 240, 248, 274, 275, 330-332, 354, 389-391, 413,
                  459, 460, 465, 472, 494, 529-531

           -------------------------------------------------
          |                Calculation Setup                |
           -------------------------------------------------

          program call               : C:\ORCA_6.1.1\xtb-6.7.1pre\xtb.exe  HS_shell_XTB2_SP_XTB.xyz --grad -c 0 -u 0 -P 1 --namespace HS_shell_XTB2_SP --input HS_shell_XTB2_SP_XTB.input.tmp --acc 1.000000      
          calculation namespace      : HS_shell_XTB2_SP
          coordinate file            : HS_shell_XTB2_SP_XTB.xyz
          omp threads                :                     1


molecular fragmentation (1/2 indicates fragments):
111111111111111111111111111111111111111111111111111111111112222222222222
222222222222222222222222222222222222222222222222222222222222222222222222
222222222222222222222222222222222222222222222222222222222222222222222222
222222222222222222222222222222222222222222222222222222222222222222222222
222222222222222222222222222222222222222222222222222222222222222222222222
222222222222222222222222222222222222222222222222222222222222222222222222
222222222222222222222222222222222222222222222222222222222222222222222222
222222222222222222222222222
# atoms in fragment 1/2:    59   472
 fragment masses (1/2) :      459.50     3675.98
CMA distance (Bohr)    :   8.925
constraining FC (au)   :  0.0500

           -------------------------------------------------
          |                 G F N 2 - x T B                 |
           -------------------------------------------------

        Reference                      10.1021/acs.jctc.8b01176
      * Hamiltonian:
        H0-scaling (s, p, d)           1.850000    2.230000    2.230000
        zeta-weighting                 0.500000
      * Dispersion:
        s8                             2.700000
        a1                             0.520000
        a2                             5.000000
        s9                             5.000000
      * Repulsion:
        kExp                           1.500000    1.000000
        rExp                           1.000000
      * Coulomb:
        alpha                          2.000000
        third order                    shell-resolved
        anisotropic                    true
        a3                             3.000000
        a5                             4.000000
        cn-shift                       1.200000
        cn-exp                         4.000000
        max-rad                        5.000000


          ...................................................
          :                      SETUP                      :
          :.................................................:
          :  # basis functions                1449          :
          :  # atomic orbitals                1449          :
          :  # shells                          837          :
          :  # electrons                      1566          :
          :  max. iterations                   250          :
          :  Hamiltonian                  GFN2-xTB          :
          :  restarted?                      false          :
          :  GBSA solvation                  false          :
          :  PC potential                    false          :
          :  electronic temp.          300.0000000     K    :
          :  accuracy                    1.0000000          :
          :  -> integral cutoff          0.2500000E+02      :
          :  -> integral neglect         0.1000000E-07      :
          :  -> SCF convergence          0.1000000E-05 Eh   :
          :  -> wf. convergence          0.1000000E-03 e    :
          :  Broyden damping             0.4000000          :
          :  net charge                          0          :
          :  unpaired electrons                  0          :
          ...................................................

 iter      E             dE          RMSdq      gap      omega  full diag
   1   -888.8295957 -0.888830E+03  0.412E+00    2.79       0.0  T
   2   -891.1264923 -0.229690E+01  0.242E+00    2.11       1.0  T
   3   -891.3521057 -0.225613E+00  0.129E+00    2.51       1.0  T
   4   -891.3854310 -0.333252E-01  0.438E-01    2.18       1.0  T
   5   -891.4586856 -0.732546E-01  0.950E-02    2.24       1.0  T
   6   -891.4598380 -0.115241E-02  0.539E-02    2.23       1.0  T
   7   -891.4605606 -0.722636E-03  0.223E-02    2.25       1.0  T
   8   -891.4605937 -0.331472E-04  0.886E-03    2.25       1.0  T
   9   -891.4606107 -0.169746E-04  0.394E-03    2.25       1.1  T
  10   -891.4606123 -0.153441E-05  0.164E-03    2.25       2.6  T
  11   -891.4606129 -0.678272E-06  0.533E-04    2.25       8.1  T
  12   -891.4606130 -0.398444E-07  0.269E-04    2.25      16.1  T

   *** convergence criteria satisfied after 12 iterations ***

         #    Occupation            Energy/Eh            Energy/eV
      -------------------------------------------------------------
         1        2.0000           -0.7261585             -19.7598
       ...           ...                  ...                  ...
       777        2.0000           -0.3712344             -10.1018
       778        2.0000           -0.3690274             -10.0417
       779        2.0000           -0.3676277             -10.0037
       780        2.0000           -0.3665765              -9.9751
       781        2.0000           -0.3663059              -9.9677
       782        2.0000           -0.3662726              -9.9668
       783        2.0000           -0.3555571              -9.6752 (HOMO)
       784                         -0.2730185              -7.4292 (LUMO)
       785                         -0.2710646              -7.3760
       786                         -0.2707018              -7.3662
       787                         -0.2663492              -7.2477
       788                         -0.2646583              -7.2017
       ...                                ...                  ...
      1449                          0.9056511              24.6440
      -------------------------------------------------------------
                  HL-Gap            0.0825386 Eh            2.2460 eV
             Fermi-level           -0.3142878 Eh           -8.5522 eV

 SCC (total)                   0 d,  0 h,  0 min, 14.018 sec
 SCC setup                      ...        0 min,  0.025 sec (  0.178%)
 Dispersion                     ...        0 min,  0.064 sec (  0.457%)
 classical contributions        ...        0 min,  0.008 sec (  0.057%)
 integral evaluation            ...        0 min,  0.504 sec (  3.595%)
 iterations                     ...        0 min, 10.389 sec ( 74.112%)
 molecular gradient             ...        0 min,  2.901 sec ( 20.695%)
 printout                       ...        0 min,  0.127 sec (  0.906%)

         :::::::::::::::::::::::::::::::::::::::::::::::::::::
         ::                     SUMMARY                     ::
         :::::::::::::::::::::::::::::::::::::::::::::::::::::
         :: total energy            -871.702233496904 Eh    ::
         :: gradient norm              2.798093090748 Eh/a0 ::
         :: HOMO-LUMO gap              2.245990448470 eV    ::
         ::.................................................::
         :: SCC energy              -891.424977507261 Eh    ::
         :: -> isotropic ES            1.318095013792 Eh    ::
         :: -> anisotropic ES         -0.003589281633 Eh    ::
         :: -> anisotropic XC          0.165996196361 Eh    ::
         :: -> dispersion             -0.810066765456 Eh    ::
         :: repulsion energy          19.722744010358 Eh    ::
         :: add. restraining           0.000000000000 Eh    ::
         :: total charge               0.000000000000 e     ::
         :::::::::::::::::::::::::::::::::::::::::::::::::::::


Property printout bound to 'properties.out'

           -------------------------------------------------
          | TOTAL ENERGY             -871.702233496904 Eh   |
          | GRADIENT NORM               2.798093090748 Eh/ﾎｱ |
          | HOMO-LUMO GAP               2.245990448470 eV   |
           -------------------------------------------------

------------------------------------------------------------------------
 * finished run on 2026/10/03 at 10:52:42.082     
------------------------------------------------------------------------
 total:
 * wall-time:     0 d,  0 h,  0 min, 14.573 sec
 *  cpu-time:     0 d,  0 h,  0 min, 14.531 sec
 * ratio c/w:     0.997 speedup
 SCF:
 * wall-time:     0 d,  0 h,  0 min, 14.031 sec
 *  cpu-time:     0 d,  0 h,  0 min, 14.016 sec
 * ratio c/w:     0.999 speedup


-------------------------   --------------------
FINAL SINGLE POINT ENERGY      -871.702233496900
-------------------------   --------------------


-------------
DIPOLE MOMENT
-------------
                                X             Y             Z
Total Dipole Moment    :     -0.72200       0.04100       1.96600
                        -----------------------------------------
Magnitude (a.u.)       :      2.09478
Magnitude (Debye)      :      5.32452


--------------------------------
SUGGESTED CITATIONS FOR THIS RUN
--------------------------------

Below you find a list of papers that are relevant to this ORCA run
We neither can nor want to force you to cite these papers, but we appreciate if you do
You receive ORCA, which is the product of decades of hard work by many enthusiastic individuals, for free
The only thing we kindly ask in return is that you cite our papers,
We deeply appreciate it, if you show your appreciation for ORCA by not just citing the generic ORCA reference.

Please note that relegating all ORCA citations to the supporting information does *not* help us.
SI sections are not indexed - citations you put there will not count into any citation statistics
But we need these citations in order to attract the funding resources that allow us to do what we are doing

Therefore, if you are a happy ORCA user, please consider citing a few of the papers listed below in the main body of your paper

In addition to the list printed below, the program has created the file HS_shell_XTB2_SP.bibtex that contains the list in bibtex format
You can import this file easily into all common literature databanks and citation aid programs

It goes without saying that in many instances, there are alternative algorithms to achieve similar
results as the ones you have gotten from ORCA. It is, of course, also the case that in some instances
ORCA just re-implements algorithms worked out by others. We are fully aware of that and we are also
fully appreciative of our colleagues work. Hence this citation list should not be read as indicating
that the listed papers, which are focused on our own work, are the only ones worth citing. It simply
meant to make it easier for users to cite ORCA specific papers. It is not a substitute for doing your
own literature research and citing the relevant literature in a scientifically appropriate manner.

List of essential papers. We consider these as the minimum necessary citations

  1. Bannwarth, C.; Ehlert, S.; Grimme, S.
     GFN2-xTB窶尿n Accurate and Broadly Parametrized Self-Consistent Tight-Binding Quantum Chemical Method with Multipole Electrostatics and Density-Dependent Dispersion Contributions
     J. Chem. Theory Comput. 2019 15(3), 1652-1671
     doi.org/10.1021/acs.jctc.8b01176
  2. Neese, F.
     Software update: the ORCA program system, version 6.0
     WIRES Comput. Molec. Sci. 2025 15(1), e70019
     doi.org/10.1002/wcms.70019

List of papers to cite with high priority. The work reported in these papers was absolutely
necessary for this run to complete.
Our perspective: the developers of density functionals and basis sets usually get cited in chemistry papers
Good! But without the algorithms to do something with them, the functionals or basis sets would not do anything.
Hence, in our opinion, the algorithm design and method developments papers are equally worthy of getting cited

  1. Bannwarth, C.; Caldeweyher, E.; Ehlert, S.; Hansen, A.; Pracht, P.; Seibert, J.; Spicher, S.; Grimme, S.
     Extended tight-binding quantum chemistry methods
     WIRES Comput. Molec. Sci. 2020 11(2), e1493
     doi.org/10.1002/wcms.1493

List of suggested additional citations. These are papers that are important in the 'surrounding' of 
of this run, or papers that preceded the highly important papers. If you like your results we are grateful for a citation.

  1. Neese, F.
     The ORCA program system
     WIRES Comput. Molec. Sci. 2012 2(1), 73-78
     doi.org/10.1002/wcms.81
  2. Neese, F.
     Software update: the ORCA program system, version 4.0
     WIRES Comput. Molec. Sci. 2018 8(1), 1-6
     doi.org/10.1002/wcms.1327
  3. Neese, F.; Wennmohs, F.; Becker, U.; Riplinger, C.
     The ORCA quantum chemistry program package
     J. Chem. Phys. 2020 152(22), 224108
     doi.org/10.1063/5.0004608
  4. Neese, F.
     Software update: The ORCA program system窶之ersion 5.0
     WIRES Comput. Molec. Sci. 2022 12(1), e1606
     doi.org/10.1002/wcms.1606

List of optional additional citations

  1. Neese, F.
     Approximate second-order SCF convergence for spin unrestricted wavefunctions
     Chem. Phys. Lett. 2000 325(1-3), 93-98
     doi.org/10.1016/s0009-2614(00)00662-x

Timings for individual modules:

Sum of individual times          ...       14.632 sec (=   0.244 min)
XTB module                       ...       14.632 sec (=   0.244 min) 100.0 %
                             ****ORCA TERMINATED NORMALLY****
TOTAL RUN TIME: 0 days 0 hours 0 minutes 14 seconds 992 msec
