119
Apixaban + 10 H2O initial cluster based on Water SMD-Opt geometry | solvent swapped to methanol
C        23.909639      -17.523076       -0.125305
C        24.185610      -18.609454        0.907810
C        25.492177      -19.348737        0.738855
N        26.468457      -18.779887       -0.016031
C        26.288891      -17.549653       -0.826497
C        25.164148      -16.680454       -0.300758
C        27.723591      -19.451640       -0.168973
C        28.541139      -19.672259        0.939838
C        29.766960      -20.301838        0.788339
C        30.197355      -20.700357       -0.479837
C        29.384890      -20.470950       -1.589252
C        28.148354      -19.853535       -1.432001
N        31.446987      -21.369914       -0.630533
C        31.521834      -22.478681       -1.617640
C        32.527679      -23.549832       -1.210835
C        33.803947      -22.879813       -0.841212
C        33.792301      -21.580581       -0.367639
C        32.591600      -20.765992       -0.166016
O        25.663076      -20.441230        1.312701
O        32.604904      -19.659692        0.388351
C        35.159974      -23.243777       -0.838801
N        35.929437      -22.227585       -0.400272
N        35.091890      -21.229910       -0.110563
C        35.615301      -20.000364        0.405022
C        35.750355      -24.536382       -1.234810
N        37.091852      -24.599241       -1.266444
O        35.018137      -25.501438       -1.518090
C        35.376140      -19.650022        1.732302
C        35.906556      -18.474730        2.231353
C        36.683515      -17.649982        1.406914
C        36.930854      -18.011170        0.080373
C        36.389732      -19.194534       -0.415687
O        37.158384      -16.512667        1.993860
C        37.964952      -15.637441        1.188328
H        23.637549      -17.980164       -1.085740
H        23.061038      -16.911195        0.197721
H        24.225193      -18.169734        1.914868
H        23.396129      -19.367228        0.930599
H        27.242453      -17.011715       -0.807805
H        26.085502      -17.833990       -1.867852
H        25.452602      -16.234096        0.659928
H        25.004741      -15.863676       -1.012849
H        28.210751      -19.359682        1.925413
H        30.389777      -20.490631        1.656254
H        29.708760      -20.770736       -2.580780
H        27.518160      -19.688095       -2.300509
H        30.523039      -22.912820       -1.692773
H        31.796485      -22.070868       -2.599846
H        32.150726      -24.133800       -0.360242
H        32.658915      -24.239417       -2.048386
H        37.656746      -23.801181       -1.018387
H        37.538876      -25.471748       -1.506305
H        34.775652      -20.295374        2.365706
H        35.733350      -18.181913        3.262328
H        37.530225      -17.389753       -0.573896
H        36.569000      -19.481864       -1.447364
H        37.398570      -15.265484        0.326884
H        38.232333      -14.803457        1.838506
H        38.874813      -16.145562        0.848684
O        37.107609      -19.864593       11.393805
H        37.410790      -19.084541       10.929229
C        37.924852      -19.923589       12.565783
H        37.716913      -18.882398       12.319241
H        36.986722      -20.447234       12.749646
H        38.447104      -20.396101       11.733867
O        24.806514      -26.029944        8.837672
H        25.550396      -26.630937        8.796700
C        23.855713      -26.693603        9.674591
H        24.097635      -25.719665       10.100054
H        23.432994      -26.559674        8.678865
H        24.762276      -27.294886        9.606017
O        32.504306       -8.838590        6.281538
H        32.839463       -9.427276        6.957814
C        31.323754       -8.270331        6.854495
H        31.624134       -7.685397        5.985172
H        31.121995       -9.296980        6.548905
H        32.126274       -8.262381        7.592059
O        38.954719      -29.540159        3.725404
H        38.647186      -29.014154        2.987180
C        38.927020      -28.644203        4.839583
H        38.934068      -28.071463        3.912211
H        38.044411      -29.283324        4.864600
H        39.823724      -29.261722        4.891463
O        19.014432      -17.649590        1.169270
H        19.656210      -17.920094        1.825913
C        18.139784      -18.773414        1.039234
H        18.362329      -18.605568        2.092990
H        17.658360      -17.887772        0.624543
H        19.066299      -18.969065        0.499429
O        42.266347      -13.039235       -1.386863
H        42.338502      -12.982463       -0.434077
C        41.457782      -11.917769       -1.752154
H        41.663514      -12.521336       -2.636168
H        40.929591      -12.522399       -1.014904
H        42.397436      -11.565611       -1.326555
O        28.371553      -31.638573       -3.942997
H        28.407162      -30.916918       -3.315162
C        27.322126      -32.481584       -3.460365
H        27.589142      -31.756589       -2.691480
H        26.984690      -31.955630       -4.353454
H        28.193594      -33.089045       -3.704563
O        26.435148      -10.041973       -6.499131
H        25.885577       -9.394205       -6.057998
C        25.672152      -10.440827       -7.640907
H        25.866289      -11.309340       -7.011546
H        25.113712       -9.697769       -7.071600
H        26.618865      -10.010918       -7.968033
O        40.110039      -22.995583       -9.055265
H        40.090806      -23.949609       -8.979791
C        41.422927      -22.701127       -9.539540
H        41.444455      -22.776049       -8.452331
H        41.082990      -23.646803       -9.961725
H        40.739181      -21.905294       -9.834907
O        26.387148      -21.990230      -11.611398
H        27.107276      -21.760042      -12.198476
C        25.843511      -23.191254      -12.165384
H        25.981834      -23.316025      -11.091419
H        25.158820      -22.363308      -12.349242
H        26.804848      -22.977662      -12.632620
