      -----------------------------------------------------------      
     |                   =====================                   |     
     |                           x T B                           |     
     |                   =====================                   |     
     |                         S. Grimme                         |     
     |          Mulliken Center for Theoretical Chemistry        |     
     |                    University of Bonn                     |     
      -----------------------------------------------------------      

   * xtb version 6.7.1pre (5071a88) compiled by 'Marcel@Raven' on 2024-07-23

   xtb is free software: you can redistribute it and/or modify it under
   the terms of the GNU Lesser General Public License as published by
   the Free Software Foundation, either version 3 of the License, or
   (at your option) any later version.
   
   xtb is distributed in the hope that it will be useful,
   but WITHOUT ANY WARRANTY; without even the implied warranty of
   MERCHANTABILITY or FITNESS FOR A PARTICULAR PURPOSE.  See the
   GNU Lesser General Public License for more details.
   
   Cite this work as:
   * C. Bannwarth, E. Caldeweyher, S. Ehlert, A. Hansen, P. Pracht,
     J. Seibert, S. Spicher, S. Grimme, WIREs Comput. Mol. Sci., 2020, 11,
     e01493. DOI: 10.1002/wcms.1493
   
   for GFN2-xTB:
   * C. Bannwarth, S. Ehlert and S. Grimme., J. Chem. Theory Comput., 2019,
     15, 1652-1671. DOI: 10.1021/acs.jctc.8b01176
   for GFN1-xTB:
   * S. Grimme, C. Bannwarth, P. Shushkov, J. Chem. Theory Comput., 2017,
     13, 1989-2009. DOI: 10.1021/acs.jctc.7b00118
   for GFN0-xTB:
   * P. Pracht, E. Caldeweyher, S. Ehlert, S. Grimme, ChemRxiv, 2019, preprint.
     DOI: 10.26434/chemrxiv.8326202.v1
   for GFN-FF:
   * S. Spicher and S. Grimme, Angew. Chem. Int. Ed., 2020, 59, 15665-15673.
     DOI: 10.1002/anie.202004239
   
   for ALPB and GBSA implicit solvation:
   * S. Ehlert, M. Stahn, S. Spicher, S. Grimme, J. Chem. Theory Comput.,
     2021, 17, 4250-4261. DOI: 10.1021/acs.jctc.1c00471
   
   for ddCOSMO and CPCM-X implicit solvation:
   * M. Stahn, S. Ehlert, S. Grimme, J. Phys. Chem. A,
     2023, XX, XXXX-XXXX. DOI: 10.1021/acs.jpca.3c04382
   
   for DFT-D4:
   * E. Caldeweyher, C. Bannwarth and S. Grimme, J. Chem. Phys., 2017,
     147, 034112. DOI: 10.1063/1.4993215
   * E. Caldeweyher, S. Ehlert, A. Hansen, H. Neugebauer, S. Spicher,
     C. Bannwarth and S. Grimme, J. Chem. Phys., 2019, 150, 154122.
     DOI: 10.1063/1.5090222
   * E. Caldeweyher, J.-M. Mewes, S. Ehlert and S. Grimme, Phys. Chem. Chem. Phys.
     2020, 22, 8499-8512. DOI: 10.1039/D0CP00502A
   
   for sTDA-xTB:
   * S. Grimme and C. Bannwarth, J. Chem. Phys., 2016, 145, 054103.
     DOI: 10.1063/1.4959605
   
   in the mass-spec context:
   * V. Asgeirsson, C. Bauer and S. Grimme, Chem. Sci., 2017, 8, 4879.
     DOI: 10.1039/c7sc00601b
   * J. Koopman and S. Grimme, ACS Omega 2019, 4, 12, 15120-15133.
     DOI: 10.1021/acsomega.9b02011
   
   for metadynamics refer to:
   * S. Grimme, J. Chem. Theory Comput., 2019, 155, 2847-2862
     DOI: 10.1021/acs.jctc.9b00143
   
   for SPH calculations refer to:
   * S. Spicher and S. Grimme, J. Chem. Theory Comput., 2021, 17, 1701-1714
     DOI: 10.1021/acs.jctc.0c01306
   
   for ONIOM refer to:
   * C. Plett, A. Katbashev, S. Ehlert, S. Grimme, M. Bursch,
     Phys. Chem. Chem. Phys., 2023, 25, 17860-17868. DOI: 10.1039/D3CP02178E
   
   for DIPRO refer to:
   * J. Kohn, N. Gildemeister, S. Grimme, D. Fazzi, A. Hansen,
     J. Chem. Phys., 2023, just accepted.
   
   for PTB refer to:
   * S. Grimme, M. Mueller, A. Hansen, J. Chem. Phys., 2023, 158, 124111.
     DOI: 10.1063/5.0137838
   
   with help from (in alphabetical order)
   P. Atkinson, C. Bannwarth, F. Bohle, G. Brandenburg, E. Caldeweyher
   M. Checinski, S. Dohm, S. Ehlert, S. Ehrlich, I. Gerasimov, C. Hölzer
   A. Katbashev, J. Kohn, J. Koopman, C. Lavigne, S. Lehtola, F. März, M. Müller,
   F. Musil, H. Neugebauer, J. Pisarek, C. Plett, P. Pracht, F. Pultar,
   J. Seibert, P. Shushkov, S. Spicher, M. Stahn, M. Steiner, T. Strunk,
   J. Stückrath, T. Rose, and J. Unsleber
   
 * started run on 2026/10/03 at 18:55:57.643     
   ID    Z sym.   atoms
    1    6 C      1, 4, 7, 10, 13, 14, 16-18, 24, 26, 27, 29-32, 35-38, 40,
                  42, 43, 45, 47, 60, 64, 65, 67, 72, 74, 77-80, 83-86, 88,
                  89, 99, 102, 105, 108, 109, 111, 112, 114, 116
    2    1 H      2, 3, 5, 6, 8, 9, 11, 12, 15, 19, 20, 23, 25, 28, 33, 34,
                  39, 41, 44, 46, 48-52, 61, 62, 66, 68-70, 73, 75, 76, 81,
                  82, 87, 90-92, 100, 101, 103, 104, 106, 107, 110, 113, 115,
                  117
    3    7 N      21, 53-56, 93-96, 118
    4    8 O      22, 57-59, 63, 71, 97, 98

           -------------------------------------------------
          |                Calculation Setup                |
           -------------------------------------------------

          program call               : C:\ORCA_6.1.1\xTB_bigstack\xtb.exe d_D9_D1a.xyz -c 0 -u 0 -P 1 --acc 1.0 --namespace d_D9_D1a
          calculation namespace      : d_D9_D1a
          coordinate file            : d_D9_D1a.xyz
          omp threads                :                     1


molecular fragmentation (1/2 indicates fragments):
111111111111111111111111111111111111111111111111111111111112222222222222
2222222222222222222222222222222222222222222222
# atoms in fragment 1/2:    59    59
 fragment masses (1/2) :      459.50      459.50
CMA distance (Bohr)    :  19.169
constraining FC (au)   :  0.0500

           -------------------------------------------------
          |                 G F N 2 - x T B                 |
           -------------------------------------------------

        Reference                      10.1021/acs.jctc.8b01176
      * Hamiltonian:
        H0-scaling (s, p, d)           1.850000    2.230000    2.230000
        zeta-weighting                 0.500000
      * Dispersion:
        s8                             2.700000
        a1                             0.520000
        a2                             5.000000
        s9                             5.000000
      * Repulsion:
        kExp                           1.500000    1.000000
        rExp                           1.000000
      * Coulomb:
        alpha                          2.000000
        third order                    shell-resolved
        anisotropic                    true
        a3                             3.000000
        a5                             4.000000
        cn-shift                       1.200000
        cn-exp                         4.000000
        max-rad                        5.000000


          ...................................................
          :                      SETUP                      :
          :.................................................:
          :  # basis functions                 322          :
          :  # atomic orbitals                 322          :
          :  # shells                          186          :
          :  # electrons                       348          :
          :  max. iterations                   250          :
          :  Hamiltonian                  GFN2-xTB          :
          :  restarted?                      false          :
          :  GBSA solvation                  false          :
          :  PC potential                    false          :
          :  electronic temp.          300.0000000     K    :
          :  accuracy                    1.0000000          :
          :  -> integral cutoff          0.2500000E+02      :
          :  -> integral neglect         0.1000000E-07      :
          :  -> SCF convergence          0.1000000E-05 Eh   :
          :  -> wf. convergence          0.1000000E-03 e    :
          :  Broyden damping             0.4000000          :
          :  net charge                          0          :
          :  unpaired electrons                  0          :
          ...................................................

 iter      E             dE          RMSdq      gap      omega  full diag
   1   -197.4574049 -0.197457E+03  0.413E+00    2.88       0.0  T
   2   -197.9812439 -0.523839E+00  0.242E+00    2.63       1.0  T
   3   -198.0307020 -0.494581E-01  0.129E+00    2.82       1.0  T
   4   -198.0375662 -0.686420E-02  0.437E-01    2.61       1.0  T
   5   -198.0532836 -0.157174E-01  0.930E-02    2.63       1.0  T
   6   -198.0535063 -0.222631E-03  0.533E-02    2.63       1.0  T
   7   -198.0536699 -0.163664E-03  0.221E-02    2.65       1.0  T
   8   -198.0536769 -0.701527E-05  0.832E-03    2.64       1.1  T
   9   -198.0536799 -0.292127E-05  0.365E-03    2.64       2.5  T
  10   -198.0536801 -0.202227E-06  0.144E-03    2.64       6.4  T
  11   -198.0536802 -0.116929E-06  0.530E-04    2.64      17.4  T
  12   -198.0536802 -0.860641E-08  0.253E-04    2.64      36.3  T

   *** convergence criteria satisfied after 12 iterations ***

         #    Occupation            Energy/Eh            Energy/eV
      -------------------------------------------------------------
         1        2.0000           -0.7267383             -19.7756
       ...           ...                  ...                  ...
       168        2.0000           -0.3862009             -10.5091
       169        2.0000           -0.3853695             -10.4864
       170        2.0000           -0.3833600             -10.4318
       171        2.0000           -0.3824112             -10.4059
       172        2.0000           -0.3808836             -10.3644
       173        2.0000           -0.3784391             -10.2979
       174        2.0000           -0.3694223             -10.0525 (HOMO)
       175                         -0.2722968              -7.4096 (LUMO)
       176                         -0.2615609              -7.1174
       177                         -0.2447407              -6.6597
       178                         -0.2368545              -6.4451
       179                         -0.2366963              -6.4408
       ...                                ...                  ...
       322                          0.8862534              24.1162
      -------------------------------------------------------------
                  HL-Gap            0.0971254 Eh            2.6429 eV
             Fermi-level           -0.3208595 Eh           -8.7310 eV

 SCC (total)                   0 d,  0 h,  0 min,  0.399 sec
 SCC setup                      ...        0 min,  0.001 sec (  0.251%)
 Dispersion                     ...        0 min,  0.002 sec (  0.501%)
 classical contributions        ...        0 min,  0.001 sec (  0.251%)
 integral evaluation            ...        0 min,  0.032 sec (  8.020%)
 iterations                     ...        0 min,  0.215 sec ( 53.885%)
 molecular gradient             ...        0 min,  0.146 sec ( 36.591%)
 printout                       ...        0 min,  0.002 sec (  0.501%)

         :::::::::::::::::::::::::::::::::::::::::::::::::::::
         ::                     SUMMARY                     ::
         :::::::::::::::::::::::::::::::::::::::::::::::::::::
         :: total energy            -193.671009968021 Eh    ::
         :: gradient norm              1.318777055425 Eh/a0 ::
         :: HOMO-LUMO gap              2.642917756070 eV    ::
         ::.................................................::
         :: SCC energy              -198.053830768550 Eh    ::
         :: -> isotropic ES            0.295972806896 Eh    ::
         :: -> anisotropic ES          0.003990271753 Eh    ::
         :: -> anisotropic XC          0.036939605795 Eh    ::
         :: -> dispersion             -0.148348514540 Eh    ::
         :: repulsion energy           4.382820800529 Eh    ::
         :: add. restraining           0.000000000000 Eh    ::
         :: total charge              -0.000000000000 e     ::
         :::::::::::::::::::::::::::::::::::::::::::::::::::::

           -------------------------------------------------
          |                Property Printout                |
           -------------------------------------------------

    * Orbital Energies and Occupations

         #    Occupation            Energy/Eh            Energy/eV
      -------------------------------------------------------------
         1        2.0000           -0.7267383             -19.7756
       ...           ...                  ...                  ...
       162        2.0000           -0.4022135             -10.9448
       163        2.0000           -0.4011441             -10.9157
       164        2.0000           -0.3947330             -10.7412
       165        2.0000           -0.3921338             -10.6705
       166        2.0000           -0.3918302             -10.6622
       167        2.0000           -0.3862726             -10.5110
       168        2.0000           -0.3862009             -10.5091
       169        2.0000           -0.3853695             -10.4864
       170        2.0000           -0.3833600             -10.4318
       171        2.0000           -0.3824112             -10.4059
       172        2.0000           -0.3808836             -10.3644
       173        2.0000           -0.3784391             -10.2979
       174        2.0000           -0.3694223             -10.0525 (HOMO)
       175                         -0.2722968              -7.4096 (LUMO)
       176                         -0.2615609              -7.1174
       177                         -0.2447407              -6.6597
       178                         -0.2368545              -6.4451
       179                         -0.2366963              -6.4408
       180                         -0.2364953              -6.4354
       181                         -0.2330342              -6.3412
       182                         -0.2320465              -6.3143
       183                         -0.2260524              -6.1512
       184                         -0.2187683              -5.9530
       185                         -0.2179522              -5.9308
       ...                                ...                  ...
       322                          0.8862534              24.1162
      -------------------------------------------------------------
                  HL-Gap            0.0971254 Eh            2.6429 eV
             Fermi-level           -0.3208595 Eh           -8.7310 eV

     #   Z          covCN         q      C6AA      α(0)
     1   6 C        3.762    -0.011    20.819     6.504
     2   1 H        0.930     0.057     2.231     2.336
     3   1 H        0.930     0.061     2.189     2.314
     4   6 C        3.827    -0.083    22.059     6.683
     5   1 H        0.930     0.055     2.253     2.347
     6   1 H        0.930     0.058     2.227     2.334
     7   6 C        3.825    -0.080    22.001     6.675
     8   1 H        0.930     0.054     2.275     2.359
     9   1 H        0.930     0.050     2.316     2.380
    10   6 C        3.826    -0.108    22.537     6.755
    11   1 H        0.930     0.076     2.021     2.223
    12   1 H        0.930     0.076     2.018     2.221
    13   6 C        2.766     0.268    22.475     7.764
    14   6 C        2.935    -0.056    29.385     8.890
    15   1 H        0.930     0.065     2.138     2.286
    16   6 C        2.930     0.069    26.448     8.434
    17   6 C        2.938    -0.045    29.106     8.848
    18   6 C        2.935    -0.057    29.404     8.893
    19   1 H        0.930     0.069     2.092     2.262
    20   1 H        0.930     0.069     2.098     2.265
    21   7 N        2.739    -0.112    23.454     7.193
    22   8 O        0.859    -0.470    23.121     6.447
    23   1 H        0.930     0.077     2.011     2.217
    24   6 C        2.936    -0.047    29.164     8.857
    25   1 H        0.930     0.072     2.068     2.248
    26   6 C        2.928     0.070    26.428     8.431
    27   6 C        3.764    -0.012    20.835     6.506
    28   1 H        0.930     0.056     2.240     2.340
    29   6 C        2.767     0.268    22.477     7.764
    30   6 C        3.096    -0.010    28.146     8.695
    31   6 C        3.070    -0.017    28.360     8.732
    32   6 C        3.821    -0.082    22.056     6.683
    33   1 H        0.930     0.077     2.012     2.218
    34   1 H        0.930     0.083     1.946     2.181
    35   6 C        3.172     0.025    27.074     8.500
    36   6 C        2.748     0.277    22.304     7.733
    37   6 C        2.920     0.042    27.048     8.529
    38   6 C        2.934    -0.040    28.997     8.831
    39   1 H        0.930     0.068     2.104     2.268
    40   6 C        2.932    -0.077    29.930     8.972
    41   1 H        0.930     0.094     1.838     2.120
    42   6 C        2.878     0.145    24.854     8.173
    43   6 C        2.936    -0.069    29.715     8.940
    44   1 H        0.930     0.075     2.028     2.227
    45   6 C        2.932    -0.049    29.208     8.863
    46   1 H        0.930     0.076     2.018     2.221
    47   6 C        3.664     0.010    20.679     6.522
    48   1 H        0.930     0.068     2.105     2.269
    49   1 H        0.930     0.064     2.150     2.293
    50   1 H        0.930     0.062     2.172     2.305
    51   1 H        0.862     0.205     1.081     1.629
    52   1 H        0.863     0.211     1.049     1.604
    53   7 N        2.745    -0.122    23.650     7.223
    54   7 N        3.019     0.090    19.686     6.590
    55   7 N        1.991    -0.242    27.119     7.723
    56   7 N        2.645    -0.284    27.338     7.765
    57   8 O        0.858    -0.440    22.501     6.360
    58   8 O        0.860    -0.451    22.730     6.392
    59   8 O        1.705    -0.283    18.699     5.838
    60   6 C        3.826    -0.107    22.517     6.752
    61   1 H        0.930     0.074     2.039     2.233
    62   1 H        0.930     0.077     2.014     2.219
    63   8 O        0.859    -0.467    23.071     6.440
    64   6 C        2.878     0.144    24.857     8.173
    65   6 C        2.936    -0.069    29.710     8.939
    66   1 H        0.930     0.076     2.024     2.225
    67   6 C        3.664     0.012    20.632     6.515
    68   1 H        0.930     0.073     2.053     2.241
    69   1 H        0.930     0.059     2.204     2.322
    70   1 H        0.930     0.057     2.229     2.335
    71   8 O        1.705    -0.282    18.674     5.835
    72   6 C        2.928     0.070    26.444     8.433
    73   1 H        0.930     0.069     2.096     2.264
    74   6 C        3.764    -0.013    20.845     6.508
    75   1 H        0.930     0.059     2.208     2.324
    76   1 H        0.930     0.070     2.086     2.258
    77   6 C        2.767     0.269    22.466     7.763
    78   6 C        3.096    -0.008    28.112     8.690
    79   6 C        3.070    -0.016    28.339     8.729
    80   6 C        3.821    -0.083    22.064     6.685
    81   1 H        0.930     0.075     2.027     2.226
    82   1 H        0.930     0.082     1.956     2.187
    83   6 C        3.172     0.027    27.036     8.493
    84   6 C        2.748     0.280    22.260     7.725
    85   6 C        2.920     0.047    26.949     8.513
    86   6 C        2.934    -0.041    29.010     8.833
    87   1 H        0.930     0.071     2.075     2.252
    88   6 C        2.932    -0.078    29.942     8.974
    89   6 C        2.932    -0.046    29.144     8.854
    90   1 H        0.930     0.080     1.982     2.202
    91   1 H        0.862     0.206     1.078     1.626
    92   1 H        0.863     0.215     1.030     1.590
    93   7 N        2.745    -0.120    23.600     7.215
    94   7 N        3.019     0.089    19.691     6.591
    95   7 N        1.991    -0.239    27.041     7.712
    96   7 N        2.645    -0.281    27.264     7.755
    97   8 O        0.858    -0.443    22.569     6.369
    98   8 O        0.860    -0.457    22.852     6.409
    99   6 C        3.762    -0.011    20.812     6.503
   100   1 H        0.930     0.057     2.230     2.335
   101   1 H        0.930     0.060     2.196     2.317
   102   6 C        3.827    -0.083    22.058     6.683
   103   1 H        0.930     0.055     2.255     2.348
   104   1 H        0.930     0.058     2.227     2.334
   105   6 C        3.825    -0.080    21.998     6.674
   106   1 H        0.930     0.053     2.283     2.363
   107   1 H        0.930     0.051     2.310     2.376
   108   6 C        2.766     0.268    22.473     7.764
   109   6 C        2.935    -0.056    29.381     8.890
   110   1 H        0.930     0.066     2.132     2.283
   111   6 C        2.930     0.070    26.437     8.432
   112   6 C        2.938    -0.042    29.043     8.838
   113   1 H        0.930     0.075     2.029     2.227
   114   6 C        2.936    -0.044    29.083     8.844
   115   1 H        0.930     0.072     2.062     2.246
   116   6 C        2.935    -0.057    29.410     8.894
   117   1 H        0.930     0.069     2.093     2.262
   118   7 N        2.739    -0.113    23.465     7.194

 Mol. C6AA /au·bohr⁶  :     167525.162898
 Mol. C8AA /au·bohr⁸  :    4001133.397533
 Mol. α(0) /au        :        634.389807


Wiberg/Mayer (AO) data.
largest (>0.10) Wiberg bond orders for each atom

 ---------------------------------------------------------------------------
     #   Z sym  total        # sym  WBO       # sym  WBO       # sym  WBO
 ---------------------------------------------------------------------------
     1   6 C    3.970 --     4 C    1.007     3 H    0.974     2 H    0.972
                            21 N    0.960
     2   1 H    0.997 --     1 C    0.972
     3   1 H    0.996 --     1 C    0.974
     4   6 C    3.992 --     1 C    1.007     7 C    1.006     5 H    0.978
                             6 H    0.971
     5   1 H    0.997 --     4 C    0.978
     6   1 H    0.996 --     4 C    0.971
     7   6 C    3.994 --     4 C    1.006    10 C    1.002     9 H    0.981
                             8 H    0.976
     8   1 H    0.997 --     7 C    0.976
     9   1 H    0.997 --     7 C    0.981
    10   6 C    3.990 --     7 C    1.002    13 C    0.977    12 H    0.964
                            11 H    0.953
    11   1 H    0.994 --    10 C    0.953
    12   1 H    0.994 --    10 C    0.964
    13   6 C    3.951 --    22 O    1.656    21 N    1.239    10 C    0.977
    14   6 C    3.994 --    18 C    1.442    16 C    1.405    15 H    0.974
                            24 C    0.109
    15   1 H    0.995 --    14 C    0.974
    16   6 C    3.968 --    14 C    1.405    17 C    1.405    21 N    0.991
    17   6 C    3.993 --    24 C    1.441    16 C    1.405    23 H    0.972
                            18 C    0.110
    18   6 C    3.993 --    14 C    1.442    26 C    1.401    19 H    0.974
                            17 C    0.110
    19   1 H    0.995 --    18 C    0.974
    20   1 H    0.995 --    27 C    0.974
    21   7 N    3.481 --    13 C    1.239    16 C    0.991     1 C    0.960
                            22 O    0.189
    22   8 O    1.966 --    13 C    1.656    21 N    0.189
    23   1 H    0.994 --    17 C    0.972
    24   6 C    3.992 --    17 C    1.441    26 C    1.403    25 H    0.971
                            14 C    0.109
    25   1 H    0.995 --    24 C    0.971
    26   6 C    3.966 --    24 C    1.403    18 C    1.401    53 N    0.998
    27   6 C    3.968 --    32 C    0.998    28 H    0.975    20 H    0.974
                            53 N    0.961
    28   1 H    0.997 --    27 C    0.975
    29   6 C    3.957 --    57 O    1.659    53 N    1.197    30 C    1.011
    30   6 C    3.952 --    31 C    1.428    54 N    1.222    29 C    1.011
                            55 N    0.132
    31   6 C    3.980 --    30 C    1.428    35 C    1.324    32 C    1.012
    32   6 C    3.989 --    31 C    1.012    27 C    0.998    34 H    0.963
                            33 H    0.961
    33   1 H    0.994 --    32 C    0.961
    34   1 H    0.992 --    32 C    0.963
    35   6 C    3.968 --    55 N    1.423    31 C    1.324    36 C    1.001
    36   6 C    3.951 --    58 O    1.658    56 N    1.252    35 C    1.001
    37   6 C    3.953 --    38 C    1.399    45 C    1.371    54 N    1.003
    38   6 C    3.992 --    40 C    1.438    37 C    1.399    39 H    0.974
                            43 C    0.106
    39   1 H    0.995 --    38 C    0.974
    40   6 C    3.988 --    38 C    1.438    42 C    1.379    41 H    0.964
                            45 C    0.100
    41   1 H    0.991 --    40 C    0.964
    42   6 C    3.933 --    40 C    1.379    43 C    1.345    59 O    1.071
    43   6 C    3.991 --    45 C    1.475    42 C    1.345    44 H    0.973
                            38 C    0.106
    44   1 H    0.994 --    43 C    0.973
    45   6 C    3.990 --    43 C    1.475    37 C    1.371    46 H    0.973
                            40 C    0.100
    46   1 H    0.994 --    45 C    0.973
    47   6 C    3.935 --    48 H    0.980    49 H    0.980    50 H    0.980
                            59 O    0.966
    48   1 H    0.995 --    47 C    0.980
    49   1 H    0.996 --    47 C    0.980
    50   1 H    0.996 --    47 C    0.980
    51   1 H    0.958 --    56 N    0.942
    52   1 H    0.955 --    56 N    0.942
    53   7 N    3.467 --    29 C    1.197    26 C    0.998    27 C    0.961
                            57 O    0.187
    54   7 N    3.694 --    55 N    1.223    30 C    1.222    37 C    1.003
    55   7 N    2.966 --    35 C    1.423    54 N    1.223    30 C    0.132
    56   7 N    3.368 --    36 C    1.252    52 H    0.942    51 H    0.942
                            58 O    0.192
    57   8 O    2.004 --    29 C    1.659    53 N    0.187
    58   8 O    1.970 --    36 C    1.658    56 N    0.192
    59   8 O    2.205 --    42 C    1.071    47 C    0.966
    60   6 C    3.990 --   105 C    1.002   108 C    0.976    62 H    0.964
                            61 H    0.954
    61   1 H    0.994 --    60 C    0.954
    62   1 H    0.994 --    60 C    0.964
    63   8 O    1.968 --   108 C    1.658   118 N    0.189
    64   6 C    3.933 --    88 C    1.380    65 C    1.344    71 O    1.070
    65   6 C    3.991 --    89 C    1.476    64 C    1.344    66 H    0.971
                            86 C    0.108
    66   1 H    0.994 --    65 C    0.971
    67   6 C    3.936 --    69 H    0.981    70 H    0.981    68 H    0.979
                            71 O    0.967
    68   1 H    0.994 --    67 C    0.979
    69   1 H    0.996 --    67 C    0.981
    70   1 H    0.996 --    67 C    0.981
    71   8 O    2.206 --    64 C    1.070    67 C    0.967
    72   6 C    3.965 --   114 C    1.404   116 C    1.402    93 N    0.996
    73   1 H    0.995 --   116 C    0.974
    74   6 C    3.968 --    80 C    0.998    75 H    0.974    76 H    0.974
                            93 N    0.962
    75   1 H    0.996 --    74 C    0.974
    76   1 H    0.995 --    74 C    0.974
    77   6 C    3.957 --    97 O    1.655    93 N    1.202    78 C    1.011
    78   6 C    3.952 --    79 C    1.430    94 N    1.220    77 C    1.011
                            95 N    0.134
    79   6 C    3.980 --    78 C    1.430    83 C    1.322    80 C    1.012
    80   6 C    3.990 --    79 C    1.012    74 C    0.998    82 H    0.963
                            81 H    0.961
    81   1 H    0.994 --    80 C    0.961
    82   1 H    0.992 --    80 C    0.963
    83   6 C    3.968 --    95 N    1.426    79 C    1.322    84 C    1.001
    84   6 C    3.951 --    98 O    1.650    96 N    1.259    83 C    1.001
    85   6 C    3.956 --    86 C    1.402    89 C    1.372    94 N    1.005
    86   6 C    3.991 --    88 C    1.436    85 C    1.402    87 H    0.973
                            65 C    0.108
    87   1 H    0.995 --    86 C    0.973
    88   6 C    3.991 --    86 C    1.436    64 C    1.380   117 H    0.971
                            89 C    0.100
    89   6 C    3.990 --    65 C    1.476    85 C    1.372    90 H    0.972
                            88 C    0.100
    90   1 H    0.993 --    89 C    0.972
    91   1 H    0.957 --    96 N    0.940
    92   1 H    0.954 --    96 N    0.940
    93   7 N    3.472 --    77 C    1.202    72 C    0.996    74 C    0.962
                            97 O    0.189
    94   7 N    3.692 --    95 N    1.220    78 C    1.220    85 C    1.005
    95   7 N    2.967 --    83 C    1.426    94 N    1.220    78 C    0.134
    96   7 N    3.375 --    84 C    1.259    91 H    0.940    92 H    0.940
                            98 O    0.192
    97   8 O    2.001 --    77 C    1.655    93 N    0.189
    98   8 O    1.965 --    84 C    1.650    96 N    0.192
    99   6 C    3.971 --   102 C    1.007   101 H    0.974   100 H    0.972
                           118 N    0.960
   100   1 H    0.997 --    99 C    0.972
   101   1 H    0.996 --    99 C    0.974
   102   6 C    3.992 --    99 C    1.007   105 C    1.006   103 H    0.979
                           104 H    0.971
   103   1 H    0.997 --   102 C    0.979
   104   1 H    0.996 --   102 C    0.971
   105   6 C    3.994 --   102 C    1.006    60 C    1.002   107 H    0.981
                           106 H    0.977
   106   1 H    0.997 --   105 C    0.977
   107   1 H    0.997 --   105 C    0.981
   108   6 C    3.951 --    63 O    1.658   118 N    1.237    60 C    0.976
   109   6 C    3.994 --   116 C    1.442   111 C    1.406   110 H    0.974
                           114 C    0.109
   110   1 H    0.995 --   109 C    0.974
   111   6 C    3.969 --   109 C    1.406   112 C    1.405   118 N    0.991
   112   6 C    3.993 --   114 C    1.441   111 C    1.405   113 H    0.973
                           116 C    0.110
   113   1 H    0.994 --   112 C    0.973
   114   6 C    3.992 --   112 C    1.441    72 C    1.404   115 H    0.973
                           109 C    0.109
   115   1 H    0.995 --   114 C    0.973
   116   6 C    3.993 --   109 C    1.442    72 C    1.402    73 H    0.974
                           112 C    0.110
   117   1 H    0.995 --    88 C    0.971
   118   7 N    3.480 --   108 C    1.237   111 C    0.991    99 C    0.960
                            63 O    0.189
 ---------------------------------------------------------------------------

Topologies differ in total number of bonds
Writing topology from bond orders to xtbtopo.mol

molecular dipole:
                 x           y           z       tot (Debye)
 q only:       -0.848       0.103       3.333
   full:       -1.202       0.097       3.716       9.930
molecular quadrupole (traceless):
                xx          xy          yy          xz          yz          zz
 q only:     -405.046     -61.472    -197.050     131.423     296.733     602.096
  q+dip:     -468.717     -97.588    -213.024     112.001     336.261     681.741
   full:     -465.663     -97.590    -216.940     117.005     336.264     682.603


           -------------------------------------------------
          | TOTAL ENERGY             -193.671009968021 Eh   |
          | GRADIENT NORM               1.318777055425 Eh/α |
          | HOMO-LUMO GAP               2.642917756070 eV   |
           -------------------------------------------------

------------------------------------------------------------------------
 * finished run on 2026/10/03 at 18:55:58.180     
------------------------------------------------------------------------
 total:
 * wall-time:     0 d,  0 h,  0 min,  0.535 sec
 *  cpu-time:     0 d,  0 h,  0 min,  0.422 sec
 * ratio c/w:     0.789 speedup
 SCF:
 * wall-time:     0 d,  0 h,  0 min,  0.399 sec
 *  cpu-time:     0 d,  0 h,  0 min,  0.391 sec
 * ratio c/w:     0.979 speedup

normal termination of xtb
