10
Coordinates from ORCA-job DMSO_SMD_Opt_Freq_KeepDens E -553.126675691575
  C      19.595040    -20.514800      1.093300
  S      20.337260    -21.181140      2.621950
  C      20.009340    -19.684070      3.613610
  O      21.752460    -20.719360      2.236610
  H      19.794210    -21.216750      0.257350
  H      18.496360    -20.430370      1.224900
  H      20.009060    -19.516980      0.833500
  H      20.404710    -18.768560      3.123560
  H      18.915140    -19.573620      3.762220
  H      20.487790    -19.796140      4.608450
10
Coordinates from ORCA-job DMSO_SMD_Opt_Freq_KeepDens E -553.145735611382
  C      19.574636    -20.508231      1.065851
  S      20.382712    -21.115869      2.592409
  C      19.990190    -19.662897      3.635476
  O      21.868402    -20.821982      2.256113
  H      19.772524    -21.221483      0.254392
  H      18.483070    -20.436277      1.207269
  H      19.970793    -19.519987      0.806049
  H      20.382173    -18.756495      3.160165
  H      18.901890    -19.564142      3.785412
  H      20.474980    -19.794427      4.612314
10
Coordinates from ORCA-job DMSO_SMD_Opt_Freq_KeepDens E -553.149572001104
  C      19.564177    -20.494342      1.071216
  S      20.417289    -21.084244      2.575736
  C      19.976567    -19.655151      3.626340
  O      21.920677    -20.890550      2.272497
  H      19.762897    -21.211553      0.270970
  H      18.482521    -20.433044      1.235019
  H      19.959204    -19.506816      0.815580
  H      20.361153    -18.750128      3.146006
  H      18.893314    -19.582420      3.766732
  H      20.463571    -19.793541      4.595354
10
Coordinates from ORCA-job DMSO_SMD_Opt_Freq_KeepDens E -553.150032682238
  C      19.561484    -20.488178      1.069247
  S      20.426576    -21.071930      2.570176
  C      19.975428    -19.648830      3.625719
  O      21.929683    -20.922485      2.280880
  H      19.764496    -21.208464      0.271970
  H      18.482420    -20.435476      1.246724
  H      19.954895    -19.500190      0.809477
  H      20.349692    -18.739086      3.144733
  H      18.891147    -19.596145      3.763441
  H      20.465549    -19.791006      4.593083
10
Coordinates from ORCA-job DMSO_SMD_Opt_Freq_KeepDens E -553.150141069036
  C      19.561628    -20.484719      1.066413
  S      20.427209    -21.068419      2.569227
  C      19.977488    -19.643989      3.626508
  O      21.927894    -20.940529      2.285515
  H      19.768395    -21.205514      0.270300
  H      18.483621    -20.439161      1.251729
  H      19.951701    -19.496515      0.801647
  H      20.341538    -18.729312      3.147014
  H      18.892298    -19.606084      3.764421
  H      20.469599    -19.787549      4.592676
10
Coordinates from ORCA-job DMSO_SMD_Opt_Freq_KeepDens E -553.150171563980
  C      19.562738    -20.482490      1.064951
  S      20.425484    -21.068911      2.569990
  C      19.979522    -19.641098      3.626468
  O      21.924985    -20.950703      2.288033
  H      19.771352    -21.202998      0.268957
  H      18.485151    -20.441452      1.254315
  H      19.949750    -19.494119      0.796658
  H      20.335505    -18.722713      3.148451
  H      18.893880    -19.612926      3.765662
  H      20.473004    -19.784379      4.591965
10
Coordinates from ORCA-job DMSO_SMD_Opt_Freq_KeepDens E -553.150175872680
  C      19.563509    -20.481700      1.064926
  S      20.424395    -21.070044      2.570670
  C      19.980170    -19.640454      3.625928
  O      21.924246    -20.953664      2.288686
  H      19.772048    -21.201988      0.268691
  H      18.485944    -20.441717      1.255022
  H      19.949318    -19.493197      0.795804
  H      20.332992    -18.720778      3.148328
  H      18.894476    -19.615349      3.766153
  H      20.474272    -19.782900      4.591243
10
Coordinates from ORCA-job DMSO_SMD_Opt_Freq_KeepDens E -553.150176284828
  C      19.564320    -20.480816      1.064887
  S      20.422969    -21.070941      2.571287
  C      19.980411    -19.639940      3.625367
  O      21.923644    -20.957922      2.289873
  H      19.773342    -21.200516      0.268249
  H      18.486627    -20.441928      1.254636
  H      19.949071    -19.491859      0.796310
  H      20.329080    -18.719353      3.146708
  H      18.894964    -19.618061      3.768409
  H      20.476941    -19.780455      4.589724
10
Coordinates from ORCA-job DMSO_SMD_Opt_Freq_KeepDens E -553.150176755479
  C      19.564183    -20.481124      1.064957
  S      20.423418    -21.070636      2.571075
  C      19.980240    -19.640235      3.625456
  O      21.924190    -20.956426      2.289455
  H      19.772500    -21.201232      0.268516
  H      18.486495    -20.441393      1.254632
  H      19.949444    -19.492380      0.796246
  H      20.330039    -18.719846      3.147151
  H      18.894753    -19.617339      3.767869
  H      20.476107    -19.781180      4.590093
