10
Coordinates from ORCA-job DMSO_SMD_Opt_Freq_KeepDens E -553.150176755479
  C          19.56418279434293    -20.48112413685874      1.06495653262288
  S          20.42341837329474    -21.07063561847366      2.57107509957426
  C          19.98024031390939    -19.64023510903205      3.62545567649884
  O          21.92419032512491    -20.95642576017156      2.28945463033946
  H          19.77250044403354    -21.20123153729319      0.26851573421513
  H          18.48649516444616    -20.44139300728252      1.25463232975890
  H          19.94944403986816    -19.49237975621255      0.79624622827628
  H          20.33003851698468    -18.71984612177285      3.14715132865830
  H          18.89475347613366    -19.61733922919012      3.76786929909430
  H          20.47610655186177    -19.78117972371266      4.59009314096165
