[Molden Format]
[Title]
 Molden file created by orca_2mkl for BaseName=DMSO_SMD_Opt_Freq_KeepDens

[Atoms] AU
C    1   6         36.9709475153       -38.7037155335         2.0124761912 
S    2  16         38.5946674440       -39.8177307866         4.8586278079 
C    3   6         37.7571822832       -37.1146655619         6.8511183393 
O    4   8         41.4307154225       -39.6019054326         4.3264422474 
H    5   1         37.3646108221       -40.0645213073         0.5074212003 
H    6   1         34.9344130369       -38.6286345796         2.3709115020 
H    7   1         37.6989857593       -36.8352594376         1.5046873066 
H    8   1         38.4182050892       -35.3753824393         5.9472541132 
H    9   1         35.7059094378       -37.0713986194         7.1202410837 
H   10   1         38.6942336720       -37.3810122837         8.6740189656 
[GTO]
  1 0
s   6 1.0 
    13575.3496820000         0.5435905310
     2035.2333680000         1.0145543947
      463.2256235900         1.7315731970
      131.2001959800         2.6910376290
       42.8530158910         3.6044547126
       15.5841857660         3.7025556986
s   2 1.0 
        6.2067138508         1.8383540830
        2.5764896527         0.5447575605
s   1 1.0 
        0.5769633942         0.4718145038
s   1 1.0 
        0.2297283136         0.2364944676
s   1 1.0 
        0.0951644400         0.1221141848
p   4 1.0 
       34.6972322440         1.3596651510
        7.9582622826         1.4512589489
        2.3780826883         1.2709231421
        0.8143320818         0.8025721189
p   1 1.0 
        0.2888754725         0.3018758868
p   1 1.0 
        0.1005682367         0.0807265016
d   1 1.0 
        0.8000000000         1.9292013661

  2 0
s   7 1.0 
    60700.9281040000         1.4436857584
     9102.6106854000         2.6903416502
     2071.4166009000         4.5576134312
      586.0247682100         6.9181168905
      190.5539502100         8.6810242351
       67.6303842600         7.5175825950
       25.1273069050         2.7909007925
s   3 1.0 
      112.5746301000         2.4743724259
       34.7955542170         4.4305159183
        6.5115556215        -3.5107205047
s   2 1.0 
        3.2399032261         1.1617183740
        1.5477160881         0.3432559790
s   1 1.0 
        0.4054103011         0.3621022112
s   1 1.0 
        0.1455065106         0.1679082022
p   6 1.0 
      564.3671602700        10.0238683780
      133.4262437900        13.1134996307
       42.4682711890        14.3355504685
       15.6165275800        11.7273717972
        6.1093988469         6.1422342220
        2.4404160198         1.5636310111
p   1 1.0 
        0.8388220130         1.1442669693
p   1 1.0 
        0.3128874690         0.3335610257
p   1 1.0 
        0.1077010900         0.0879458217
d   1 1.0 
        0.6000000000         1.1660972515
d   1 1.0 
        0.2000000000         0.1705189210

  3 0
s   6 1.0 
    13575.3496820000         0.5435905310
     2035.2333680000         1.0145543947
      463.2256235900         1.7315731970
      131.2001959800         2.6910376290
       42.8530158910         3.6044547126
       15.5841857660         3.7025556986
s   2 1.0 
        6.2067138508         1.8383540830
        2.5764896527         0.5447575605
s   1 1.0 
        0.5769633942         0.4718145038
s   1 1.0 
        0.2297283136         0.2364944676
s   1 1.0 
        0.0951644400         0.1221141848
p   4 1.0 
       34.6972322440         1.3596651510
        7.9582622826         1.4512589489
        2.3780826883         1.2709231421
        0.8143320818         0.8025721189
p   1 1.0 
        0.2888754725         0.3018758868
p   1 1.0 
        0.1005682367         0.0807265016
d   1 1.0 
        0.8000000000         1.9292013661

  4 0
s   6 1.0 
    27032.3826310000         0.8598581479
     4052.3871392000         1.6055305368
      922.3272271000         2.7458778516
      261.2407098900         4.2987674426
       85.3546413510         5.8797663284
       31.0350352450         6.3163983216
s   2 1.0 
       12.2608607280         2.9812147522
        4.9987076005         0.9419559635
s   1 1.0 
        1.1703108158         0.8019291610
s   1 1.0 
        0.4647474099         0.4011648062
s   1 1.0 
        0.1850453636         0.2010799406
p   4 1.0 
       63.2749548010         3.0572017144
       14.6270493790         3.3844839414
        4.4501223456         2.9474262132
        1.5275799647         1.7118271494
p   1 1.0 
        0.5293511794         0.6436057926
p   1 1.0 
        0.1747842127         0.1610897254
d   1 1.0 
        1.2000000000         3.9222679946
d   1 1.0 
        0.2000000000         0.1705189210

  5 0
s   3 1.0 
       18.7354104400         0.2149136950
        2.8256504000         0.3645880840
        0.6401347000         0.4150643621
s   1 1.0 
        0.1756074600         0.1933380407
p   1 1.0 
        1.0000000000         1.4254109407

  6 0
s   3 1.0 
       18.7354104400         0.2149136950
        2.8256504000         0.3645880840
        0.6401347000         0.4150643621
s   1 1.0 
        0.1756074600         0.1933380407
p   1 1.0 
        1.0000000000         1.4254109407

  7 0
s   3 1.0 
       18.7354104400         0.2149136950
        2.8256504000         0.3645880840
        0.6401347000         0.4150643621
s   1 1.0 
        0.1756074600         0.1933380407
p   1 1.0 
        1.0000000000         1.4254109407

  8 0
s   3 1.0 
       18.7354104400         0.2149136950
        2.8256504000         0.3645880840
        0.6401347000         0.4150643621
s   1 1.0 
        0.1756074600         0.1933380407
p   1 1.0 
        1.0000000000         1.4254109407

  9 0
s   3 1.0 
       18.7354104400         0.2149136950
        2.8256504000         0.3645880840
        0.6401347000         0.4150643621
s   1 1.0 
        0.1756074600         0.1933380407
p   1 1.0 
        1.0000000000         1.4254109407

 10 0
s   3 1.0 
       18.7354104400         0.2149136950
        2.8256504000         0.3645880840
        0.6401347000         0.4150643621
s   1 1.0 
        0.1756074600         0.1933380407
p   1 1.0 
        1.0000000000         1.4254109407

[5D]
[7F]
[9G]
[MO]
 Sym=     1a
 Ene= -8.86546998173941E+01
 Spin= Alpha
 Occup= 2.000000
  1       0.000000140933
  2      -0.000002249105
  3      -0.000033764000
  4       0.000324459150
  5       0.001104816654
  6       0.000024138026
  7      -0.000015075495
  8       0.000033499448
  9      -0.000025697454
 10       0.000012438865
 11       0.000006302150
 12       0.000276358165
 13      -0.000122456304
 14       0.000329896172
 15      -0.000030164471
 16      -0.000054638156
 17       0.000032684819
 18      -0.000005902423
 19       0.000022094300
 20       0.999172995078
 21      -0.032215781708
 22      -0.011021767305
 23       0.004586431887
 24      -0.004042849109
 25       0.000027461922
 26       0.000091157142
 27      -0.000034399140
 28      -0.000116371714
 29      -0.000057499813
 30       0.000037808381
 31       0.000485474379
 32       0.000119281798
 33      -0.000118144082
 34      -0.000125581022
 35      -0.000799627269
 36       0.000283105477
 37      -0.000073832609
 38      -0.000047409383
 39       0.000007970665
 40       0.000157504094
 41       0.000000438040
 42      -0.000025573229
 43      -0.000036160361
 44      -0.000047582770
 45      -0.000032675260
 46       0.000093921170
 47       0.000000141421
 48      -0.000002250665
 49      -0.000033763529
 50       0.000324396108
 51       0.001105248651
 52       0.000014833550
 53      -0.000033879474
 54      -0.000023755732
 55      -0.000027440795
 56       0.000008905505
 57      -0.000004672288
 58       0.000180645965
 59      -0.000316141352
 60      -0.000260187848
 61       0.000000684374
 62       0.000021913064
 63      -0.000052194120
 64       0.000035828048
 65       0.000031587607
 66       0.000009866646
 67      -0.000037382925
 68       0.000291693185
 69      -0.000494997676
 70       0.000527957723
 71      -0.000096989560
 72      -0.000007613238
 73       0.000018277644
 74       0.000392403877
 75       0.000025276348
 76      -0.000072131227
 77      -0.000086423745
 78       0.000021446139
 79       0.000006969159
 80       0.000083260918
 81       0.000056592910
 82       0.000005962724
 83      -0.000148126801
 84      -0.000022001358
 85       0.000104967692
 86       0.000075613426
 87      -0.000002416931
 88      -0.000214553416
 89      -0.000028135742
 90      -0.000025360954
 91      -0.000219622288
 92       0.000014602914
 93      -0.000020432030
 94      -0.000005450262
 95      -0.000041525051
 96      -0.000193250691
 97      -0.000026618566
 98      -0.000001910346
 99       0.000005737544
100      -0.000026810384
101      -0.000206157087
102       0.000022571156
103       0.000016534962
104       0.000007599160
105      -0.000026845880
106      -0.000206484163
107       0.000017754892
108       0.000006963206
109      -0.000021821315
110      -0.000041539808
111      -0.000193143513
112      -0.000026824789
113      -0.000002364866
114       0.000004388022
115      -0.000025313941
116      -0.000219757829
117       0.000017432663
118      -0.000014783865
119       0.000011769990
 Sym=     1a
 Ene= -1.89046296472852E+01
 Spin= Alpha
 Occup= 2.000000
  1      -0.000001459376
  2       0.000007635771
  3      -0.000124902104
  4       0.000692681597
  5      -0.001636923806
  6       0.000079845535
  7      -0.000000671756
  8      -0.000068860401
  9      -0.000203264078
 10      -0.000026524795
 11       0.000560597112
 12       0.000009414548
 13       0.000399855732
 14      -0.000301825172
 15       0.000051721653
 16       0.000008896873
 17      -0.000028566705
 18       0.000020882173
 19       0.000003844406
 20       0.000049470132
 21      -0.000120954938
 22      -0.000363905670
 23       0.000827557733
 24      -0.008813267884
 25      -0.000133077780
 26      -0.000021022604
 27       0.000028532560
 28       0.000661899560
 29       0.000125334804
 30      -0.000148699781
 31      -0.002000740156
 32      -0.000293088766
 33       0.000421425470
 34      -0.004595565801
 35      -0.000596162856
 36       0.000942525667
 37      -0.000299520325
 38      -0.000208692440
 39      -0.000046467859
 40       0.000483312736
 41       0.000114802281
 42       0.000627126117
 43       0.000402940905
 44       0.000097196683
 45      -0.000966378173
 46      -0.000161343832
 47      -0.000001467800
 48       0.000007678994
 49      -0.000125401379
 50       0.000694188969
 51      -0.001636752264
 52       0.000095834869
 53       0.000031872009
 54       0.000030104070
 55      -0.000351541447
 56      -0.000327631656
 57      -0.000354422884
 58       0.000057635557
 59       0.000496751576
 60      -0.000002581702
 61      -0.000002639935
 62      -0.000002093136
 63       0.000059472506
 64      -0.000012383066
 65       0.000018016285
 66       0.435537985990
 67       0.639288330436
 68       0.033737312329
 69      -0.021826954331
 70       0.018232102694
 71      -0.001620766809
 72      -0.000088080641
 73       0.000292572414
 74       0.001844299781
 75       0.000065423110
 76      -0.000321455913
 77      -0.006514825170
 78      -0.000220636195
 79       0.001132187248
 80       0.000056155269
 81       0.000039432788
 82      -0.000005732407
 83      -0.000123231557
 84      -0.000008660173
 85      -0.000740459371
 86      -0.000471559556
 87      -0.000005977108
 88       0.001381053565
 89       0.000077734541
 90       0.000028229129
 91       0.000768482823
 92       0.000050601669
 93       0.000047845728
 94       0.000073972671
 95      -0.000124379926
 96       0.000087101066
 97      -0.000049167087
 98       0.000000904377
 99      -0.000028118058
100       0.000045192699
101       0.000376909159
102       0.000056718588
103      -0.000058570841
104       0.000021674397
105       0.000044739603
106       0.000377959782
107       0.000053501070
108      -0.000065336345
109       0.000001061837
110      -0.000124226305
111       0.000086646188
112      -0.000038891137
113       0.000021685180
114       0.000035100147
115       0.000028466578
116       0.000767302870
117       0.000022386397
118      -0.000008868215
119      -0.000098636150
 Sym=     1a
 Ene= -1.00462137990553E+01
 Spin= Alpha
 Occup= 2.000000
  1       0.462514864340
  2       0.602128746994
  3       0.033585718802
  4      -0.020240410761
  5       0.007807555857
  6       0.000303192027
  7      -0.000205425097
  8       0.000583758433
  9      -0.001482854920
 10       0.000732573695
 11      -0.002559007725
 12       0.000500165193
 13       0.000502458246
 14       0.001968642517
 15      -0.000401162796
 16      -0.000515477061
 17       0.000343128689
 18      -0.000068861445
 19       0.000189833123
 20      -0.000006900481
 21       0.000011245729
 22       0.000031845948
 23      -0.000677323712
 24       0.002297998305
 25      -0.000007180221
 26       0.000000202246
 27      -0.000024858119
 28       0.000060603443
 29      -0.000005903348
 30       0.000209409912
 31      -0.000485035730
 32       0.000125956076
 33      -0.001311996224
 34      -0.000466517065
 35       0.001242242527
 36      -0.000265374371
 37       0.000059960242
 38       0.000101318209
 39      -0.000036063460
 40       0.000098589866
 41       0.000033113952
 42       0.000560487102
 43       0.000717452276
 44      -0.000712656422
 45       0.000010020285
 46      -0.000404491273
 47      -0.068059815794
 48      -0.088571103739
 49      -0.005153527056
 50       0.003656118537
 51      -0.003439889776
 52      -0.000009766703
 53       0.000090379865
 54       0.000105895621
 55       0.000086242414
 56      -0.000267816609
 57      -0.000216562005
 58       0.000347708835
 59       0.000471969107
 60       0.001692425607
 61      -0.000079960791
 62      -0.000041956002
 63       0.000031543587
 64      -0.000048338018
 65      -0.000043905128
 66      -0.000000167062
 67       0.000003281314
 68      -0.000035988563
 69       0.000256843848
 70      -0.000531657728
 71      -0.000021737296
 72      -0.000013470510
 73      -0.000007929045
 74       0.000078531331
 75       0.000060285580
 76       0.000044629877
 77       0.000177294371
 78      -0.000228346818
 79       0.000199287666
 80       0.000017166789
 81      -0.000067933636
 82       0.000006195874
 83      -0.000033636798
 84       0.000006316251
 85      -0.000126866270
 86       0.000108871056
 87       0.000127513407
 88       0.000054903862
 89       0.000039024712
 90      -0.000294172853
 91       0.000536200015
 92       0.000210411057
 93      -0.000577352679
 94      -0.000509269260
 95      -0.000175046772
 96      -0.000537005785
 97      -0.000779773536
 98      -0.000013940911
 99       0.000235170931
100      -0.000080311885
101      -0.000689081651
102       0.000337910454
103       0.000686879681
104      -0.000118064291
105      -0.000019022100
106       0.000153751967
107      -0.000035276797
108      -0.000008194619
109       0.000104410089
110      -0.000007162268
111       0.000223577141
112       0.000077401262
113       0.000036526928
114       0.000038728904
115       0.000086854445
116      -0.000531515611
117      -0.000048457523
118       0.000018767703
119      -0.000098481003
 Sym=     1a
 Ene= -1.00461950460926E+01
 Spin= Alpha
 Occup= 2.000000
  1      -0.068052524496
  2      -0.088629310305
  3      -0.004720862742
  4       0.002270381276
  5       0.001240424455
  6      -0.000040990036
  7       0.000048401052
  8      -0.000039412495
  9       0.000269538070
 10      -0.000116119851
 11       0.000460919616
 12       0.000057155763
 13       0.000508022044
 14       0.001145441817
 15       0.000145346217
 16       0.000110046629
 17      -0.000002618597
 18       0.000010036353
 19      -0.000015075350
 20       0.000009282537
 21      -0.000015127603
 22      -0.000042837789
 23       0.000910963685
 24      -0.003092661129
 25       0.000001868602
 26      -0.000015983747
 27      -0.000014363565
 28      -0.000016326404
 29       0.000139419787
 30       0.000118473022
 31       0.000247870445
 32      -0.000985581489
 33      -0.000719948336
 34       0.000645977417
 35      -0.001631835587
 36       0.000479753529
 37      -0.000040043120
 38       0.000074937484
 39      -0.000117798860
 40      -0.000041919211
 41      -0.000004657911
 42       0.000022326570
 43       0.000004996189
 44      -0.000702338181
 45       0.000726578020
 46       0.000544298459
 47      -0.462513865305
 48      -0.602137390761
 49      -0.033521420973
 50       0.020035864303
 51      -0.007116615348
 52      -0.000144672054
 53       0.000529212991
 54       0.000399706768
 55       0.000757112577
 56      -0.002231832206
 57      -0.001975284263
 58       0.000037573536
 59       0.000673542639
 60       0.001511673151
 61       0.000037762400
 62      -0.000180878435
 63       0.000611291034
 64      -0.000372797156
 65      -0.000241205377
 66       0.000000226865
 67      -0.000004447826
 68       0.000048782276
 69      -0.000346934820
 70       0.000717834919
 71       0.000024490646
 72       0.000008515624
 73      -0.000018584996
 74      -0.000082402454
 75      -0.000034510598
 76       0.000082038149
 77      -0.000194132502
 78       0.000400116937
 79       0.000014027899
 80       0.000000446623
 81      -0.000041735637
 82       0.000021688057
 83       0.000014861249
 84      -0.000048751266
 85      -0.000056712875
 86       0.000099208717
 87       0.000052694230
 88      -0.000117670172
 89       0.000078282646
 90      -0.000002290432
 91       0.000394630247
 92      -0.000042760248
 93       0.000093445578
 94       0.000071597280
 95       0.000060291303
 96      -0.000070271515
 97       0.000172870323
 98       0.000004451179
 99       0.000005639916
100       0.000043878958
101       0.000046933761
102      -0.000036061345
103      -0.000140044910
104       0.000103108049
105       0.000089890653
106       0.000671502579
107      -0.000292538518
108      -0.000616771158
109       0.000391400070
110       0.000184779398
111       0.000494380599
112       0.000821960452
113       0.000067033196
114      -0.000067180917
115       0.000280828482
116      -0.000399456360
117      -0.000405030439
118       0.000194779973
119      -0.000661953054
 Sym=     1a
 Ene= -7.93736980819903E+00
 Spin= Alpha
 Occup= 2.000000
  1      -0.000015667066
  2       0.000008064175
  3      -0.000102418541
  4       0.000753676658
  5       0.003895941460
  6       0.000019415115
  7      -0.000026183563
  8       0.000051453227
  9       0.000001662875
 10       0.000071652001
 11      -0.000082128008
 12       0.000937962404
 13      -0.000525448700
 14       0.001167384551
 15      -0.000120196292
 16      -0.000156327455
 17       0.000115014877
 18      -0.000014532708
 19       0.000072082588
 20      -0.288035896529
 21      -0.242083859343
 22       0.806113020976
 23       0.029662391600
 24      -0.015846906402
 25       0.003275509437
 26       0.009663774236
 27      -0.003704957250
 28       0.000533321940
 29       0.000996770527
 30      -0.000413760677
 31       0.000376771539
 32      -0.000012768840
 33      -0.000057756764
 34      -0.000247803489
 35      -0.002580893881
 36       0.000888412084
 37      -0.000075708552
 38      -0.000051097078
 39       0.000158780603
 40       0.000503415702
 41      -0.000136567038
 42      -0.000021539108
 43      -0.000015573746
 44      -0.000182442239
 45      -0.000366645522
 46       0.000179743795
 47      -0.000015668752
 48       0.000008068277
 49      -0.000102585424
 50       0.000754028382
 51       0.003896017522
 52       0.000006203894
 53      -0.000052811657
 54      -0.000029647146
 55       0.000018633279
 56       0.000105362909
 57       0.000020441323
 58       0.000609765612
 59      -0.001189197026
 60      -0.000855744040
 61       0.000007786286
 62       0.000049593118
 63      -0.000181673122
 64       0.000122272713
 65       0.000083622849
 66      -0.000031860367
 67      -0.000081482928
 68       0.000374273385
 69      -0.000694237523
 70       0.002131832833
 71      -0.000113062404
 72      -0.000013768056
 73       0.000022916623
 74       0.000513383760
 75       0.000047925907
 76      -0.000099264874
 77      -0.000418806576
 78       0.000111252987
 79       0.000031654569
 80       0.000072158376
 81       0.000050514608
 82       0.000010351689
 83      -0.000118666871
 84      -0.000027395421
 85       0.000266970777
 86       0.000217643238
 87       0.000003720252
 88      -0.000556908550
 89      -0.000139882437
 90      -0.000043130303
 91      -0.000770103051
 92       0.000039377680
 93      -0.000059594997
 94       0.000007126839
 95      -0.000059164454
 96      -0.000560071660
 97      -0.000031210857
 98      -0.000017245113
 99       0.000043074405
100      -0.000071755281
101      -0.000633708400
102       0.000054941649
103       0.000040062185
104       0.000033602809
105      -0.000071814505
106      -0.000634575878
107       0.000038869062
108       0.000008043845
109      -0.000064494016
110      -0.000059226722
111      -0.000559439459
112      -0.000040407686
113      -0.000035948356
114      -0.000013892490
115      -0.000043070563
116      -0.000770257647
117       0.000041166651
118      -0.000056132116
119       0.000017716327
 Sym=     1a
 Ene= -5.88339490443777E+00
 Spin= Alpha
 Occup= 2.000000
  1      -0.000018526583
  2      -0.000045852557
  3       0.000150810303
  4       0.000210417051
  5       0.000491886896
  6       0.000061338799
  7      -0.000041311121
  8       0.000095220635
  9      -0.000165029233
 10       0.000111810825
 11       0.000009812486
 12       0.000042339502
 13      -0.000025363414
 14       0.000194484937
 15      -0.000049931513
 16      -0.000116956840
 17       0.000075799995
 18      -0.000025829710
 19       0.000053106589
 20       0.000133063124
 21       0.000031818237
 22      -0.000320689493
 23      -0.000655301953
 24      -0.000021536669
 25      -0.893962982553
 26       0.377995894165
 27       0.024800769510
 28      -0.058025466734
 29       0.024385534392
 30       0.001658061086
 31       0.002693573017
 32      -0.001302835686
 33      -0.000023552091
 34       0.000560360871
 35      -0.000012617478
 36      -0.000088883684
 37       0.000391820621
 38       0.000560409752
 39      -0.000017451622
 40      -0.001193815930
 41      -0.000733763483
 42      -0.000255186942
 43      -0.000378890636
 44       0.000007147368
 45       0.000788222396
 46       0.000511468552
 47      -0.000018714194
 48      -0.000046280510
 49       0.000151683631
 50       0.000214091602
 51       0.000496772252
 52       0.000035270787
 53      -0.000095155896
 54      -0.000066964649
 55      -0.000169466641
 56       0.000099967071
 57      -0.000024723433
 58      -0.000012946806
 59      -0.000138156735
 60      -0.000147930619
 61       0.000015812029
 62       0.000055382624
 63      -0.000110659627
 64       0.000066680921
 65       0.000075634565
 66       0.000107176870
 67       0.000203433992
 68      -0.000448919551
 69       0.000064447742
 70      -0.000933411791
 71       0.000270200781
 72       0.000033136614
 73      -0.000054595928
 74      -0.000152257667
 75       0.000026687101
 76       0.000015881919
 77       0.000060493022
 78      -0.000067995370
 79       0.000014553012
 80      -0.000073938327
 81      -0.000045110478
 82       0.000001832635
 83       0.000140880785
 84       0.000001074224
 85      -0.000182900524
 86      -0.000107816159
 87      -0.000026027732
 88       0.000272725925
 89       0.000019595928
 90      -0.000015076030
 91      -0.000054028747
 92       0.000014902130
 93      -0.000022887248
 94      -0.000015825142
 95      -0.000077562538
 96      -0.000191204463
 97      -0.000048054503
 98      -0.000007877239
 99       0.000006896176
100      -0.000041617931
101      -0.000143516606
102       0.000032122195
103       0.000023737010
104      -0.000004307310
105      -0.000042039460
106      -0.000144863455
107       0.000029667402
108       0.000018931830
109      -0.000019946173
110      -0.000077785200
111      -0.000192144608
112      -0.000047312796
113      -0.000005802224
114       0.000013201146
115      -0.000015833622
116      -0.000054089968
117       0.000021064310
118      -0.000010915556
119       0.000021272450
 Sym=     1a
 Ene= -5.88279075651404E+00
 Spin= Alpha
 Occup= 2.000000
  1      -0.000026243850
  2      -0.000060718672
  3       0.000136429639
  4       0.000469435599
  5       0.000650728602
  6       0.000063011331
  7      -0.000041644096
  8       0.000126261648
  9       0.000137976929
 10      -0.000075710478
 11      -0.000044308932
 12       0.000115604410
 13       0.000095373419
 14       0.000313271097
 15      -0.000109720339
 16      -0.000103160264
 17       0.000063908321
 18      -0.000010973424
 19       0.000019135915
 20      -0.000000449460
 21      -0.000001082561
 22       0.000001192681
 23      -0.000001795501
 24       0.000000374521
 25      -0.151413174432
 26      -0.298285668665
 27      -0.911588597152
 28      -0.009807586399
 29      -0.019319780677
 30      -0.059042562054
 31       0.000567459117
 32       0.001122536452
 33       0.003429557764
 34       0.000065325400
 35       0.000128997161
 36       0.000392621835
 37       0.000590227707
 38      -0.000087239845
 39      -0.000851794340
 40       0.000289076421
 41      -0.000206587143
 42      -0.000549285414
 43       0.000194111404
 44       0.000737910168
 45      -0.000233746961
 46       0.000219551604
 47       0.000026120186
 48       0.000060400275
 49      -0.000135260766
 50      -0.000468343179
 51      -0.000647720382
 52      -0.000027573449
 53       0.000112116335
 54       0.000089832397
 55      -0.000152590402
 56       0.000049420584
 57      -0.000038062226
 58      -0.000011254582
 59       0.000114323334
 60       0.000326404940
 61       0.000023393871
 62      -0.000033358895
 63       0.000134605428
 64      -0.000080348458
 65      -0.000025840034
 66       0.000000376568
 67       0.000000710014
 68      -0.000001505970
 69       0.000000117506
 70      -0.000003106222
 71      -0.000008519040
 72      -0.000018975296
 73      -0.000058295652
 74       0.000003005562
 75       0.000007021336
 76       0.000021133623
 77      -0.000082303486
 78      -0.000166991752
 79      -0.000507854347
 80       0.000003413586
 81      -0.000013827533
 82       0.000001257349
 83      -0.000002026729
 84      -0.000004521395
 85      -0.000055841064
 86       0.000309941751
 87      -0.000069711549
 88       0.000071598450
 89       0.000094011535
 90      -0.000113259774
 91       0.000026552460
 92       0.000013047165
 93      -0.000037803523
 94      -0.000018248036
 95      -0.000039872165
 96      -0.000120018931
 97      -0.000039497563
 98       0.000006404885
 99       0.000006039181
100      -0.000046332792
101      -0.000198136727
102       0.000017542300
103       0.000040058003
104       0.000008785794
105       0.000046096978
106       0.000197018067
107      -0.000010134180
108      -0.000025621910
109       0.000034746962
110       0.000039326654
111       0.000118997370
112       0.000039687584
113      -0.000005455372
114      -0.000002989695
115       0.000113125609
116      -0.000026888589
117      -0.000021150642
118       0.000021230288
119      -0.000031853515
 Sym=     1a
 Ene= -5.87593166289363E+00
 Spin= Alpha
 Occup= 2.000000
  1       0.000014418155
  2       0.000025645439
  3       0.000036094826
  4      -0.000274102774
  5       0.000073139362
  6      -0.000009944161
  7       0.000016446602
  8      -0.000032728472
  9      -0.000208669207
 10      -0.000088062703
 11      -0.000102286605
 12       0.000071302017
 13       0.000039094887
 14       0.000028493695
 15       0.000006160816
 16      -0.000037553720
 17      -0.000025451985
 18      -0.000019354297
 19      -0.000016849572
 20      -0.003151936958
 21      -0.003145655153
 22       0.008913460739
 23      -0.000071190958
 24       0.000589272647
 25      -0.347154671950
 26      -0.843327677881
 27       0.333611922790
 28      -0.022529005000
 29      -0.054319292078
 30       0.021515766630
 31       0.001332107715
 32       0.003236123146
 33      -0.001280284173
 34      -0.000020718700
 35      -0.000215054078
 36       0.000073591878
 37       0.000389698472
 38       0.000276718827
 39       0.000511973590
 40       0.000378054382
 41      -0.000589097131
 42      -0.000213232984
 43      -0.000234985992
 44      -0.000322188604
 45      -0.000191238080
 46       0.000555505995
 47       0.000014407266
 48       0.000025608565
 49       0.000036189515
 50      -0.000273870438
 51       0.000074463556
 52      -0.000001631806
 53       0.000033138236
 54       0.000018255427
 55      -0.000161381447
 56       0.000007450957
 57       0.000188795911
 58       0.000055607722
 59       0.000008391838
 60      -0.000065606633
 61      -0.000032047867
 62       0.000035706509
 63      -0.000003632834
 64      -0.000016344506
 65       0.000013135462
 66       0.000058075429
 67       0.000097051349
 68      -0.000075941745
 69      -0.000209220346
 70      -0.000453133033
 71       0.000102587433
 72      -0.000051517360
 73       0.000000259769
 74       0.000205865722
 75       0.000050744770
 76      -0.000050208317
 77       0.000233181858
 78      -0.000482104960
 79       0.000120670309
 80       0.000009328087
 81       0.000019821165
 82       0.000004203773
 83      -0.000026296434
 84      -0.000036979158
 85       0.000058001865
 86      -0.000079017633
 87      -0.000029353085
 88      -0.000023503329
 89       0.000290536404
 90       0.000003497346
 91       0.000055619377
 92       0.000022980829
 93       0.000004801197
 94       0.000020624311
 95      -0.000021684351
 96       0.000059927977
 97       0.000011775239
 98       0.000006914939
 99       0.000023129953
100       0.000077992292
101      -0.000073177182
102      -0.000006054602
103      -0.000006312790
104      -0.000011897294
105       0.000077997942
106      -0.000073492769
107      -0.000001704243
108       0.000002290066
109       0.000014431655
110      -0.000021731423
111       0.000059181960
112       0.000003855494
113      -0.000008900170
114      -0.000024979166
115       0.000003474115
116       0.000056093280
117       0.000015535576
118      -0.000010209132
119      -0.000025142596
 Sym=     1a
 Ene= -9.55319356068950E-01
 Spin= Alpha
 Occup= 2.000000
  1      -0.009992590089
  2      -0.021045609555
  3       0.029441817273
  4       0.035872532590
  5      -0.018252704405
  6       0.010490050595
  7      -0.004359051719
  8       0.012581592388
  9       0.010091681332
 10      -0.005286445647
 11       0.014571261058
 12      -0.001934846850
 13       0.003653625520
 14      -0.008575064565
 15       0.002415977713
 16       0.003563970583
 17      -0.002128571911
 18       0.001139970675
 19      -0.001396703492
 20       0.044494676523
 21       0.042377504845
 22      -0.247660662474
 23       0.360037136888
 24       0.184762336712
 25      -0.074209729050
 26      -0.016356615321
 27       0.017445929982
 28       0.062923586371
 29       0.014054837887
 30      -0.014853868207
 31       0.110161661100
 32       0.025310415234
 33      -0.026235029382
 34      -0.003567127461
 35       0.012221220388
 36      -0.003441494206
 37      -0.018925365377
 38      -0.013507175553
 39       0.000139906880
 40       0.037871665141
 41       0.005069733561
 42       0.002419195479
 43       0.000472775938
 44      -0.000005219011
 45      -0.003155361132
 46       0.002242713907
 47      -0.009989449472
 48      -0.021039125276
 49       0.029432673295
 50       0.035864226877
 51      -0.018229621852
 52       0.006805426584
 53      -0.011800981559
 54      -0.010082000420
 55       0.005938917832
 56      -0.013667892059
 57      -0.010954300753
 58       0.000260193195
 59       0.008109813795
 60       0.004965850960
 61      -0.000027856952
 62      -0.001531960541
 63       0.004112201063
 64      -0.001852430648
 65      -0.001905181906
 66      -0.082458094307
 67      -0.194091218876
 68       0.272984768198
 69       0.402372898291
 70       0.090024716314
 71      -0.096921847299
 72      -0.005568947975
 73       0.017593361807
 74      -0.094155621224
 75      -0.004548137693
 76       0.016807726656
 77       0.025161085342
 78      -0.001742792074
 79      -0.003521869755
 80      -0.007779902725
 81      -0.005326648192
 82      -0.000033985688
 83       0.015067658425
 84       0.001648127271
 85       0.005880925752
 86       0.003126879234
 87       0.000197863737
 88      -0.009823663664
 89       0.000677411143
 90       0.008431367927
 91       0.003507800885
 92      -0.000156407610
 93       0.001000979013
 94       0.001124171095
 95       0.006235132720
 96       0.006454311780
 97       0.001357955212
 98       0.000018853107
 99      -0.000226280476
100       0.009014049538
101       0.003304175203
102      -0.000389627626
103      -0.001503972535
104       0.000575288357
105       0.009006846496
106       0.003290598655
107      -0.000393025769
108      -0.001513127666
109       0.000544291080
110       0.006230356143
111       0.006441786559
112       0.001356244509
113       0.000019767025
114      -0.000228295380
115       0.008431572060
116       0.003518648374
117      -0.000567254460
118       0.000173344008
119      -0.001392785579
 Sym=     1a
 Ene= -7.43645297595648E-01
 Spin= Alpha
 Occup= 2.000000
  1      -0.051888028698
  2      -0.110644311475
  3       0.172090851282
  4       0.196092496896
  5       0.015653359501
  6       0.009812677749
  7      -0.006758426047
  8       0.032133486364
  9       0.011125905493
 10      -0.008491324308
 11       0.032633373394
 12      -0.004379685206
 13       0.003546060830
 14      -0.003576211078
 15       0.004900643938
 16       0.004240375146
 17      -0.002518023395
 18       0.000155168639
 19      -0.001478993950
 20       0.037938879511
 21       0.036872779301
 22      -0.215097884112
 23       0.307731562945
 24       0.176260343229
 25       0.074532395178
 26      -0.042968729191
 27       0.002004025372
 28      -0.059426293065
 29       0.034903609122
 30      -0.001809728532
 31      -0.131825466324
 32       0.075718943211
 33      -0.003451863551
 34      -0.018856820423
 35       0.008648330911
 36       0.000230336801
 37       0.020385070913
 38       0.016350719090
 39       0.006435616948
 40      -0.028340561304
 41      -0.015902771892
 42       0.001482558671
 43       0.003406374998
 44      -0.000006573769
 45      -0.006020426350
 46      -0.005839821671
 47      -0.051869403482
 48      -0.110604254337
 49       0.172024387412
 50       0.196037626836
 51       0.015589764340
 52       0.000794808961
 53      -0.025005250900
 54      -0.023419982046
 55       0.002059429631
 56      -0.026820622045
 57      -0.023185784769
 58      -0.003496773752
 59       0.005366517801
 60       0.001937003440
 61       0.001050749464
 62      -0.000754970694
 63       0.005812601875
 64      -0.003573693099
 65      -0.001529888641
 66       0.042847140626
 67       0.101786210143
 68      -0.152742213192
 69      -0.202982330797
 70      -0.089715643635
 71       0.005307417062
 72       0.008015352304
 73      -0.003500035900
 74       0.004988880508
 75       0.006792224965
 76      -0.003045698097
 77      -0.012781284902
 78       0.001015526014
 79       0.001747002498
 80       0.000495485463
 81       0.000904171629
 82       0.000245927617
 83      -0.001151351677
 84      -0.001642778064
 85      -0.003014029989
 86      -0.002511511687
 87      -0.000125153304
 88       0.006166525240
 89       0.001780871649
 90       0.057656060865
 91       0.019629862593
 92      -0.001266050804
 93       0.004521506034
 94       0.005738992346
 95       0.065135040179
 96       0.019798123786
 97       0.008396416999
 98      -0.000470605253
 99      -0.000067381151
100       0.061608804779
101       0.019723337338
102      -0.002560411426
103      -0.006973306804
104       0.002950843292
105       0.061585724241
106       0.019724506726
107      -0.002620140120
108      -0.007115111033
109       0.002520341963
110       0.065087537890
111       0.019781161077
112       0.008062157713
113      -0.001123575023
114      -0.002091757819
115       0.057634456639
116       0.019644176065
117      -0.003285049446
118       0.000453651502
119      -0.006631032083
 Sym=     1a
 Ene= -6.71040672255623E-01
 Spin= Alpha
 Occup= 2.000000
  1      -0.067436203344
  2      -0.144135817433
  3       0.227980515796
  4       0.264342720927
  5       0.062359821060
  6       0.000980320068
  7      -0.008554693997
  8      -0.008690801219
  9       0.004132572477
 10      -0.011019539706
 11       0.002524673237
 12       0.000532719170
 13      -0.001755288271
 14      -0.002585536407
 15      -0.000135258652
 16       0.001204529666
 17      -0.001987407099
 18       0.000285993266
 19      -0.001168335166
 20      -0.000012133803
 21      -0.000012015760
 22       0.000069104239
 23      -0.000096745052
 24      -0.000090331548
 25       0.011582686442
 26       0.023432238345
 27       0.071332292637
 28      -0.009472448978
 29      -0.019161376696
 30      -0.058330983849
 31      -0.020514427092
 32      -0.041501787938
 33      -0.126333438198
 34      -0.001668283694
 35      -0.003403473979
 36      -0.010334752416
 37       0.012281019355
 38       0.016638656013
 39      -0.026931987065
 40       0.012127909625
 41       0.000333876566
 42       0.002587611803
 43      -0.000755066268
 44      -0.003564510470
 45       0.001175193727
 46      -0.000979314308
 47       0.067443025914
 48       0.144150651430
 49      -0.228009232124
 50      -0.264347643732
 51      -0.062334761074
 52      -0.004243608387
 53       0.002008680932
 54      -0.011299358472
 55      -0.004262851719
 56       0.010784540374
 57      -0.003264606155
 58      -0.001396754907
 59      -0.000040688904
 60      -0.002825310010
 61       0.001516424435
 62       0.000783000951
 63      -0.001098128897
 64       0.001117123216
 65       0.001238035845
 66      -0.000006009081
 67      -0.000014393263
 68       0.000022926641
 69       0.000023366047
 70       0.000018656655
 71      -0.002702865255
 72      -0.005463634291
 73      -0.016643888895
 74      -0.002340890426
 75      -0.004737542134
 76      -0.014427498854
 77      -0.000205251628
 78      -0.000406777425
 79      -0.001241358526
 80      -0.000560509240
 81       0.002655965878
 82      -0.000461675810
 83       0.000556870179
 84       0.000831775856
 85       0.000392634447
 86      -0.002265323136
 87       0.000518824190
 88      -0.000519912734
 89      -0.000683928331
 90       0.101850247107
 91       0.030443319788
 92      -0.001978147458
 93       0.007378793107
 94       0.008671722201
 95       0.092968289451
 96       0.028629106735
 97       0.010242510325
 98      -0.000709208097
 99      -0.002377016675
100       0.090948200455
101       0.027604689996
102      -0.003791859324
103      -0.009726590790
104       0.001744149906
105      -0.090938084752
106      -0.027595342113
107       0.003187585166
108       0.008531110951
109      -0.005392851242
110      -0.092968403203
111      -0.028613161829
112      -0.010512039949
113       0.000152776784
114       0.000726735902
115      -0.101860411689
116      -0.030477412233
117       0.005080015575
118      -0.001133185468
119       0.010321373640
 Sym=     1a
 Ene= -5.59895145520102E-01
 Spin= Alpha
 Occup= 2.000000
  1      -0.039245714011
  2      -0.084019641728
  3       0.136061356201
  4       0.157537583371
  5       0.073105446299
  6      -0.041155980861
  7       0.039708173979
  8      -0.082812923328
  9      -0.031559593376
 10       0.030667462371
 11      -0.063254950404
 12      -0.002009841519
 13       0.004591693239
 14      -0.006001592999
 15      -0.006077785953
 16      -0.006613040904
 17       0.005405731113
 18      -0.000577744634
 19       0.002892862965
 20      -0.054593606504
 21      -0.053667102398
 22       0.315197630763
 23      -0.474485873264
 24      -0.336310436727
 25      -0.027905692760
 26      -0.010134255902
 27       0.007854338089
 28       0.022660203273
 29       0.007735493923
 30      -0.006214818425
 31       0.050872216233
 32       0.012342343357
 33      -0.012303739236
 34       0.022668404706
 35       0.010600074932
 36      -0.007136908440
 37      -0.005599946539
 38      -0.004166856093
 39      -0.002362188310
 40       0.006020178391
 41       0.004174755470
 42      -0.002749821992
 43      -0.001634963530
 44      -0.001741842189
 45       0.001084666512
 46       0.001641760783
 47      -0.039257507056
 48      -0.084044719280
 49       0.136102225110
 50       0.157585013108
 51       0.073043419280
 52      -0.019241262945
 53       0.083986509283
 54       0.052015550965
 55      -0.014849161215
 56       0.064435170242
 57       0.039568847218
 58      -0.000653283955
 59       0.007407531801
 60       0.002503377312
 61       0.000318771309
 62       0.001923667229
 63      -0.008553599204
 64       0.005691370524
 65       0.003032042566
 66      -0.036298369267
 67      -0.086641492367
 68       0.133229727519
 69       0.175286017126
 70       0.136850330531
 71       0.072915859589
 72       0.012256586730
 73      -0.015883885072
 74       0.053583571387
 75       0.010517085145
 76      -0.012169592049
 77       0.021918336340
 78       0.000918313863
 79      -0.003862354472
 80       0.002304805269
 81       0.001773672265
 82       0.000346981299
 83      -0.003962590272
 84      -0.001262919037
 85       0.001747241428
 86       0.000782555293
 87       0.000077661726
 88      -0.002684827503
 89       0.000514720067
 90       0.082245889490
 91       0.031402668108
 92      -0.002739102211
 93       0.006584446541
 94       0.003479036800
 95       0.084004628537
 96       0.032674685498
 97       0.006848753494
 98       0.001004939055
 99      -0.003825247333
100       0.094006535056
101       0.034859095169
102      -0.004310745142
103      -0.007159141044
104       0.000235946682
105       0.094037264402
106       0.034875971305
107      -0.003495360992
108      -0.005534507321
109       0.005206034785
110       0.084002068523
111       0.032664480015
112       0.007530849693
113       0.002392076479
114       0.000363571970
115       0.082271249632
116       0.031444360688
117      -0.004238553244
118       0.003571169652
119      -0.005682009634
 Sym=     1a
 Ene= -4.20203276043487E-01
 Spin= Alpha
 Occup= 2.000000
  1      -0.004183683066
  2      -0.008830264616
  3       0.012750395652
  4       0.024962814517
  5       0.016615834229
  6      -0.092388859192
  7      -0.157855691575
  8      -0.074761223278
  9      -0.072910384502
 10      -0.132700128527
 11      -0.060101599666
 12      -0.024113221795
 13      -0.046660292100
 14      -0.019123183141
 15      -0.000651949989
 16      -0.005241585447
 17       0.002423293266
 18       0.000958295125
 19      -0.005430111355
 20       0.006020957698
 21       0.006044826107
 22      -0.034957208523
 23       0.052026583136
 24       0.050342176221
 25       0.003800516789
 26       0.112578051936
 27      -0.037660765666
 28      -0.003701194632
 29      -0.098342510797
 30       0.032959980904
 31      -0.004367155838
 32      -0.219816474885
 33       0.073042048820
 34      -0.000624369382
 35      -0.098970713084
 36       0.032632647221
 37       0.013319124190
 38       0.002624795375
 39       0.018792280873
 40       0.024740876002
 41      -0.005503834965
 42       0.011027517745
 43       0.000956923929
 44       0.017463378077
 45       0.026373435343
 46      -0.003565724947
 47      -0.004175516776
 48      -0.008813601564
 49       0.012735105394
 50       0.024882176912
 51       0.016709091101
 52      -0.051574029534
 53      -0.075866437602
 54       0.174813236499
 55      -0.039621186733
 56      -0.065801107277
 57       0.143501923065
 58      -0.013061644702
 59      -0.024426657885
 60       0.048406103160
 61      -0.002160414505
 62       0.006241457671
 63      -0.000979272435
 64       0.003883132057
 65      -0.002108830039
 66      -0.000773527882
 67      -0.001953117586
 68       0.004777594214
 69      -0.001463036681
 70       0.000199154174
 71       0.010323298452
 72      -0.083123775407
 73       0.025686260982
 74       0.010912492894
 75      -0.071695984596
 76       0.021825015226
 77       0.006703704499
 78      -0.025771938620
 79       0.007403240374
 80       0.001397758966
 81      -0.002026548455
 82      -0.001198362553
 83      -0.001512531108
 84       0.007742808944
 85       0.000155295992
 86       0.000718947431
 87       0.000114977394
 88      -0.000858121848
 89      -0.001565035532
 90       0.124605396288
 91       0.075641653446
 92      -0.004953673941
 93       0.002110996461
 94       0.006621665795
 95       0.068806246896
 96       0.046521342052
 97       0.003393199364
 98      -0.005608285196
 99      -0.003310018348
100      -0.126377402576
101      -0.077827041025
102       0.000073174444
103       0.005450823811
104      -0.007538349214
105      -0.126306498432
106      -0.077827674061
107       0.001712350196
108       0.008769131276
109       0.002571663235
110       0.068801482340
111       0.046469504158
112       0.004717006635
113      -0.002938550487
114       0.004784498638
115       0.124428252759
116       0.075571664148
117      -0.006817202729
118      -0.001668486770
119      -0.004840263811
 Sym=     1a
 Ene= -4.12391271486786E-01
 Spin= Alpha
 Occup= 2.000000
  1      -0.009043374733
  2      -0.019262654339
  3       0.031750790572
  4       0.035009789363
  5       0.043967493543
  6      -0.127069028871
  7       0.132076864662
  8      -0.052662086689
  9      -0.104988068530
 10       0.113953807978
 11      -0.043681275530
 12      -0.036040967319
 13       0.034416957739
 14      -0.009525054132
 15      -0.004545091088
 16      -0.006639793230
 17       0.002377175047
 18       0.002129690933
 19       0.006941336534
 20      -0.000044329823
 21      -0.000042513134
 22       0.000261683824
 23      -0.000482413569
 24      -0.000061384903
 25      -0.024772765177
 26      -0.052135807507
 27      -0.158234799508
 28       0.022023677583
 29       0.046390880436
 30       0.140790720511
 31       0.048114019742
 32       0.101112505996
 33       0.306963894322
 34       0.017105635499
 35       0.035305425711
 36       0.107594467645
 37      -0.017252462294
 38       0.006595313155
 39       0.022826906035
 40      -0.007262995992
 41       0.006720587848
 42      -0.007111427007
 43       0.007523936786
 44       0.006748837094
 45      -0.001108347528
 46       0.003773843519
 47       0.009117396287
 48       0.019420820988
 49      -0.032020331164
 50      -0.035298061274
 51      -0.044021750017
 52       0.115448719501
 53      -0.150286678693
 54      -0.001643422640
 55       0.095779313099
 56      -0.128174933780
 57       0.001270773419
 58       0.033991867082
 59      -0.037060047684
 60       0.001814952928
 61       0.000792465639
 62       0.001195627350
 63       0.006018779105
 64      -0.005838027237
 65      -0.007107608048
 66      -0.000235245956
 67      -0.000564468861
 68       0.000903792339
 69       0.001095605233
 70       0.001161030415
 71       0.019811100751
 72       0.037317428130
 73       0.113099146122
 74       0.016934782748
 75       0.032125264024
 76       0.097411131528
 77       0.008129957615
 78       0.015352740167
 79       0.046070448584
 80       0.003254006359
 81      -0.010353832793
 82       0.000236143915
 83      -0.001677346115
 84      -0.003580958546
 85       0.001550690630
 86      -0.003445087012
 87      -0.000599297952
 88      -0.000299691185
 89      -0.001420772354
 90      -0.044304759964
 91      -0.030489573995
 92      -0.004670689444
 93       0.002457574363
 94      -0.006318630506
 95       0.118112611050
 96       0.069060112191
 97       0.006659178866
 98       0.003585233972
 99      -0.003944420518
100       0.089246201000
101       0.053182343963
102      -0.007060414982
103      -0.003101616964
104      -0.000249479115
105      -0.090428807351
106      -0.053967072039
107       0.006294844535
108       0.001770477881
109      -0.004110040021
110      -0.115703255615
111      -0.067494812225
112      -0.007023402784
113      -0.004633150170
114       0.000880296251
115       0.042023271531
116       0.029080672484
117       0.002863668088
118      -0.006137402270
119      -0.004593189981
 Sym=     1a
 Ene= -4.11631703511671E-01
 Spin= Alpha
 Occup= 2.000000
  1       0.003901754087
  2       0.008340103847
  3      -0.014104675607
  4      -0.015946477528
  5       0.000293896348
  6      -0.134501546274
  7       0.016967831569
  8       0.137067388730
  9      -0.111529954439
 10       0.014922422275
 11       0.114434835739
 12      -0.036271030078
 13       0.006505528530
 14       0.044048562106
 15       0.002545174410
 16      -0.001561226175
 17      -0.003831769702
 18       0.006248364498
 19       0.000368937043
 20      -0.004618577187
 21      -0.004409227518
 22       0.027297235759
 23      -0.051143358940
 24      -0.005325707049
 25       0.104721973002
 26      -0.015889819976
 27      -0.010153244704
 28      -0.095081139228
 29       0.014466514494
 30       0.009235641697
 31      -0.197228336342
 32       0.027964296413
 33       0.019669636674
 34      -0.044157735843
 35      -0.005001282630
 36       0.007683666584
 37      -0.009881216689
 38       0.004699693240
 39      -0.002482895355
 40      -0.000723445183
 41      -0.022704443142
 42      -0.022014301004
 43      -0.001951191547
 44      -0.001094546666
 45       0.023352682316
 46      -0.025085218608
 47       0.003732903981
 48       0.007980244140
 49      -0.013510089667
 50      -0.015317449058
 51       0.001283486309
 52      -0.171030415410
 53      -0.050132549713
 54      -0.075901999413
 55      -0.142128814635
 56      -0.041248068211
 57      -0.064080358162
 58      -0.048384022958
 59      -0.016102236107
 60      -0.027143717212
 61      -0.003845959813
 62      -0.001227437405
 63       0.005571969456
 64       0.002969800533
 65       0.002583568015
 66      -0.025815023047
 67      -0.061949907278
 68       0.099271173583
 69       0.120024712660
 70       0.128763199063
 71       0.151895623953
 72       0.005768958087
 73      -0.027772322060
 74       0.117126533802
 75       0.004123956182
 76      -0.021412371041
 77       0.067455602174
 78       0.016185877090
 79      -0.016775398282
 80       0.003511789641
 81       0.002639891666
 82      -0.000003542286
 83      -0.007041316033
 84      -0.000980880647
 85       0.001243410535
 86       0.003616916656
 87       0.002143073900
 88      -0.001203468658
 89      -0.008576943439
 90      -0.122188650267
 91      -0.076134217205
 92      -0.002531715674
 93      -0.006674976922
 94      -0.004273754752
 95       0.128534959107
 96       0.083306489678
 97       0.007724974507
 98      -0.000119322379
 99       0.004741218245
100      -0.063101685132
101      -0.044038443803
102      -0.002402582270
103       0.005837555797
104       0.002921069010
105      -0.061102756334
106      -0.042914196548
107      -0.003801851605
108       0.003208540413
109      -0.004837719060
110       0.130409757777
111       0.084353759864
112       0.006128317815
113      -0.003467243824
114      -0.005793118784
115      -0.123069201418
116      -0.076712813635
117      -0.000591593678
118      -0.002571344111
119       0.007937932674
 Sym=     1a
 Ene= -3.74780704405910E-01
 Spin= Alpha
 Occup= 2.000000
  1       0.001151421788
  2       0.002554526360
  3      -0.005758524786
  4       0.000182486630
  5      -0.004005096957
  6      -0.175695306315
  7      -0.140653174758
  8       0.067341199520
  9      -0.148719758827
 10      -0.121470226382
 11       0.059345679389
 12      -0.063879064192
 13      -0.051878580275
 14       0.025576832714
 15       0.000781048084
 16      -0.000962899057
 17       0.001819773498
 18       0.008801430259
 19      -0.004586865886
 20       0.000005696132
 21       0.000005453137
 22      -0.000033971962
 23       0.000077468704
 24      -0.000045426338
 25       0.002266937228
 26       0.004997474254
 27       0.015192025090
 28      -0.002098778716
 29      -0.004641113171
 30      -0.014104132903
 31      -0.004143784084
 32      -0.009122285385
 33      -0.027746167763
 34      -0.000111830778
 35      -0.000256829992
 36      -0.000927323663
 37      -0.013832960248
 38       0.026378588886
 39       0.007906544505
 40       0.001077963761
 41       0.010811344475
 42      -0.008214807170
 43       0.013862320140
 44       0.005674353974
 45      -0.000062391359
 46       0.005989993468
 47      -0.001149279687
 48      -0.002549120877
 49       0.005748830504
 50      -0.000231456040
 51       0.003998390305
 52       0.173511090049
 53       0.136704021053
 54      -0.080525704551
 55       0.147300233710
 56       0.119036457017
 57      -0.067759203520
 58       0.063271568727
 59       0.050931083668
 60      -0.028869834392
 61       0.001936085555
 62      -0.000853199653
 63      -0.005052972241
 64      -0.007918426415
 65       0.003269759135
 66       0.000039181484
 67       0.000094264060
 68      -0.000154253800
 69      -0.000165473433
 70      -0.000178013776
 71       0.003581108676
 72       0.007875688340
 73       0.024256849162
 74       0.003191871562
 75       0.006976043126
 76       0.021451125370
 77       0.000765451816
 78       0.001823389371
 79       0.005807594140
 80      -0.000030834047
 81      -0.001537863170
 82       0.000788469639
 83      -0.000492408958
 84      -0.000368187187
 85      -0.001458791969
 86       0.002825828463
 87       0.000821005700
 88       0.000124826912
 89       0.001174883062
 90       0.006017467834
 91       0.005110335910
 92      -0.006101984606
 93      -0.004462130515
 94       0.002836081639
 95       0.156656458163
 96       0.102485060385
 97       0.007936290909
 98      -0.005530981312
 99      -0.000393547680
100      -0.181811942445
101      -0.115956715516
102       0.000027182805
103       0.010348552959
104      -0.001059455716
105       0.181934937267
106       0.116039392968
107       0.000652200005
108      -0.008993621446
109       0.005198378684
110      -0.156760573791
111      -0.102593562406
112      -0.008212159343
113       0.004999222464
114      -0.001208040678
115      -0.005901539904
116      -0.005019519427
117       0.006206744005
118       0.004693981797
119      -0.002181650303
 Sym=     1a
 Ene= -3.63930758491939E-01
 Spin= Alpha
 Occup= 2.000000
  1      -0.000429388530
  2      -0.001138299337
  3       0.001237133553
  4       0.014131505268
  5       0.002727277912
  6       0.117133262396
  7      -0.113605863504
  8       0.009952842509
  9       0.099108676060
 10      -0.098490469116
 11       0.013464289628
 12       0.045845441438
 13      -0.045869708254
 14      -0.001170035328
 15       0.008394132160
 16       0.004292888148
 17       0.001691607263
 18      -0.003557437169
 19      -0.002232966677
 20      -0.006678301934
 21      -0.006579953538
 22       0.039357783072
 23      -0.071428289050
 24      -0.019962022037
 25       0.120173154500
 26      -0.077876328568
 27       0.006024937244
 28      -0.115171420413
 29       0.071369752774
 30      -0.004701795774
 31      -0.222299976690
 32       0.149302926891
 33      -0.012866508481
 34      -0.024697408724
 35       0.049801720994
 36      -0.012339546649
 37       0.039343430638
 38       0.015671043215
 39       0.009394989527
 40      -0.040769090684
 41       0.009090070957
 42       0.000919061644
 43      -0.002163207860
 44       0.001312190031
 45       0.004802107619
 46       0.005088582900
 47      -0.000433015217
 48      -0.001146408437
 49       0.001250952203
 50       0.014162190791
 51       0.002677170244
 52       0.119845108652
 53      -0.108500523092
 54       0.024298509598
 55       0.100191437921
 56      -0.096632871605
 57       0.018075264957
 58       0.048488127247
 59      -0.040669648967
 60       0.014230169128
 61       0.006186561826
 62       0.003154665330
 63       0.005603680572
 64      -0.005133252674
 65      -0.001838110250
 66      -0.024065320005
 67      -0.057681742587
 68       0.091136106833
 69       0.111555552403
 70       0.132838654701
 71       0.232164221746
 72       0.105834980210
 73      -0.072485508179
 74       0.182320230358
 75       0.089404817760
 76      -0.058989435594
 77       0.108299644689
 78       0.054370095026
 79      -0.035449655571
 80       0.005706480903
 81       0.006148582936
 82       0.002097082620
 83      -0.009337767194
 84      -0.008372982939
 85       0.000034049311
 86       0.001920421702
 87       0.000892408741
 88      -0.000550444329
 89      -0.005256017446
 90       0.083694198983
 91       0.051300327603
 92       0.002570962720
 93       0.001032662931
 94       0.005510770879
 95      -0.110870482305
 96      -0.078613715551
 97      -0.004898268632
 98      -0.004059789435
 99       0.002040214570
100      -0.057947835248
101      -0.041388100918
102       0.006267461464
103       0.000085978597
104      -0.000760356479
105      -0.057699165647
106      -0.041211029889
107       0.006184563420
108      -0.000086617797
109      -0.001264932755
110      -0.111043948974
111      -0.078707374396
112      -0.004877161994
113      -0.004006362365
114       0.002201028593
115       0.083596716510
116       0.051225900193
117       0.000782665878
118      -0.002591664186
119      -0.005541447272
 Sym=     1a
 Ene= -3.46247102946276E-01
 Spin= Alpha
 Occup= 2.000000
  1      -0.002694222154
  2      -0.006024370680
  3       0.008571865156
  4       0.027516691921
  5       0.025076417811
  6      -0.024926876627
  7       0.121166123914
  8       0.191443806530
  9      -0.016088317232
 10       0.098919936571
 11       0.166982902864
 12      -0.009085821663
 13       0.051317012589
 14       0.078522821167
 15      -0.004114680354
 16       0.005515175714
 17      -0.014302444822
 18       0.005882738122
 19       0.000730941117
 20      -0.000003948178
 21      -0.000004090451
 22       0.000023148294
 23      -0.000036687430
 24      -0.000018685656
 25       0.015961479912
 26       0.032200314384
 27       0.098091055728
 28      -0.014953421425
 29      -0.030159783361
 30      -0.091879353742
 31      -0.030346173301
 32      -0.061233681221
 33      -0.186516671480
 34      -0.006640369873
 35      -0.013478121484
 36      -0.041013832186
 37       0.016302262683
 38       0.006477735760
 39      -0.027969705567
 40       0.010995290937
 41      -0.003415924214
 42      -0.000585538396
 43       0.008761222158
 44      -0.003441344814
 45       0.002554631689
 46       0.002355154853
 47       0.002694266035
 48       0.006024797812
 49      -0.008577749901
 50      -0.027477882379
 51      -0.025137618756
 52       0.090144081553
 53       0.010291895460
 54       0.209215035725
 55       0.072604323063
 56       0.014975830835
 57       0.180166142791
 58       0.036021885924
 59       0.003017201055
 60       0.087100522452
 61       0.011466134977
 62       0.010855339721
 63      -0.004972258714
 64       0.003481878550
 65       0.001042373221
 66      -0.000002453025
 67      -0.000006159631
 68       0.000013195594
 69      -0.000005334072
 70       0.000006973885
 71      -0.013377881934
 72      -0.027049204098
 73      -0.082472499983
 74      -0.011275773783
 75      -0.022813049024
 76      -0.069541002367
 77      -0.009077595036
 78      -0.018314359850
 79      -0.055893552210
 80      -0.002034188866
 81       0.006510399038
 82      -0.000125924689
 83       0.001003411345
 84       0.002240884724
 85      -0.004017677361
 86       0.012746805332
 87      -0.000195845440
 88       0.001952086976
 89       0.004388907004
 90      -0.208603670401
 91      -0.153960116742
 92       0.002994377424
 93      -0.007250814886
 94      -0.005011234589
 95       0.064584854370
 96       0.040244016790
 97       0.004307982409
 98       0.003607173687
 99       0.005070478479
100       0.054108873089
101       0.030335627615
102      -0.002450128124
103      -0.000430750538
104       0.006713619094
105      -0.054374706489
106      -0.030507325178
107       0.004227548813
108       0.004019346792
109       0.004162537106
110      -0.064444324471
111      -0.040131660852
112      -0.002296390576
113       0.000411796977
114       0.007204586417
115       0.208726895860
116       0.154067471629
117      -0.004993197973
118       0.003240905860
119      -0.007162060129
 Sym=     1a
 Ene= -3.16349369001160E-01
 Spin= Alpha
 Occup= 2.000000
  1       0.001196450235
  2       0.002497203651
  3      -0.002932624138
  4      -0.012349182776
  5       0.054001746737
  6       0.062068888489
  7       0.095213721783
  8      -0.033966900126
  9       0.046171093036
 10       0.080561252376
 11      -0.028388000464
 12       0.032020625582
 13       0.036315659474
 14       0.002167672504
 15      -0.000974677868
 16      -0.003550530995
 17      -0.005843117614
 18      -0.010103917336
 19       0.002817654051
 20       0.012288789856
 21       0.012615126522
 22      -0.071967038248
 23       0.095902591423
 24       0.162485382668
 25       0.078717554515
 26       0.143698352392
 27      -0.059990418999
 28      -0.078122669244
 29      -0.135027369358
 30       0.057045955626
 31      -0.137199667300
 32      -0.270572721839
 33       0.111165295050
 34      -0.014102125397
 35      -0.164861589593
 36       0.056468768142
 37       0.006890661992
 38       0.019101305996
 39       0.003447765583
 40      -0.024482601872
 41      -0.038000568196
 42      -0.002764170632
 43      -0.003315858725
 44       0.001063189973
 45       0.009622088526
 46       0.002882377021
 47       0.001199513181
 48       0.002504266154
 49      -0.002948566634
 50      -0.012335954308
 51       0.053803797967
 52       0.060004900604
 53       0.090963101151
 54      -0.046981364245
 55       0.044634009319
 56       0.077350115654
 57      -0.038196008079
 58       0.026527947328
 59       0.025150766828
 60      -0.031749904226
 61      -0.003143517573
 62       0.002381562908
 63      -0.005455414056
 64      -0.009387773849
 65       0.004943539482
 66      -0.009885553146
 67      -0.023763470924
 68       0.039111240283
 69       0.039852898028
 70       0.047741669059
 71       0.203477255351
 72      -0.186366431172
 73       0.028106534594
 74       0.168011795946
 75      -0.159015448269
 76       0.024890679572
 77       0.122488968151
 78      -0.111545879930
 79       0.016705895318
 80       0.005952224368
 81      -0.000747359826
 82      -0.002695185201
 83      -0.011323415971
 84       0.012490794877
 85       0.003671808616
 86      -0.003115579636
 87      -0.004598149074
 88      -0.010111174017
 89       0.016648215180
 90      -0.026457084077
 91      -0.025593846968
 92       0.002976703479
 93       0.001345555415
 94      -0.002655983277
 95      -0.069943076352
 96      -0.067565285020
 97      -0.003294712461
 98       0.003286061603
 99       0.000213845191
100       0.118078484881
101       0.092606315037
102      -0.002307090436
103      -0.004137684762
104       0.000040841464
105       0.118078975521
106       0.092662768046
107      -0.001809097101
108      -0.003160662950
109       0.003026505506
110      -0.070119642201
111      -0.067648185226
112      -0.003520952056
113       0.002839968375
114      -0.001111710593
115      -0.026284296580
116      -0.025488836106
117       0.003470686448
118       0.002353062029
119       0.000384085221
 Sym=     1a
 Ene= -2.33492120519909E-01
 Spin= Alpha
 Occup= 2.000000
  1      -0.011204378553
  2      -0.024390531391
  3       0.031999681987
  4       0.121994912120
  5       0.052570252072
  6       0.083414450562
  7      -0.031556415585
  8       0.099768813597
  9       0.087061524862
 10      -0.042308764278
 11       0.106751969573
 12       0.017822308942
 13      -0.023243651206
 14       0.077664604944
 15       0.004516755892
 16       0.004082965217
 17      -0.005519686708
 18      -0.003848465037
 19      -0.000339069645
 20       0.000001833484
 21       0.000001876829
 22      -0.000010937007
 23       0.000014842161
 24       0.000064831513
 25       0.004420598560
 26       0.008918405094
 27       0.027132308431
 28      -0.004464465097
 29      -0.009002948663
 30      -0.027391718665
 31      -0.009165347790
 32      -0.018515207967
 33      -0.056330980765
 34       0.006529680253
 35       0.013177501468
 36       0.040217453343
 37      -0.004961243119
 38       0.096490923904
 39      -0.040223177335
 40       0.028662186530
 41       0.025466872080
 42      -0.012974488608
 43       0.019625373023
 44       0.010028980631
 45      -0.000700150150
 46       0.008877105513
 47       0.011205403788
 48       0.024392985013
 49      -0.032006197414
 50      -0.121979585864
 51      -0.052629647423
 52      -0.053916544433
 53       0.091173295350
 54       0.081795497022
 55      -0.056411936848
 56       0.104259775461
 57       0.081930040950
 58       0.003021070341
 59       0.065486821136
 60       0.050908262618
 61       0.000243044796
 62       0.000790946432
 63      -0.004140009306
 64       0.008034846986
 65       0.000087552094
 66      -0.000000505730
 67      -0.000001263598
 68       0.000002942554
 69      -0.000000812227
 70      -0.000005234206
 71       0.062792760951
 72       0.126760910110
 73       0.385873526276
 74       0.053142189299
 75       0.107277482185
 76       0.326567721828
 77       0.045354115621
 78       0.091560427114
 79       0.278654772185
 80       0.005565923619
 81      -0.015369091510
 82      -0.000856665934
 83      -0.001957849660
 84      -0.005530949587
 85       0.012154283379
 86      -0.024040722759
 87      -0.006586249674
 88      -0.001181846595
 89      -0.009729191914
 90      -0.020370107848
 91      -0.024944357591
 92       0.002122556106
 93      -0.001848196346
 94       0.002186815260
 95      -0.052091495242
 96      -0.077333663273
 97      -0.000267643266
 98      -0.001137106536
 99       0.004651414965
100       0.001280289376
101       0.006213958172
102       0.002306744393
103      -0.000970796973
104       0.003063364534
105      -0.001238975088
106      -0.006156575170
107      -0.001416122648
108       0.002774238418
109       0.002438942464
110       0.052108689172
111       0.077320137591
112       0.001483336184
113       0.003592583015
114       0.002810520796
115       0.020337555577
116       0.024957325766
117      -0.001570052354
118       0.002959435667
119       0.001209010186
 Sym=     1a
 Ene= -1.97346449562155E-01
 Spin= Alpha
 Occup= 2.000000
  1      -0.011219762461
  2      -0.024172580915
  3       0.030453388677
  4       0.123517514151
  5      -0.047548999437
  6       0.050112119591
  7      -0.052017624678
  8       0.083646398313
  9       0.053764773720
 10      -0.037956347577
 11       0.095980350724
 12      -0.010569224136
 13      -0.017910747471
 14       0.052627740498
 15       0.006231492804
 16       0.004222352038
 17       0.004899949507
 18       0.002001928657
 19      -0.001495334714
 20      -0.016527254420
 21      -0.017111164102
 22       0.098153786160
 23      -0.136833790735
 24      -0.233921678671
 25      -0.036125408933
 26      -0.109594867656
 27       0.041876675114
 28       0.038228428072
 29       0.105947884862
 30      -0.041021436408
 31       0.055076713844
 32       0.219421869735
 33      -0.081032657175
 34       0.099510301203
 35       0.193766165065
 36      -0.079853814255
 37       0.000781159420
 38       0.027290909819
 39       0.020011189262
 40       0.008392018753
 41      -0.081137550897
 42      -0.001047196297
 43       0.009948310005
 44       0.004679089286
 45      -0.001423869188
 46      -0.028913895046
 47      -0.011218866592
 48      -0.024170867247
 49       0.030456506370
 50       0.123477514478
 51      -0.047526591297
 52       0.028666646447
 53      -0.095286508283
 54      -0.048075286113
 55       0.027275763608
 56      -0.091389375788
 57      -0.066670188965
 58      -0.023576063782
 59      -0.044061886323
 60      -0.026743283615
 61       0.006808255350
 62       0.000927307557
 63       0.005650236572
 64       0.001259526931
 65      -0.002491049125
 66      -0.000420004622
 67      -0.000600792854
 68      -0.005439075722
 69       0.027863210010
 70      -0.050496220578
 71       0.002413114364
 72      -0.362876693980
 73       0.118829355238
 74      -0.003545327286
 75      -0.301887781151
 76       0.099756312634
 77       0.008354593415
 78      -0.301337121190
 79       0.097650325742
 80      -0.000126752189
 81      -0.004005851820
 82      -0.002096625383
 83       0.000667935789
 84       0.011089189588
 85       0.005074395019
 86      -0.008316879579
 87      -0.001229196911
 88       0.002782489606
 89       0.027416689021
 90       0.013601151880
 91       0.045658241334
 92       0.001569184411
 93      -0.000826155174
 94       0.003780255846
 95      -0.019807860898
 96      -0.038309536661
 97       0.000726742196
 98      -0.001754869343
 99       0.003201140964
100      -0.047459330739
101      -0.069676939489
102       0.002152326695
103       0.000624174822
104       0.002389271345
105      -0.047513802491
106      -0.069636062793
107       0.001308874294
108      -0.001080527180
109      -0.002808429104
110      -0.019734222733
111      -0.038272222174
112      -0.000056055023
113      -0.003340945988
114      -0.001629656825
115       0.013583207021
116       0.045659957705
117       0.000487108748
118      -0.003007858589
119      -0.002855055247
 Sym=     1a
 Ene= 1.97412504488707E-02
 Spin= Alpha
 Occup= 0.000000
  1      -0.009246583780
  2      -0.020389417177
  3       0.028341867108
  4       0.118905140271
  5       0.300220418907
  6       0.019395198083
  7      -0.019993087203
  8       0.074945047598
  9       0.047825194017
 10      -0.007845403822
 11       0.092584468780
 12       0.065276046963
 13      -0.034677097651
 14       0.261500624842
 15      -0.020773097308
 16       0.007091235001
 17       0.007427596796
 18       0.013094518590
 19      -0.007825788679
 20       0.002633519677
 21       0.002536254371
 22      -0.016250810734
 23       0.021269013666
 24       0.041633187701
 25      -0.158342861363
 26       0.044950822061
 27       0.006115104111
 28       0.153259409865
 29      -0.048414759521
 30      -0.004064306541
 31       0.374801802824
 32      -0.083726038308
 33      -0.022840118545
 34       1.130451690877
 35      -0.320931552118
 36      -0.048448535972
 37       0.095822049157
 38       0.064406463319
 39       0.008797149069
 40      -0.154200732699
 41      -0.028950692731
 42       0.055122824954
 43       0.004124129261
 44       0.003531234398
 45      -0.052149730003
 46       0.061758618615
 47      -0.007761851175
 48      -0.017147004844
 49       0.023899083169
 50       0.100461227905
 51       0.273914703933
 52      -0.003300062013
 53      -0.054748123457
 54      -0.047005292384
 55       0.016560034877
 56      -0.057008817672
 57      -0.074066059702
 58      -0.021062734646
 59      -0.168353262518
 60      -0.182373764945
 61      -0.004992461148
 62      -0.010995191924
 63      -0.008492304821
 64       0.015469139490
 65      -0.017598333154
 66       0.026121441398
 67       0.064903888031
 68      -0.131091266174
 69      -0.070986084081
 70      -0.761867566099
 71       0.194991708352
 72       0.072336919068
 73      -0.059525293073
 74       0.176789898539
 75       0.053218940029
 76      -0.049309621915
 77       0.347379701100
 78       0.092270533827
 79      -0.093838614477
 80       0.001871128571
 81       0.000083323299
 82      -0.000563185467
 83      -0.003137110053
 84       0.002274038963
 85      -0.001771541852
 86      -0.002962649331
 87      -0.000407537116
 88       0.006548378132
 89       0.006445485030
 90      -0.042286157087
 91      -0.052121665333
 92       0.005560613097
 93      -0.005569019423
 94       0.007133930302
 95       0.083253061630
 96       0.160511839760
 97      -0.000075015862
 98       0.003095440119
 99      -0.002992900934
100      -0.045619982305
101      -0.134735614882
102       0.004262486627
103       0.001214747749
104       0.006325030323
105      -0.042753244728
106      -0.124496896388
107       0.001865597492
108      -0.002712881590
109      -0.006391412995
110       0.083481785595
111       0.158631714680
112       0.000366214369
113       0.004659191897
114       0.000776818463
115      -0.043820993258
116      -0.054079271826
117       0.003729073793
118      -0.009097071756
119      -0.003561579341
 Sym=     1a
 Ene= 2.05646613841076E-02
 Spin= Alpha
 Occup= 0.000000
  1      -0.029772302731
  2      -0.064999646246
  3       0.088673315904
  4       0.371879493623
  5       0.530597087127
  6       0.077992346791
  7      -0.063785820797
  8       0.127190763534
  9       0.108141883914
 10      -0.061215790927
 11       0.154238209348
 12       0.342418867751
 13      -0.122655090722
 14       0.375882623915
 15       0.004551553377
 16      -0.005368477742
 17       0.013136119990
 18       0.007871601189
 19       0.006485292836
 20      -0.000063399515
 21      -0.000060542313
 22       0.000391601535
 23      -0.000510829078
 24      -0.001011871544
 25      -0.024148752453
 26      -0.057840644970
 27      -0.172820787806
 28       0.024787301861
 29       0.058957033736
 30       0.175897654033
 31       0.051785401012
 32       0.125541821988
 33       0.376432525589
 34       0.146158125369
 35       0.360174644451
 36       1.073185397676
 37       0.066134479902
 38       0.035110415242
 39      -0.122609726376
 40       0.053221400374
 41      -0.011342581847
 42       0.019807569916
 43       0.008089042489
 44      -0.036367634526
 45       0.015515445423
 46      -0.006059406586
 47       0.030192721971
 48       0.065928255487
 49      -0.089980884901
 50      -0.377199271600
 51      -0.545027147697
 52      -0.043852703086
 53       0.135457173695
 54       0.084980136642
 55      -0.065648262485
 56       0.151944368965
 57       0.117185803441
 58      -0.229692587497
 59       0.357832531279
 60       0.323777932737
 61      -0.009617833854
 62      -0.001788663225
 63      -0.000833575372
 64      -0.014075041050
 65      -0.005894076158
 66      -0.000650684160
 67      -0.001616729156
 68       0.003264624212
 69       0.001767832645
 70       0.019017935652
 71      -0.028293479298
 72      -0.049193513696
 73      -0.142806642503
 74      -0.022218247714
 75      -0.037365517274
 76      -0.108483832692
 77      -0.049493372362
 78      -0.084722250432
 79      -0.248581506704
 80       0.004611646716
 81      -0.005500612346
 82      -0.004349643736
 83       0.000837283608
 84      -0.002860282829
 85      -0.001750859546
 86       0.029088126010
 87      -0.011653352301
 88       0.008319720111
 89       0.007575353221
 90       0.030091492825
 91       0.033787376354
 92       0.002485024274
 93       0.001792842185
 94       0.004199123569
 95      -0.006980349137
 96       0.029670141484
 97       0.004765318219
 98      -0.003975537503
 99       0.008158441651
100      -0.054757792931
101      -0.196674289240
102       0.007703185388
103      -0.002263402187
104       0.008108492240
105       0.057033916890
106       0.203472805817
107      -0.005332091492
108       0.007390025830
109       0.007414611805
110       0.002779320490
111      -0.037968224026
112      -0.002600962972
113       0.008163103516
114       0.005264983786
115      -0.027964469076
116      -0.031251162314
117      -0.001188148541
118       0.001665465298
119       0.005144934120
 Sym=     1a
 Ene= 6.14858271553059E-02
 Spin= Alpha
 Occup= 0.000000
  1       0.012313628887
  2       0.027799363469
  3      -0.057321406883
  4       0.016278210213
  5      -0.434162991158
  6      -0.079921785665
  7       0.063971503263
  8      -0.144598898514
  9      -0.092970286996
 10       0.113333039816
 11      -0.190099213048
 12      -0.316815986441
 13       0.240463900557
 14      -0.551163349763
 15       0.012679383318
 16       0.021268350126
 17      -0.002946875824
 18       0.012055568668
 19      -0.005421832597
 20       0.044148900329
 21       0.047451567336
 22      -0.269351925793
 23       0.345696800520
 24       1.801833869037
 25       0.009359329956
 26      -0.099297303646
 27       0.031111761285
 28      -0.017271254635
 29       0.093053103933
 30      -0.027772979948
 31       0.019960277184
 32       0.285661265421
 33      -0.097131664154
 34       0.142333851583
 35       0.607827365451
 36      -0.223083078916
 37       0.000154653453
 38       0.008397025826
 39      -0.019731210036
 40      -0.055491472038
 41      -0.000459054583
 42      -0.023068850121
 43      -0.003090707457
 44      -0.020554972622
 45      -0.017820600931
 46      -0.005114231291
 47       0.012327980661
 48       0.027829485772
 49      -0.057336214199
 50       0.015873139365
 51      -0.433161885322
 52      -0.040760402996
 53       0.143000946253
 54       0.096254251054
 55      -0.044818827279
 56       0.210519593758
 57       0.106175694668
 58      -0.166760262370
 59       0.543290577414
 60       0.372146219068
 61       0.006331608290
 62      -0.010747938543
 63       0.022533036390
 64      -0.001798931577
 65      -0.011383309042
 66       0.010753290288
 67       0.026185619353
 68      -0.045193481171
 69      -0.040146163530
 70      -0.405818908686
 71       0.164278114053
 72      -0.048229951547
 73      -0.010898002383
 74       0.163347010809
 75      -0.035618025414
 76      -0.014883935361
 77       0.338831479366
 78      -0.083518748800
 79      -0.027696228247
 80      -0.001900973699
 81       0.000456902724
 82       0.000122056843
 83       0.001664690703
 84      -0.003789324513
 85       0.018341661870
 86       0.011539537851
 87       0.003933616407
 88      -0.025527123793
 89      -0.005158925492
 90      -0.002778122214
 91      -0.021150509229
 92      -0.008159434792
 93       0.009609575619
 94      -0.010498288782
 95       0.017108022932
 96      -0.004085212659
 97      -0.003274875087
 98       0.005954458796
 99      -0.017297612860
100      -0.054971268986
101      -0.245385206597
102      -0.006247703758
103       0.000610289101
104      -0.011208179655
105      -0.054906703055
106      -0.245198919031
107      -0.002794345352
108       0.007572266768
109       0.010001575045
110       0.017210939674
111      -0.004013426805
112       0.001268601907
113       0.015146614732
114       0.010693665534
115      -0.002845487899
116      -0.021478294317
117      -0.005678354746
118       0.014618056383
119       0.004789395749
 Sym=     1a
 Ene= 1.07910307147168E-01
 Spin= Alpha
 Occup= 0.000000
  1       0.049559093172
  2       0.103168651131
  3      -0.055712928498
  4      -1.177231905369
  5       1.271920307826
  6       0.023953571630
  7      -0.005422536416
  8       0.020254563123
  9       0.089052183287
 10      -0.005685912638
 11       0.093921593468
 12       0.000241142527
 13       0.028346730781
 14       0.067476659541
 15       0.005252396784
 16       0.002388974214
 17       0.010790516996
 18       0.002260749369
 19      -0.000348989627
 20       0.003083077074
 21       0.000670713754
 22      -0.021324861297
 23       0.101687249509
 24      -0.397303570788
 25       0.004550315310
 26      -0.062550271668
 27       0.019765786645
 28      -0.012841586931
 29       0.058465628220
 30      -0.017076803681
 31       0.036302481807
 32       0.186850942064
 33      -0.067169521390
 34       0.365521384051
 35      -0.237267349740
 36       0.018760929556
 37      -0.017737944731
 38      -0.004452113844
 39      -0.020314174466
 40      -0.021132764005
 41       0.005233280985
 42      -0.085695776901
 43      -0.052233514606
 44      -0.044183925278
 45       0.059135607868
 46       0.044964883151
 47       0.049553366503
 48       0.103158364509
 49      -0.055743785064
 50      -1.176879642280
 51       1.271513470426
 52       0.017511221476
 53      -0.018303177887
 54      -0.019141919060
 55       0.058512964875
 56      -0.067250012758
 57      -0.093907265551
 58      -0.022218536845
 59      -0.015510975484
 60      -0.068367601335
 61       0.010520756021
 62       0.002455627694
 63       0.002735152283
 64       0.005182847962
 65      -0.001969372149
 66       0.010143354045
 67       0.024948117150
 68      -0.045445128279
 69      -0.047835089705
 70      -0.322079584502
 71       0.020154758192
 72      -0.059313019819
 73       0.016173226350
 74       0.016841704649
 75      -0.056020720880
 76       0.015622288066
 77       0.169596706749
 78      -0.028344764943
 79      -0.018274482708
 80       0.001588315958
 81       0.002214847012
 82       0.000442399875
 83      -0.003575443471
 84      -0.003367557849
 85       0.009430691478
 86       0.008319114211
 87       0.000595181137
 88      -0.019516431319
 89      -0.006910461005
 90       0.080594272139
 91       0.186730143435
 92       0.001181863491
 93      -0.004913670121
 94      -0.007952516833
 95       0.042222244783
 96       0.103678646661
 97      -0.007605445772
 98       0.002701655525
 99       0.005041450185
100       0.006083478408
101      -0.038944962545
102       0.004372902233
103       0.009572998418
104       0.002665355482
105       0.006016275093
106      -0.039559966856
107       0.002485261599
108       0.005808303269
109      -0.008835884925
110       0.042255102670
111       0.103594606262
112      -0.008944446550
113      -0.000010144795
114      -0.003221853420
115       0.080553441493
116       0.187075459333
117       0.003874232880
118       0.000521719580
119       0.008567900020
 Sym=     1a
 Ene= 1.51876959137713E-01
 Spin= Alpha
 Occup= 0.000000
  1      -0.004824407716
  2      -0.008794180665
  3      -0.019463851397
  4       0.215552168291
  5       0.102021889101
  6      -0.060399560227
  7       0.121192449231
  8       0.054865203367
  9      -0.168194930026
 10       0.340875638250
 11       0.175851327038
 12      -0.171636712399
 13       0.436286998178
 14       0.380892171308
 15       0.017192201001
 16      -0.004683456314
 17       0.026609523094
 18      -0.009842170623
 19      -0.005437679346
 20      -0.003432554680
 21      -0.003660668082
 22       0.021133930850
 23      -0.024289978571
 24      -0.126428861133
 25       0.005115389824
 26       0.022487990953
 27      -0.007995445819
 28       0.006701623230
 29      -0.032281928339
 30       0.009306086761
 31      -0.066293145014
 32      -0.006239343969
 33       0.012137890994
 34       0.386069936273
 35      -0.425164834248
 36       0.074852755617
 37      -0.082943579453
 38      -0.000175609461
 39      -0.052563162379
 40      -0.030801929897
 41      -0.064537510265
 42      -0.097997473886
 43       0.014216804933
 44      -0.056048258541
 45      -0.040934022898
 46      -0.115151397830
 47      -0.004694033926
 48      -0.008529873191
 49      -0.019439523022
 50       0.211135243937
 51       0.108718687239
 52      -0.085100140427
 53       0.071367386964
 54      -0.095026486467
 55      -0.243898401467
 56       0.188655226707
 57      -0.283850127264
 58      -0.314277406318
 59       0.144495620751
 60      -0.491701945220
 61       0.025603745488
 62       0.021952755334
 63       0.000558797743
 64       0.003420176488
 65      -0.001345503998
 66      -0.003579580119
 67      -0.007178694500
 68      -0.010131259242
 69       0.133407475204
 70      -0.251285936216
 71      -0.033923886856
 72       0.083897097649
 73      -0.021955012650
 74      -0.047075194908
 75       0.085080394287
 76      -0.020231810619
 77       0.021842946564
 78       0.109755152494
 79      -0.039315410850
 80      -0.003031575011
 81      -0.001642353077
 82      -0.002756101006
 83      -0.000852052865
 84       0.002292084886
 85       0.011279376227
 86       0.008219266284
 87       0.019288842163
 88       0.020871442427
 89      -0.021351871641
 90       0.141928080851
 91       0.957556550544
 92      -0.002818969171
 93       0.004554504185
 94      -0.000384428364
 95      -0.082295115940
 96      -0.585469031537
 97      -0.001443945477
 98       0.013149181426
 99       0.005871723009
100      -0.081563222356
101      -0.596676413054
102      -0.007793683093
103       0.008051979847
104       0.007876673690
105      -0.081035332819
106      -0.592899213975
107      -0.010437370491
108       0.002672541100
109      -0.008473866017
110      -0.082299676465
111      -0.586358510520
112      -0.004339416657
113       0.007307863274
114      -0.011638387816
115       0.142104676583
116       0.956371249604
117      -0.003021117408
118       0.004117748460
119      -0.001477097513
 Sym=     1a
 Ene= 1.62236118803082E-01
 Spin= Alpha
 Occup= 0.000000
  1      -0.033880475742
  2      -0.068773695786
  3      -0.003288307556
  4       1.096082923584
  5      -1.421775055790
  6      -0.058279685718
  7       0.012007953472
  8      -0.152446651413
  9      -0.094177209107
 10      -0.004651879639
 11      -0.304130070363
 12      -0.344967671235
 13       0.627649903001
 14       0.165476108391
 15       0.003729691609
 16       0.008450458868
 17      -0.000637916872
 18      -0.001590715636
 19      -0.011638342514
 20       0.000001705380
 21       0.000001867812
 22      -0.000010454370
 23       0.000019260313
 24      -0.000249428441
 25       0.010193974340
 26       0.020602885039
 27       0.062856306755
 28      -0.009546854965
 29      -0.019261415408
 30      -0.058844219699
 31      -0.031574723343
 32      -0.063875013495
 33      -0.194436161060
 34      -0.101342610956
 35      -0.202655120489
 36      -0.618951367667
 37      -0.003688444530
 38      -0.032262083248
 39       0.021989696491
 40      -0.012557526393
 41      -0.006667132627
 42       0.017651063028
 43       0.010885557958
 44      -0.031445302231
 45       0.012995133528
 46      -0.002280140872
 47       0.033916927268
 48       0.068842797437
 49       0.003373352299
 50      -1.097417326485
 51       1.421616037978
 52       0.013391164611
 53      -0.103978559605
 54      -0.125669179665
 55       0.003230910591
 56      -0.182408847858
 57      -0.260588947205
 58       0.436057591793
 59      -0.445055426237
 60       0.392121252480
 61      -0.001199838868
 62      -0.002539024815
 63      -0.006357757650
 64       0.004935541886
 65       0.012311103513
 66       0.000000670214
 67      -0.000001993056
 68       0.000055908552
 69      -0.000285564197
 70       0.000901143604
 71      -0.002171762918
 72      -0.004688350756
 73      -0.013767598971
 74      -0.001870796972
 75      -0.004158249935
 76      -0.012107494510
 77       0.002096794832
 78       0.004697812429
 79       0.015068754335
 80      -0.003284997674
 81       0.002773459858
 82       0.003635902226
 83      -0.000891569841
 84       0.001699399610
 85      -0.017163223997
 86       0.066964350740
 87      -0.007175493690
 88       0.012473477886
 89       0.021955599020
 90      -0.043735299849
 91       0.198262146570
 92      -0.004542213926
 93       0.010391921717
 94       0.005278785979
 95      -0.052614927521
 96      -0.285596950460
 97       0.005355532727
 98       0.007139109126
 99      -0.007805451426
100      -0.062742828898
101      -0.302544840769
102      -0.009675195455
103      -0.003469924663
104      -0.001029665220
105       0.063095401182
106       0.305564990597
107       0.008617447772
108       0.001305808528
109      -0.005566323225
110       0.052941631097
111       0.287267462239
112      -0.006660101270
113      -0.009828119935
114      -0.000229069337
115       0.043185416341
116      -0.201563344521
117       0.006840725355
118      -0.005813529658
119       0.008735140230
 Sym=     1a
 Ene= 1.75870695120248E-01
 Spin= Alpha
 Occup= 0.000000
  1      -0.004416129757
  2      -0.008533816312
  3      -0.011927327976
  4       0.163788888708
  5       0.183367818370
  6       0.144853065185
  7       0.141351231413
  8      -0.084098984084
  9       0.402394103505
 10       0.325633349341
 11      -0.190638847294
 12       0.149746823240
 13      -0.374770174880
 14       0.096730992611
 15       0.000076059826
 16      -0.000788575175
 17       0.000564521829
 18       0.009555323230
 19       0.004441102215
 20      -0.004982218913
 21      -0.006417876521
 22       0.029788014688
 23       0.011461564925
 24      -1.027936024278
 25       0.004016677562
 26      -0.028639864093
 27       0.007631609441
 28       0.000131697998
 29       0.024501543524
 30      -0.007059680951
 31      -0.083131723206
 32       0.103833899782
 33      -0.016377218554
 34      -0.448283517385
 35      -0.270834396657
 36       0.158999072902
 37      -0.019130735135
 38      -0.017653837751
 39      -0.028648179319
 40      -0.023329023817
 41       0.047013618283
 42      -0.111830700190
 43      -0.024710514011
 44      -0.127016730295
 45      -0.136024321707
 46       0.028873730653
 47      -0.004101902109
 48      -0.007862168419
 49      -0.012752095288
 50       0.158708399847
 51       0.200307165699
 52       0.152010814532
 53       0.150434861922
 54      -0.059469995967
 55       0.416327681505
 56       0.337103147161
 57      -0.159920704100
 58       0.163773410360
 59      -0.349497147130
 60       0.093800928460
 61      -0.000888674929
 62      -0.004944707842
 63       0.004375002950
 64       0.008470966625
 65       0.003111861692
 66      -0.002751589151
 67      -0.009166056050
 68       0.052332037385
 69      -0.191925558965
 70       0.756343143118
 71       0.006937814608
 72      -0.025592488001
 73       0.005600514379
 74       0.032408105249
 75      -0.029439861512
 76       0.002588839340
 77      -0.400965937301
 78      -0.032118061008
 79       0.075098396273
 80      -0.000109316401
 81       0.000910127706
 82       0.000513899887
 83      -0.000225708785
 84      -0.002875866727
 85      -0.032482827697
 86      -0.011703173147
 87       0.022968507756
 88       0.098889038410
 89      -0.041310240001
 90      -0.011425261154
 91      -0.223706047209
 92       0.004694572075
 93       0.005112212227
 94      -0.006730118351
 95       0.057718107802
 96       0.500772354758
 97       0.001511300902
 98       0.000472643453
 99       0.002375877638
100      -0.056677354966
101      -0.461876167009
102       0.006752480347
103      -0.008065748354
104      -0.004274649756
105      -0.060188309705
106      -0.491474788541
107       0.008665118859
108      -0.004544464911
109       0.006089103780
110       0.061268671080
111       0.521425762594
112       0.000653175552
113      -0.000722388181
114      -0.002469699291
115      -0.012269380309
116      -0.228150460853
117       0.006300692790
118       0.008001176540
119       0.000733351012
 Sym=     1a
 Ene= 1.77248767352922E-01
 Spin= Alpha
 Occup= 0.000000
  1      -0.009095325750
  2      -0.019769129293
  3       0.031266208151
  4       0.100451762884
  5      -0.415026398785
  6      -0.103024047604
  7      -0.015028934914
  8       0.047676391180
  9      -0.305333191445
 10      -0.012083359195
 11       0.076615977759
 12      -0.410095813735
 13      -0.641287992410
 14       0.486086045051
 15      -0.003473498374
 16      -0.009364258045
 17      -0.000066828432
 18      -0.031891323301
 19       0.018366483849
 20       0.000070615806
 21       0.000090945000
 22      -0.000422116128
 23      -0.000240102054
 24       0.015996451014
 25      -0.010543704464
 26      -0.020758135204
 27      -0.064467983148
 28       0.009354480899
 29       0.018589135803
 30       0.057828136183
 31       0.041512688046
 32       0.079224386097
 33       0.244999758983
 34      -0.020869259632
 35      -0.053324453773
 36      -0.175780461079
 37      -0.066702963531
 38       0.069873300834
 39       0.067427838745
 40      -0.013636960574
 41       0.037134089194
 42      -0.052239395014
 43       0.078588653174
 44       0.043552470518
 45      -0.001644233897
 46       0.035098124077
 47       0.009205367411
 48       0.019980923397
 49      -0.030907888064
 50      -0.104783465899
 51       0.409359873156
 52       0.105029981701
 53       0.025960468135
 54      -0.000306426397
 55       0.297388024292
 56       0.016136294198
 57      -0.031792277391
 58       0.466959370487
 59       0.771617144222
 60      -0.121103135970
 61      -0.007273499988
 62      -0.005440789929
 63       0.023846902378
 64       0.020946958183
 65      -0.018712526832
 66       0.000068047673
 67       0.000205641500
 68      -0.000944098267
 69       0.002972273448
 70      -0.012786093308
 71      -0.015812166933
 72      -0.031332754466
 73      -0.096526049121
 74      -0.017766572063
 75      -0.034320695368
 76      -0.105770240169
 77       0.002554657580
 78      -0.008448498176
 79      -0.028955764618
 80      -0.000879020811
 81      -0.005460417449
 82       0.004020507967
 83      -0.002265401235
 84      -0.001040171495
 85       0.003111453571
 86      -0.062615149130
 87       0.026773711779
 88      -0.020865267489
 89      -0.015839675360
 90       0.031378736475
 91       0.196661439452
 92      -0.011439540080
 93      -0.011159880576
 94       0.009596649529
 95      -0.117885057136
 96      -0.733265312423
 97       0.003155836281
 98      -0.009436114512
 99       0.008952660111
100       0.117821506440
101       0.938231249707
102      -0.006581146155
103      -0.000454496055
104       0.006810310123
105      -0.116179270362
106      -0.923426496442
107       0.007936619333
108       0.003798486888
109       0.002836640591
110       0.116001556995
111       0.717095237559
112      -0.001332108401
113       0.013136615819
114       0.002356385949
115      -0.030762901555
116      -0.189325821053
117       0.012387816232
118       0.013314885444
119      -0.002410766080
 Sym=     1a
 Ene= 1.99322709907429E-01
 Spin= Alpha
 Occup= 0.000000
  1      -0.000453856536
  2      -0.001132541459
  3       0.003133908244
  4      -0.043211924342
  5       0.590048388141
  6      -0.129762762793
  7       0.063220366897
  8       0.022534323016
  9      -0.271360864630
 10       0.116376726383
 11       0.035194468863
 12       0.894469751313
 13      -0.683406703328
 14      -0.427217215324
 15       0.000988729333
 16       0.000536927798
 17      -0.008465004890
 18       0.015260190285
 19       0.014436228173
 20      -0.003389510699
 21      -0.005061040318
 22       0.019797691286
 23      -0.020847668948
 24       0.189702663508
 25       0.022307794573
 26      -0.046956665243
 27       0.012008902144
 28      -0.054287190481
 29       0.037014694617
 30      -0.003498891276
 31       0.182485447613
 32       0.184851077661
 33      -0.091387057879
 34       0.074191101887
 35      -0.060835522814
 36       0.009592981870
 37      -0.012537834529
 38      -0.012062786019
 39      -0.013877232328
 40      -0.001564928632
 41       0.023219415107
 42      -0.328547685883
 43      -0.083575593389
 44      -0.143004900962
 45       0.133390921535
 46      -0.123191607708
 47      -0.000473334959
 48      -0.001175441145
 49       0.003255788320
 50      -0.043257210207
 51       0.584365220998
 52      -0.136325282316
 53       0.050711093894
 54      -0.017136291458
 55      -0.280593651752
 56       0.100598811953
 57      -0.017599143980
 58       1.039111466443
 59      -0.394626871047
 60       0.466296025229
 61      -0.005056590701
 62      -0.014567524703
 63       0.008113391319
 64       0.006952408208
 65       0.012678285548
 66       0.014094254445
 67       0.035433265325
 68      -0.075758680923
 69       0.010896951545
 70      -0.746390013535
 71      -0.035830053371
 72      -0.051875931394
 73       0.022971845227
 74      -0.059459221623
 75      -0.033314005165
 76       0.020757336386
 77       0.559745962760
 78      -0.006435979880
 79      -0.089225908558
 80       0.004839139804
 81       0.004131318374
 82       0.001462189428
 83      -0.007162886835
 84      -0.004283288538
 85       0.061928240923
 86       0.055789057398
 87      -0.008561954957
 88      -0.156630253233
 89      -0.035101079076
 90      -0.038530989760
 91      -0.641836073812
 92      -0.002194217197
 93      -0.000426019241
 94      -0.013279107165
 95       0.025692205205
 96       0.240782894418
 97       0.007773831752
 98      -0.013024538961
 99      -0.004563180463
100       0.003893069986
101      -0.004154353043
102       0.010616493399
103      -0.007065488864
104      -0.006073912981
105       0.004235497509
106      -0.000205862678
107       0.012510867330
108      -0.003254455132
109       0.005642667928
110       0.025498729736
111       0.240315797412
112       0.009946522622
113      -0.008679067504
114       0.008744260424
115      -0.038208319456
116      -0.639595469243
117       0.001747067114
118       0.007481744920
119       0.011007498924
 Sym=     1a
 Ene= 2.09254160683072E-01
 Spin= Alpha
 Occup= 0.000000
  1      -0.002981672844
  2      -0.005981760983
  3       0.008419957602
  4       0.107469440903
  5      -1.605643778520
  6      -0.033395995157
  7       0.203044427027
  8       0.059061777152
  9      -0.113226184467
 10       0.511484727238
 11       0.144897033344
 12       0.406649535072
 13       0.141559941517
 14      -0.092478174013
 15      -0.002592126999
 16      -0.009745514010
 17       0.013826943943
 18       0.005793377677
 19      -0.010720588877
 20      -0.000016774971
 21      -0.000019830424
 22       0.000102831951
 23      -0.000138219041
 24      -0.000076323994
 25      -0.000131631818
 26      -0.000580423739
 27      -0.001741648721
 28      -0.001912902425
 29      -0.003413835288
 30      -0.010383787263
 31       0.016873094853
 32       0.034003738750
 33       0.103209278957
 34      -0.160508626559
 35      -0.320878760070
 36      -0.975059111129
 37      -0.011753389912
 38      -0.054930044145
 39       0.045027287033
 40      -0.024205481771
 41      -0.009859003382
 42       0.064839389097
 43      -0.089862074365
 44      -0.054626355788
 45       0.006940282632
 46      -0.042582084028
 47       0.002978310698
 48       0.005972157964
 49      -0.008363987173
 50      -0.107827302682
 51       1.607287543554
 52       0.067953467600
 53      -0.133265288674
 54       0.153059896934
 55       0.198025919490
 56      -0.340597731785
 57       0.374331331465
 58      -0.393119160697
 59      -0.128257974917
 60       0.127771523930
 61      -0.001637276349
 62      -0.012306545068
 63       0.003474166429
 64      -0.015203287601
 65       0.006555222115
 66       0.000009477408
 67       0.000023760573
 68      -0.000046172000
 69      -0.000011982358
 70      -0.000282218390
 71       0.013038343716
 72       0.026530909076
 73       0.081339859059
 74       0.012018139795
 75       0.024629721375
 76       0.075282315603
 77       0.033531970864
 78       0.066296429444
 79       0.202452771303
 80      -0.002060164979
 81       0.002666494696
 82       0.001847258144
 83      -0.000287220370
 84       0.001291737568
 85      -0.005253208322
 86      -0.087702240635
 87       0.051701877903
 88      -0.031749250164
 89      -0.020058275853
 90       0.088544174975
 91       0.911883449326
 92       0.010791697251
 93       0.002341697686
 94       0.002522006142
 95       0.028800900967
 96       0.524689506931
 97       0.006971039235
 98       0.014134392919
 99       0.008446154283
100      -0.075152754200
101      -0.364710844952
102      -0.002480331167
103      -0.000723394603
104       0.013374543413
105       0.075003985991
106       0.361263007671
107       0.006199004305
108       0.008136539413
109       0.009118889532
110      -0.028443630567
111      -0.520294479911
112      -0.002822901027
113      -0.005926567269
114       0.016602970455
115      -0.088747625227
116      -0.914165263781
117      -0.009267986122
118       0.000624186532
119       0.006372186822
 Sym=     1a
 Ene= 2.12650200676809E-01
 Spin= Alpha
 Occup= 0.000000
  1      -0.000519614361
  2      -0.000280152222
  3      -0.023082209223
  4       0.116585128065
  5       0.591143091786
  6      -0.061056841511
  7      -0.003632817566
  8       0.013556361922
  9      -0.174628574033
 10      -0.037875151093
 11       0.104102751497
 12      -1.132023609365
 13      -0.953312968607
 14       0.262768516221
 15      -0.008200973584
 16       0.024335990261
 17      -0.000254773810
 18      -0.009050455291
 19       0.013084890014
 20      -0.000251718703
 21      -0.001899881105
 22      -0.000366504063
 23       0.091267244215
 24      -1.005656557632
 25      -0.054911314270
 26      -0.073342689090
 27       0.033260041261
 28       0.088478611645
 29       0.061736326632
 30      -0.034911098951
 31      -0.100613126862
 32       0.280127580316
 33      -0.076472336197
 34       0.548103042165
 35      -0.164258804528
 36      -0.038502912391
 37       0.023485432260
 38       0.013023260148
 39       0.001382012325
 40      -0.037634007438
 41       0.000826400586
 42       0.025468204466
 43       0.016535300794
 44      -0.146544267026
 45      -0.375946072670
 46       0.135770577717
 47      -0.000504080608
 48      -0.000242687650
 49      -0.023071602277
 50       0.115275388794
 51       0.592438280971
 52      -0.060683178334
 53      -0.005340757087
 54       0.011045581860
 55      -0.190125674355
 56      -0.075093686191
 57      -0.002967669476
 58      -1.054749115412
 59      -0.828841409167
 60       0.675238834658
 61       0.011602377552
 62      -0.022792649959
 63      -0.007437744178
 64      -0.013344549720
 65      -0.004627470161
 66      -0.002890305467
 67      -0.007678718878
 68       0.021123494201
 69      -0.055275985958
 70       0.487012221367
 71       0.059005476728
 72       0.021248668651
 73      -0.016847021662
 74       0.058102442423
 75      -0.010032309770
 76      -0.006363192586
 77      -0.422757662607
 78       0.016593124124
 79       0.062860750990
 80      -0.005288249214
 81      -0.002180887608
 82      -0.000394292547
 83       0.007488061861
 84      -0.001834331100
 85      -0.120685403114
 86      -0.039303168624
 87      -0.019825143014
 88       0.134256685885
 89      -0.055698353589
 90      -0.022889065282
 91      -0.294169303986
 92      -0.020465899057
 93      -0.011995882023
 94       0.002578685885
 95      -0.064160737807
 96      -1.219737226237
 97      -0.016376470296
 98      -0.011091905837
 99      -0.015703130691
100       0.055115465948
101       0.996728404693
102      -0.008208205867
103      -0.004867102338
104       0.011630995074
105       0.055870071501
106       1.003273660894
107      -0.010528425266
108      -0.009965144486
109      -0.003642089699
110      -0.063065477186
111      -1.209738424436
112      -0.010010664763
113       0.001503775562
114       0.023179207020
115      -0.023709480010
116      -0.302923011707
117      -0.019024794698
118      -0.009386900301
119       0.010808098856
 Sym=     1a
 Ene= 2.20403852671889E-01
 Spin= Alpha
 Occup= 0.000000
  1       0.005692790910
  2       0.011867405540
  3       0.009097607192
  4      -0.340212354945
  5       0.423166144250
  6       0.089309745731
  7      -0.037425006707
  8      -0.130800766038
  9       0.182088755388
 10      -0.072423503620
 11      -0.341964590771
 12       0.638551935472
 13      -0.541996131779
 14       0.912079047574
 15      -0.023638712413
 16      -0.017955308861
 17       0.003332021428
 18       0.007789684870
 19       0.009878355866
 20      -0.000002474850
 21      -0.000011507543
 22       0.000005209061
 23       0.000399226158
 24      -0.003638583343
 25      -0.005911770898
 26      -0.011824031922
 27      -0.034634115301
 28       0.005086202176
 29       0.009829523985
 30       0.028737249568
 31       0.027941457274
 32       0.058562169385
 33       0.173223084146
 34       0.050146430118
 35       0.092488106754
 36       0.283354984444
 37      -0.020749183175
 38      -0.045034975780
 39       0.054327448896
 40      -0.026257430705
 41      -0.004755144696
 42       0.007941997537
 43      -0.159551129349
 44       0.066228645478
 45      -0.048911916603
 46      -0.041544347681
 47      -0.005712719658
 48      -0.011901373833
 49      -0.009322353240
 50       0.341658211030
 51      -0.414750861637
 52      -0.127070695291
 53      -0.037131118574
 54      -0.095926772210
 55      -0.281039218986
 56      -0.123073062433
 57      -0.251116570809
 58      -0.408929477607
 59       1.018397002673
 60       0.574585851722
 61       0.012000535345
 62       0.004084993833
 63       0.021161524945
 64      -0.018769230442
 65      -0.009698410780
 66      -0.000000483800
 67      -0.000000844684
 68      -0.000009773042
 69      -0.000052073031
 70       0.000521581564
 71       0.009857985481
 72       0.019615742977
 73       0.059107140704
 74       0.008977610878
 75       0.017742012884
 76       0.053855685992
 77       0.022058858401
 78       0.047107524055
 79       0.142766827506
 80       0.000293301084
 81       0.001423422323
 82      -0.001177070044
 83       0.000668141529
 84       0.000251849059
 85       0.015632016727
 86      -0.075615471590
 87       0.012904251828
 88      -0.015264218420
 89      -0.024034572662
 90      -0.039401397780
 91      -0.346861506884
 92       0.011863273126
 93      -0.004158982085
 94       0.010758579876
 95       0.120371748785
 96       0.789377386045
 97      -0.002794288429
 98      -0.010193240245
 99       0.000184004646
100       0.048203830696
101       0.320587355470
102       0.013492356718
103      -0.007165552604
104      -0.000077485381
105      -0.047520860971
106      -0.310850565718
107      -0.013660044982
108       0.006941308303
109      -0.000311361553
110      -0.121124514520
111      -0.802574229460
112       0.001654614828
113       0.008110756819
114      -0.006312695302
115       0.038931182834
116       0.342175359165
117      -0.008806124374
118       0.010612280130
119       0.009333965179
 Sym=     1a
 Ene= 2.35241288223505E-01
 Spin= Alpha
 Occup= 0.000000
  1       0.001918093016
  2       0.003719339260
  3       0.010132921373
  4      -0.163305949391
  5       0.323098831269
  6      -0.144038787843
  7      -0.101825606989
  8       0.012894428177
  9      -0.374159084101
 10      -0.245245251851
 11       0.018581481979
 12       1.299354729072
 13       0.574750449711
 14      -0.079093562315
 15       0.001311195694
 16      -0.018349676710
 17      -0.006547837699
 18       0.006989146547
 19      -0.005398711337
 20      -0.000011785045
 21      -0.000015318258
 22       0.000069762366
 23       0.000120822397
 24      -0.002722857521
 25       0.000639952436
 26       0.001424007849
 27       0.004518347272
 28      -0.000497092994
 29      -0.001363760245
 30      -0.004343216067
 31      -0.000904036041
 32      -0.000516495338
 33      -0.002181784954
 34       0.009445267979
 35       0.018136858720
 36       0.056694470777
 37      -0.013316019636
 38      -0.006165396990
 39       0.023559654545
 40      -0.009379762963
 41       0.002529647092
 42      -0.117934199741
 43       0.176484894137
 44       0.092748569781
 45      -0.008153462280
 46       0.080333155705
 47      -0.001944074147
 48      -0.003774466061
 49      -0.010153966496
 50       0.164043050333
 51      -0.318820015012
 52       0.131464268791
 53       0.076234813738
 54      -0.090695864783
 55       0.338769833845
 56       0.173812617601
 57      -0.235903020558
 58      -1.211486576900
 59      -0.390160515378
 60       0.647822637818
 61       0.014583327393
 62      -0.011318286980
 63      -0.002936721088
 64      -0.008046320829
 65      -0.006926044874
 66      -0.000028118682
 67      -0.000068677780
 68       0.000116710737
 69       0.000070146890
 70       0.001917480361
 71       0.010603118062
 72       0.021491575542
 73       0.064865667448
 74       0.006749162754
 75       0.013722964068
 76       0.041295957714
 77       0.006253602213
 78       0.015781794624
 79       0.048349120581
 80       0.002493764742
 81       0.000865043347
 82      -0.004239872074
 83       0.001674752666
 84      -0.000549618969
 85      -0.015902320895
 86      -0.072268978030
 87       0.059564280388
 88      -0.031530459679
 89      -0.013054195829
 90      -0.012528634856
 91      -0.111806342666
 92       0.010340398309
 93       0.004123915982
 94       0.000061846895
 95       0.013544547324
 96       0.384185845122
 97       0.008880837321
 98       0.000441477314
 99       0.009863953385
100       0.025750719045
101      -0.207764513874
102       0.002588937907
103       0.002239609266
104      -0.014584829562
105      -0.025593836353
106       0.208725954581
107      -0.006487217006
108      -0.009999268957
109      -0.009069616141
110      -0.013818811711
111      -0.389319363219
112      -0.005650652468
113       0.006218033335
114       0.010390956882
115       0.012388521225
116       0.110796516063
117      -0.009498309727
118      -0.002381434988
119       0.005417590108
 Sym=     1a
 Ene= 2.52575599359597E-01
 Spin= Alpha
 Occup= 0.000000
  1      -0.011301722204
  2      -0.026631312855
  3       0.060585028517
  4       0.019929046142
  5       0.860027233276
  6       0.095225345285
  7       0.060222681070
  8       0.175322537832
  9       0.169319955711
 10       0.172281452332
 11       0.333242247874
 12      -0.233857363495
 13      -0.059979796132
 14      -0.895477248658
 15      -0.003523463501
 16      -0.003836119106
 17      -0.025444514994
 18      -0.005098985411
 19      -0.007531779517
 20      -0.013577781372
 21      -0.012941777474
 22       0.086110280143
 23      -0.169631042164
 24       0.072132763509
 25      -0.001571722773
 26       0.074598113405
 27      -0.024263532007
 28       0.013755197492
 29      -0.066585370303
 30       0.019654491725
 31      -0.071157560627
 32      -0.258560819923
 33       0.096452261825
 34      -0.369067446512
 35       0.224396931742
 36      -0.013447691341
 37       0.074647701696
 38       0.033358146929
 39       0.073755256101
 40       0.043812603023
 41      -0.044221951129
 42       0.163503075742
 43       0.096312688102
 44       0.139164748001
 45       0.015220980116
 46      -0.129498542770
 47      -0.011246054173
 48      -0.026519559020
 49       0.060678628244
 50       0.017271348809
 51       0.862667644520
 52       0.034924122257
 53      -0.061850402181
 54      -0.195756930135
 55       0.049658989963
 56      -0.069587418471
 57      -0.401869429585
 58       0.041086555328
 59       0.492803592742
 60       0.779599776810
 61      -0.023340153272
 62       0.000728944275
 63       0.002359829113
 64      -0.014360435642
 65      -0.000325766836
 66      -0.010885716000
 67      -0.025918039756
 68       0.034863684520
 69       0.102471204460
 70       0.339869855923
 71      -0.048436801979
 72       0.070379509803
 73      -0.015425047770
 74      -0.057621988587
 75       0.083301336697
 76      -0.018166627097
 77      -0.243969922301
 78       0.020789556562
 79       0.032515007135
 80       0.004501432126
 81      -0.001912655796
 82       0.002252329639
 83       0.002804247417
 84       0.008483576644
 85       0.054854387118
 86      -0.012350043073
 87       0.041940967839
 88       0.053070205141
 89       0.064688397126
 90      -0.070134653377
 91      -0.472674736726
 92       0.007808739473
 93      -0.002519726779
 94       0.000036326077
 95      -0.019134858979
 96      -0.270220508748
 97      -0.001576848506
 98       0.001252152323
 99      -0.001373277302
100       0.011079904094
101      -0.508073313403
102      -0.005413253953
103      -0.000547528756
104      -0.014140392967
105       0.011127939233
106      -0.509426332780
107      -0.001020692883
108       0.008265562666
109       0.012662851866
110      -0.018696665065
111      -0.267973181894
112      -0.001252443634
113       0.001963538872
114       0.000766118563
115      -0.070049742747
116      -0.470852019147
117       0.007730822658
118      -0.002806480151
119      -0.000871779066
 Sym=     1a
 Ene= 2.60785444216328E-01
 Spin= Alpha
 Occup= 0.000000
  1       0.015470014963
  2       0.030842062046
  3       0.039393735470
  4      -0.699927142336
  5      -1.336442795566
  6      -0.016516755539
  7       0.084768688446
  8       0.032595012949
  9      -0.138669764899
 10       0.169393247281
 11      -0.041642238907
 12      -0.118838470278
 13      -0.753666219378
 14       0.197140072421
 15      -0.012564838884
 16      -0.011510395869
 17       0.006888138399
 18      -0.006133693191
 19       0.010028083822
 20       0.020289393469
 21       0.023607219457
 22      -0.124702034730
 23       0.138715877991
 24       0.398088737483
 25      -0.047417519965
 26       0.081884951662
 27      -0.019133232763
 28       0.063121042130
 29      -0.051663399895
 30       0.006651391313
 31       0.081832426114
 32      -0.487561671784
 33       0.146705874618
 34      -0.488893944943
 35       1.798366660977
 36      -0.511644553826
 37       0.019268218208
 38       0.004018664003
 39       0.028292376372
 40       0.037950849476
 41      -0.009792487678
 42       0.117830811008
 43       0.072382169270
 44      -0.014645045252
 45      -0.251514044666
 46       0.008180608078
 47       0.015459735959
 48       0.030818317447
 49       0.039429324083
 50      -0.699701162686
 51      -1.335888101409
 52      -0.032993404953
 53       0.051178942596
 54      -0.069171228185
 55      -0.136115597769
 56       0.173971387178
 57      -0.026438158915
 58      -0.099315470554
 59      -0.714245849797
 60       0.321588848668
 61       0.000454646585
 62       0.001050849591
 63      -0.019138033244
 64       0.005015959987
 65       0.009138757984
 66       0.002010399955
 67       0.004713881605
 68      -0.006210962027
 69      -0.020751485025
 70       0.334245568198
 71       0.095049029400
 72      -0.018473828803
 73      -0.009299341343
 74       0.081171530501
 75       0.003292619128
 76      -0.014188417793
 77      -0.068338818584
 78      -0.310811556284
 79       0.113369213795
 80      -0.001868732502
 81      -0.003011322544
 82       0.000597539214
 83       0.007257818875
 84       0.003845068524
 85       0.008934285050
 86      -0.083040477427
 87      -0.028415068847
 88       0.035522031992
 89       0.231468027454
 90       0.054786747866
 91       0.580669056415
 92      -0.001572400987
 93      -0.007247462979
 94       0.000158705762
 95       0.030403998714
 96       0.326881279489
 97      -0.000653817050
 98      -0.006642123354
 99       0.006778470460
100       0.075320462258
101       0.842753673625
102       0.004349876094
103      -0.007020878267
104       0.015831606366
105       0.075412465291
106       0.844011671579
107       0.000289057539
108      -0.015278668342
109      -0.009258618625
110       0.030278625018
111       0.325899824460
112      -0.001952153140
113      -0.009247494667
114      -0.001125404931
115       0.054702485190
116       0.579611714341
117      -0.000873939457
118      -0.005821976287
119       0.004531186447
 Sym=     1a
 Ene= 3.01361862561539E-01
 Spin= Alpha
 Occup= 0.000000
  1      -0.003113811388
  2      -0.007929694802
  3       0.037683595152
  4      -0.146114987986
  5      -0.352838219401
  6      -0.001484339541
  7      -0.061087966754
  8       0.084609821779
  9       0.010592376298
 10      -0.166694984140
 11       0.079247591737
 12       0.767353763723
 13       0.368187195728
 14      -0.699918683310
 15       0.003368443176
 16      -0.000317973453
 17       0.018622438751
 18       0.015209266297
 19       0.007931008011
 20      -0.002162843736
 21      -0.002316290842
 22       0.013260646517
 23       0.091719963008
 24      -2.088529514557
 25      -0.099028635836
 26       0.029457796669
 27       0.006304144559
 28       0.146497396044
 29      -0.028713502502
 30      -0.014304551924
 31      -0.063512291974
 32      -0.130274006852
 33       0.053947937015
 34      -3.157900434168
 35       0.052245707555
 36       0.490890792256
 37      -0.042061318192
 38      -0.003890985446
 39      -0.066114570854
 40      -0.099541210740
 41       0.013670528007
 42       0.118464210625
 43       0.246214003847
 44      -0.177358774363
 45      -0.844023167682
 46      -0.241486428541
 47      -0.003225726533
 48      -0.008154100459
 49       0.037413158157
 50      -0.140563175168
 51      -0.348550451356
 52      -0.020317994807
 53      -0.097669321355
 54      -0.028743663321
 55       0.002462587076
 56      -0.180750867088
 57       0.032380011349
 58       0.904564836735
 59       0.626798168441
 60       0.111417968347
 61       0.014356555069
 62      -0.003358328804
 63       0.003490835022
 64       0.020223366698
 65       0.003960572049
 66      -0.013918959179
 67      -0.039405573189
 68       0.149525859489
 69      -0.448281814678
 70       3.537000172075
 71       0.135676037990
 72      -0.064958198508
 73      -0.000719944271
 74       0.150189913013
 75      -0.086497412527
 76       0.003958923101
 77      -1.681688027344
 78      -0.080342604257
 79       0.300981262836
 80      -0.010592186247
 81      -0.005770066276
 82      -0.004332088505
 83       0.008930878248
 84       0.002910094302
 85      -0.221346778717
 86      -0.139241563249
 87      -0.066375183352
 88       0.264965080040
 89       0.079671496035
 90       0.025916889523
 91      -0.128566847399
 92      -0.004152450080
 93       0.003513485386
 94      -0.012620500986
 95       0.040234632638
 96       0.466970533172
 97       0.007157372119
 98      -0.004941318198
 99       0.003062313618
100      -0.048930175330
101      -0.242411472317
102       0.011674500181
103      -0.002373185880
104       0.006668388916
105      -0.049254524157
106      -0.242488709706
107       0.009503060271
108      -0.006914890880
109      -0.007028083978
110       0.039844591324
111       0.466581736794
112       0.006473796487
113      -0.006511286445
114      -0.001480517258
115       0.025294899776
116      -0.138526264001
117      -0.000716378528
118       0.010670975325
119       0.008896861124
 Sym=     1a
 Ene= 3.16744853602498E-01
 Spin= Alpha
 Occup= 0.000000
  1      -0.013507662166
  2      -0.026295897263
  3      -0.057399513605
  4       0.822698043058
  5       1.203359217983
  6      -0.065886928278
  7       0.069588228578
  8      -0.079579106169
  9      -0.020635096807
 10       0.144487882918
 11      -0.060918842844
 12       0.879540267631
 13      -2.053277338949
 14      -1.032381708797
 15       0.011863133102
 16       0.012562618781
 17      -0.012443121627
 18       0.016224963154
 19       0.021430180025
 20       0.000028930585
 21       0.000022137102
 22      -0.000191259043
 23       0.001002508244
 24      -0.009060328998
 25       0.007787248965
 26       0.016587508704
 27       0.051083898794
 28      -0.005065405901
 29      -0.011478458944
 30      -0.035522889722
 31      -0.054104817695
 32      -0.108942166303
 33      -0.333324537846
 34       0.357074423647
 35       0.742154135583
 36       2.265243309655
 37       0.023902400351
 38       0.001951927334
 39      -0.037495160376
 40       0.013361393935
 41      -0.006776481293
 42      -0.167597861232
 43       0.101560523711
 44       0.206242942467
 45      -0.062150901931
 46       0.076064349179
 47       0.013527464140
 48       0.026338332644
 49       0.057401235332
 50      -0.823713492477
 51      -1.206446345802
 52       0.045819104764
 53      -0.109033980299
 54      -0.039098171069
 55       0.014578416801
 56      -0.155046250187
 57       0.032143877813
 58      -1.323757859417
 59       1.149409789255
 60      -1.724967317694
 61      -0.002257857264
 62       0.023150671334
 63      -0.019780450549
 64       0.000778978140
 65      -0.015551526325
 66      -0.000020243703
 67      -0.000073264642
 68       0.000487316070
 69      -0.002218160263
 70       0.013400843290
 71       0.004913124321
 72       0.008314706906
 73       0.025832449634
 74       0.009251259652
 75       0.016848907938
 76       0.052026399758
 77      -0.063859767287
 78      -0.116306508798
 79      -0.352958268448
 80       0.002374753358
 81       0.000557476734
 82      -0.003956639853
 83       0.001559950931
 84      -0.000603412114
 85      -0.007292302806
 86       0.146775987904
 87      -0.062997310958
 88       0.045631537981
 89       0.038536021053
 90      -0.117963429412
 91      -1.797113814265
 92      -0.012463890710
 93       0.005765815765
 94      -0.022679423561
 95      -0.029392331837
 96       0.107324239545
 97       0.007614497422
 98      -0.017723350619
 99      -0.005730033877
100      -0.044607719202
101       0.088522537676
102       0.011336855756
103      -0.010805600029
104      -0.004814187065
105       0.044535435587
106      -0.087837431744
107      -0.013202077689
108       0.007040325243
109      -0.006662472218
110       0.029448243668
111      -0.105812914393
112      -0.010551849052
113       0.011673357014
114      -0.012512666656
115       0.118153829370
116       1.797441791931
117       0.005909743337
118      -0.018933620139
119      -0.017496276663
 Sym=     1a
 Ene= 3.37114540786533E-01
 Spin= Alpha
 Occup= 0.000000
  1      -0.007249101276
  2      -0.016940027338
  3       0.041982141385
  4       0.078124931174
  5      -0.108956273931
  6       0.103177044144
  7      -0.075291342179
  8       0.023617045069
  9       0.183457977634
 10      -0.265556204190
 11       0.010798588963
 12      -0.674309433178
 13      -0.584753385324
 14      -0.194569317157
 15       0.021243610885
 16       0.002297946579
 17       0.018430566126
 18       0.001375265786
 19       0.025412368329
 20      -0.010041987640
 21      -0.006730039240
 22       0.067186201927
 23      -0.307595246895
 24       2.064685745494
 25       0.051629426441
 26       0.085256166175
 27      -0.035808293474
 28      -0.081958040011
 29      -0.084118736262
 30       0.040497362094
 31       0.101299533653
 32      -0.317241230157
 33       0.084588164585
 34       1.626591969883
 35       0.902062056400
 36      -0.547804896255
 37      -0.115916739637
 38       0.002853306145
 39      -0.056353022573
 40      -0.008107086715
 41      -0.114365719110
 42      -0.644982034177
 43      -0.177844502824
 44      -0.365623578768
 45       0.085137569761
 46      -0.129556199295
 47      -0.007379154483
 48      -0.017254108723
 49       0.042982284905
 50       0.077143402444
 51      -0.116173957202
 52       0.099557132779
 53      -0.084901963296
 54      -0.004263541211
 55       0.197670280712
 56      -0.238281820199
 57       0.093235984823
 58      -0.534721047160
 59      -0.287602503214
 60       0.680321968729
 61       0.029880263644
 62      -0.002693145109
 63       0.007693427847
 64       0.004368017613
 65       0.021506947416
 66       0.001901857293
 67       0.008167022208
 68      -0.068910166469
 69       0.360721656005
 70      -2.094255529617
 71      -0.108902554455
 72       0.050858646660
 73       0.001115868963
 74      -0.120723357018
 75       0.041674320547
 76       0.006250443124
 77       1.023926946669
 78       0.086167871888
 79      -0.196607195988
 80      -0.003323632973
 81      -0.001157082165
 82      -0.008914198660
 83      -0.014903206087
 84       0.006677382209
 85      -0.000171246283
 86       0.049123816070
 87      -0.128482668129
 88      -0.349269115217
 89       0.011410430707
 90       0.020972037175
 91      -0.452197502772
 92      -0.015533192916
 93       0.002810543419
 94      -0.014126840673
 95      -0.019599822066
 96      -0.055954877299
 97      -0.004108900004
 98      -0.014895230133
 99      -0.002618755181
100       0.000976712669
101       0.512625479727
102       0.017616800281
103      -0.015782572919
104       0.015307618311
105       0.000723580513
106       0.508050864300
107       0.013891906166
108      -0.023272305049
109      -0.007569376426
110      -0.019812089068
111      -0.057093530371
112      -0.001773773548
113      -0.010120875227
114       0.011760354859
115       0.020832461361
116      -0.453190772899
117      -0.010972241290
118       0.011828899112
119       0.013482800473
 Sym=     1a
 Ene= 3.55110119756858E-01
 Spin= Alpha
 Occup= 0.000000
  1      -0.025517432764
  2      -0.059143406059
  3       0.134259211520
  4       0.196258470605
  5      -0.975730131906
  6       0.101775313277
  7      -0.024574353434
  8       0.008595094529
  9       0.042796669987
 10       0.070421233684
 11      -0.117278885159
 12      -0.279388361541
 13       0.522230846431
 14      -1.212432481298
 15       0.003509998901
 16      -0.012409162949
 17      -0.006239514679
 18      -0.003268477143
 19       0.002004024322
 20      -0.000025962492
 21      -0.000014862095
 22       0.000176331696
 23      -0.000884783982
 24       0.005770627758
 25      -0.021509329279
 26      -0.043365149988
 27      -0.132949418820
 28       0.016802775795
 29       0.034039801480
 30       0.104556455048
 31       0.115625237583
 32       0.231516855788
 33       0.708438779282
 34      -0.464968500773
 35      -0.944547057663
 36      -2.888890672777
 37      -0.061544274532
 38       0.073704997818
 39       0.056248235788
 40      -0.009504237437
 41       0.036762649552
 42       0.132224282194
 43       0.147520235479
 44      -0.279461389253
 45       0.121514622457
 46      -0.005387033824
 47       0.025474469558
 48       0.059040055635
 49      -0.133932393008
 50      -0.196292315405
 51       0.975018566079
 52      -0.096301373216
 53       0.033788279037
 54       0.021656764005
 55      -0.066645922416
 56      -0.122727529826
 57      -0.035282442378
 58      -0.034760402418
 59      -1.154455786006
 60      -0.697629318914
 61       0.007100359485
 62      -0.007880738177
 63       0.000527417352
 64       0.002408493952
 65      -0.010080945792
 66       0.000010126231
 67       0.000033580623
 68      -0.000198176594
 69       0.000922863142
 70      -0.005769533484
 71       0.004649249897
 72       0.010123251476
 73       0.030278824025
 74       0.002812210450
 75       0.006508158908
 76       0.019282937609
 77       0.052223749999
 78       0.099539249020
 79       0.302498366537
 80       0.002095004352
 81      -0.013139778043
 82       0.003255353526
 83      -0.003161145587
 84      -0.003887160958
 85       0.046098175570
 86      -0.388758593229
 87       0.121725285500
 88      -0.102254577965
 89      -0.110534887162
 90      -0.072515548593
 91      -0.821294883579
 92       0.011327078056
 93       0.004090637060
 94       0.011677083426
 95      -0.037498338683
 96      -0.034131117046
 97       0.001203374754
 98       0.000464278498
 99       0.000813370453
100      -0.066506270084
101      -0.707979261260
102       0.001641413796
103      -0.006773323916
104      -0.003275688615
105       0.066578463983
106       0.712403768175
107      -0.003067309025
108       0.003561448912
109      -0.006000801359
110       0.037367054109
111       0.033659111064
112      -0.000885049087
113       0.000116614117
114       0.001325784647
115       0.072633457914
116       0.817645299520
117      -0.007131918650
118       0.004595806216
119       0.014636922733
 Sym=     1a
 Ene= 4.13677063639356E-01
 Spin= Alpha
 Occup= 0.000000
  1      -0.016846755160
  2      -0.040841906329
  3       0.101895603496
  4      -0.029390381948
  5       2.407879365773
  6      -0.022144967227
  7       0.007318806464
  8      -0.019508743871
  9      -0.114946228499
 10       0.008747634971
 11      -0.177151687318
 12      -0.225592438506
 13       0.023397556181
 14       0.003602238827
 15      -0.001083900496
 16       0.000521544830
 17       0.017427518072
 18      -0.009472068166
 19      -0.001764671369
 20      -0.005072716038
 21      -0.005545995063
 22       0.032177761619
 23      -0.052059508845
 24      -0.097724623719
 25      -0.095248154609
 26       0.053832952377
 27      -0.002139494641
 28       0.049999219080
 29      -0.035731111319
 30       0.003568907043
 31       0.722158974086
 32      -0.339923773184
 33      -0.006104583210
 34      -0.280742746538
 35       0.773614700375
 36      -0.205145439928
 37      -0.014281275152
 38      -0.022676916217
 39      -0.004782038982
 40       0.034088569815
 41       0.037732228812
 42      -0.003801285512
 43      -0.133770998420
 44      -0.089225716092
 45      -0.022409663065
 46       0.390975694450
 47      -0.016856307987
 48      -0.040855682185
 49       0.101787747172
 50      -0.027829857471
 51       2.396149902102
 52      -0.016240076865
 53       0.019062446956
 54       0.017092133093
 55      -0.059708925843
 56       0.119956824514
 57       0.163125012437
 58      -0.218743858593
 59       0.039796007238
 60       0.052880313570
 61       0.014713781824
 62       0.007418113074
 63      -0.010015073317
 64       0.001460140254
 65      -0.004942898435
 66       0.026030394916
 67       0.060647825414
 68      -0.063414046682
 69      -0.360275075210
 70      -0.066964232268
 71      -0.019284776549
 72      -0.114364861747
 73       0.040653601651
 74      -0.116375017036
 75      -0.157536341111
 76       0.070619260336
 77       0.878720933598
 78      -0.150596152948
 79      -0.093810190361
 80      -0.001426941588
 81      -0.001772621354
 82       0.000131451088
 83       0.004121708612
 84       0.001980268301
 85       0.083209291731
 86      -0.048357986421
 87      -0.051983805296
 88      -0.140801863106
 89       0.275970253762
 90      -0.014340828565
 91      -0.913529671376
 92      -0.008527834039
 93      -0.001647752687
 94      -0.003329564670
 95      -0.098364999037
 96      -1.267587100410
 97       0.004539375954
 98       0.003546590994
 99       0.007505729440
100      -0.076993360293
101      -1.047673515037
102      -0.005102079133
103       0.000531800347
104       0.016355914013
105      -0.076912384907
106      -1.044768644802
107      -0.009599842791
108      -0.008586899767
109      -0.011359275754
110      -0.098316344071
111      -1.265561328029
112       0.001852249311
113      -0.001917802833
114      -0.009047430383
115      -0.014439905958
116      -0.913464835436
117      -0.007036019692
118       0.001372264895
119       0.005939055560
 Sym=     1a
 Ene= 4.31105213546217E-01
 Spin= Alpha
 Occup= 0.000000
  1      -0.003930945040
  2      -0.007692072153
  3      -0.011702515411
  4       0.196886971339
  5      -0.023171919934
  6      -0.008120734821
  7       0.021601638755
  8       0.059345455714
  9      -0.136795241471
 10       0.026934080767
 11       0.242283280199
 12      -0.450789353777
 13       0.050190983675
 14       0.088571911193
 15      -0.034675248692
 16       0.019630943101
 17       0.008912056243
 18       0.017696191670
 19      -0.003739632569
 20      -0.015706766500
 21      -0.013155311410
 22       0.103271266636
 23      -0.291489963572
 24       0.589802227721
 25       0.119046287261
 26       0.057125420783
 27      -0.037920368126
 28      -0.117687120160
 29      -0.043522810924
 30       0.033312690671
 31      -0.455370752501
 32      -0.298981324648
 33       0.170975444498
 34       1.113674102141
 35       0.701281238604
 36      -0.395743427509
 37       0.022696495043
 38      -0.045380379823
 39      -0.032455322409
 40      -0.036724425028
 41       0.169741799748
 42       0.173671367616
 43      -0.205689816495
 44      -0.185834341887
 45      -0.336630653869
 46       0.902167228180
 47      -0.003962863142
 48      -0.007719180649
 49      -0.012401322581
 50       0.205393483124
 51      -0.087066306440
 52      -0.027076318950
 53      -0.017325209225
 54      -0.055300339381
 55      -0.203626343712
 56      -0.108856177696
 57      -0.161647177808
 58      -0.460869686703
 59       0.039619359990
 60       0.053927793713
 61      -0.003537996630
 62      -0.027714785684
 63      -0.014993492095
 64       0.019494907884
 65      -0.025089226798
 66      -0.016488751743
 67      -0.036159921613
 68      -0.001909345147
 69       0.487093322463
 70      -0.883391593388
 71      -0.069420816891
 72      -0.126012156380
 73       0.052373432000
 74      -0.055750640410
 75      -0.158863695179
 76       0.060874868151
 77       0.000705456815
 78      -0.417609056668
 79       0.135217670987
 80       0.006306792903
 81       0.009756527099
 82       0.003296371867
 83      -0.011901061778
 84      -0.017290186096
 85       0.084820130596
 86       0.034295302299
 87      -0.017882983731
 88      -0.172433192670
 89       0.052671327198
 90      -0.014367606715
 91       0.278857939405
 92       0.000469201785
 93      -0.006734219182
 94       0.011932784132
 95       0.057014011707
 96      -0.349754782297
 97      -0.017481885341
 98       0.011932636761
 99      -0.029778404069
100      -0.044683880419
101      -0.091079021498
102       0.009153799129
103      -0.004393935333
104       0.029259773449
105      -0.044219785897
106      -0.072562213023
107       0.000748888204
108      -0.021429309636
109      -0.022482122421
110       0.057344012102
111      -0.339319059623
112      -0.009214313345
113       0.028495549996
114       0.020893981375
115      -0.014616350332
116       0.281341108901
117      -0.002396354750
118      -0.012543286484
119      -0.005361019174
 Sym=     1a
 Ene= 4.38981983306792E-01
 Spin= Alpha
 Occup= 0.000000
  1       0.006754607698
  2       0.011952010024
  3       0.036465002022
  4      -0.716183006472
  5       4.756414788050
  6       0.049614202940
  7       0.116436889928
  8      -0.052307135912
  9       0.164912227663
 10       0.230121352123
 11      -0.201733162546
 12       0.664911567777
 13       0.754270773273
 14       1.779394162690
 15       0.019061661006
 16      -0.018242381543
 17      -0.014635911067
 18      -0.020878873502
 19      -0.007688447411
 20       0.000069650213
 21       0.000055895488
 22      -0.000460798098
 23       0.001458302142
 24      -0.004595593267
 25       0.006877491373
 26       0.014405385497
 27       0.044793217001
 28      -0.004363393268
 29      -0.009478753122
 30      -0.029611432059
 31      -0.043597927580
 32      -0.088912091024
 33      -0.275393335559
 34       0.372840342486
 35       0.762114980274
 36       2.332788119204
 37      -0.082845431556
 38       0.187829337319
 39       0.033046055095
 40       0.015942670261
 41       0.071136722255
 42      -0.486064693282
 43       0.527262832543
 44       0.478217052613
 45      -0.092798580401
 46       0.275634347050
 47      -0.006693607429
 48      -0.011821887481
 49      -0.036497712977
 50       0.714022241841
 51      -4.756799860763
 52      -0.050642766019
 53      -0.119700569626
 54       0.042318752785
 55      -0.190537925203
 56      -0.286610935484
 57       0.028158913958
 58      -0.044932167281
 59       0.481959853746
 60       1.984592854979
 61       0.008713569253
 62      -0.026161478967
 63      -0.005249414992
 64       0.021352084947
 65      -0.011685782877
 66       0.000042197146
 67       0.000089188385
 68       0.000070095717
 69      -0.001709820215
 70       0.004762655284
 71      -0.016375857382
 72      -0.033015293007
 73      -0.102709786000
 74      -0.020973606326
 75      -0.042092387504
 76      -0.131058051593
 77      -0.059544341906
 78      -0.115864004747
 79      -0.358414766777
 80       0.008594755799
 81      -0.013738239438
 82      -0.006344261294
 83       0.000295943662
 84      -0.005967076778
 85       0.058894321338
 86       0.006480207599
 87      -0.093388737265
 88       0.035556770677
 89      -0.016707137618
 90       0.058653266138
 91       0.206758559409
 92       0.007928087651
 93       0.010088485254
 94      -0.013788769229
 95      -0.024099352416
 96      -0.554222757959
 97      -0.001342330612
 98       0.011300766182
 99       0.009256272822
100      -0.037291498531
101      -1.593070072426
102      -0.007378841504
103       0.001996862900
104      -0.010636277079
105       0.037597220079
106       1.592904082239
107       0.004195833700
108      -0.008275292683
109      -0.008893481432
110       0.023939976914
111       0.560879359219
112       0.005102859156
113      -0.004138259470
114       0.013106236050
115      -0.058583177271
116      -0.209736403291
117      -0.010494177993
118      -0.015307036448
119      -0.002365963986
 Sym=     1a
 Ene= 4.79240195268926E-01
 Spin= Alpha
 Occup= 0.000000
  1      -0.002433370416
  2      -0.003384303136
  3      -0.029959692580
  4       0.336623933106
  5      -1.822893067566
  6       0.053585892840
  7      -0.009561194395
  8       0.131521381397
  9       0.160717150469
 10      -0.037763529590
 11       0.378032424168
 12      -0.014705445127
 13       0.318569886364
 14      -0.272033329333
 15      -0.012654689071
 16      -0.006236521048
 17      -0.008653860606
 18       0.000903910148
 19       0.002354501434
 20       0.001095717243
 21       0.002896437281
 22      -0.005709313857
 23      -0.093916959254
 24       2.218322863542
 25      -0.064787441530
 26       0.014474443306
 27       0.005736419365
 28       0.017900930671
 29      -0.023086335806
 30       0.004676521136
 31       0.630064753700
 32       0.038299913919
 33      -0.114432691388
 34       0.112659109476
 35      -0.188041383667
 36       0.049153232619
 37      -0.012595478363
 38      -0.050354928675
 39      -0.026214921636
 40       0.020772631626
 41       0.123149749966
 42      -0.207090545142
 43      -0.216096806282
 44      -0.067762056266
 45       0.345102542946
 46       0.273424223775
 47      -0.002428995645
 48      -0.003325233599
 49      -0.030954757237
 50       0.345272344174
 51      -1.875844315795
 52       0.014993214658
 53      -0.089355442554
 54      -0.110356608445
 55       0.050078836813
 56      -0.266290906104
 57      -0.314210016892
 58       0.040407087055
 59       0.423036297253
 60       0.044410928235
 61      -0.013217908409
 62      -0.004309660972
 63      -0.008599850746
 64       0.001121532384
 65       0.003217135746
 66       0.011486268855
 67       0.026671188483
 68      -0.030147663591
 69      -0.070945175812
 70      -1.002434821735
 71      -0.106428896210
 72       0.053721855116
 73       0.000111968406
 74      -0.231385695056
 75       0.109503774043
 76       0.002181816810
 77       1.434789370915
 78      -0.142449430420
 79      -0.185675323535
 80      -0.012968165890
 81      -0.003081914996
 82       0.001236207788
 83       0.020668781555
 84      -0.011909395254
 85      -0.052051232678
 86       0.063799588798
 87       0.045494013916
 88       0.075264382302
 89      -0.266548988158
 90       0.043554532779
 91       0.788543130489
 92       0.003475568369
 93      -0.000316356637
 94      -0.002080235312
 95       0.070573030319
 96       0.652033105215
 97       0.000928061996
 98      -0.003098201947
 99       0.004879470303
100       0.064574652983
101       0.423652958576
102      -0.000484770481
103       0.002210596617
104      -0.006092516628
105       0.065028939290
106       0.435714859423
107       0.001180837005
108       0.005332882953
109       0.003539143909
110       0.070930179669
111       0.668809720069
112      -0.000221132555
113      -0.005571244183
114      -0.002254172914
115       0.043540652028
116       0.790593669512
117       0.003962167438
118       0.000774295111
119       0.000792680869
 Sym=     1a
 Ene= 4.84393875859820E-01
 Spin= Alpha
 Occup= 0.000000
  1      -0.002189503389
  2      -0.011776109905
  3       0.145430274701
  4      -1.146982477453
  5       6.887862401555
  6      -0.115860602869
  7       0.035935858017
  8      -0.012191669223
  9      -0.339476116177
 10       0.076493819589
 11      -0.208979751376
 12      -0.243221346863
 13       0.677002004842
 14       2.421898461615
 15      -0.026917868054
 16       0.016026313793
 17       0.010463056109
 18       0.006217452829
 19      -0.018550996328
 20       0.000015668334
 21       0.000004866253
 22      -0.000110006932
 23       0.000740237206
 24      -0.008904546308
 25      -0.002372462106
 26      -0.005246976069
 27      -0.015556708185
 28       0.000599890418
 29       0.001382117248
 30       0.003803856614
 31       0.028421271464
 32       0.061523151769
 33       0.186060361692
 34       0.185746898976
 35       0.379495694559
 36       1.159517808196
 37       0.070774764258
 38      -0.077035342242
 39      -0.069229659611
 40       0.013561971797
 41      -0.041755505717
 42       0.231369875035
 43      -0.643915488168
 44      -0.031104550133
 45      -0.084099222976
 46      -0.233099629107
 47       0.002226627010
 48       0.011841539029
 49      -0.145207182876
 50       1.143898280807
 51      -6.875213176438
 52       0.110594802578
 53      -0.046152760129
 54      -0.021008435373
 55       0.271685440739
 56      -0.212146929768
 57      -0.210492793651
 58       0.993067158508
 59       0.830498885299
 60       2.167226421391
 61       0.002802206755
 62       0.010433632351
 63       0.013475939251
 64      -0.010960901888
 65       0.032564917601
 66      -0.000025687804
 67      -0.000063351108
 68       0.000138463722
 69      -0.000316776789
 70       0.004654207004
 71       0.022591630527
 72       0.044818223198
 73       0.136447688575
 74       0.029264016888
 75       0.057276205236
 76       0.174716848834
 77       0.028357783744
 78       0.068098758754
 79       0.205706115770
 80       0.006313658776
 81       0.012037171204
 82      -0.015487220780
 83       0.007279340639
 84       0.001125424720
 85       0.190227440191
 86      -0.187180037523
 87      -0.196151948448
 88       0.043081180236
 89      -0.103733728949
 90      -0.007425987594
 91      -0.295065560880
 92      -0.000949780222
 93      -0.014442669971
 94       0.016254010976
 95      -0.058048258902
 96      -2.350786695205
 97      -0.002743326164
 98       0.010760436866
 99      -0.015938318002
100      -0.061818349204
101      -1.476369312994
102      -0.012567374047
103       0.006057773958
104       0.005895846259
105       0.061134590062
106       1.470847731889
107       0.014221047117
108      -0.002670191517
109       0.004337606387
110       0.057640616147
111       2.349569963895
112      -0.000896268617
113      -0.018171004156
114      -0.006678611036
115       0.007285889363
116       0.290065919157
117       0.004194735937
118       0.021065171921
119       0.003749810500
 Sym=     1a
 Ene= 5.54976358611159E-01
 Spin= Alpha
 Occup= 0.000000
  1       0.002330016660
  2       0.005947046662
  3      -0.026209216763
  4       0.164529778414
  5      -0.607581064764
  6       0.037300971246
  7       0.028908401071
  8       0.008135884641
  9       0.014254776964
 10       0.052286803326
 11       0.145371140417
 12      -0.097617587727
 13       0.004075390830
 14       0.243764808415
 15      -0.002527519226
 16       0.015227998215
 17      -0.012095766078
 18      -0.004572758409
 19      -0.009776549940
 20       0.004110735891
 21       0.001194698966
 22      -0.030144288453
 23       0.189423778426
 24      -0.218278988664
 25       0.062375155065
 26      -0.059546452931
 27       0.009401737890
 28      -0.029496889613
 29       0.040625553626
 30      -0.008527947065
 31      -0.450030598103
 32       0.432910222664
 33      -0.068980835084
 34       0.911058476930
 35      -0.831965376153
 36       0.123881138991
 37       0.002246866911
 38       0.016364072162
 39       0.029024508855
 40       0.041373653755
 41      -0.062344109822
 42       0.157277335684
 43      -0.000081723084
 44       0.024543052327
 45      -0.109191799067
 46       0.193875151472
 47       0.002345654453
 48       0.005980064938
 49      -0.026247138737
 50       0.163721173488
 51      -0.601741435675
 52       0.030411232722
 53       0.015223107804
 54      -0.033706191802
 55      -0.033109782470
 56      -0.043170915897
 57      -0.145297928995
 58      -0.164032671476
 59      -0.129382075343
 60      -0.163131317943
 61      -0.006229347047
 62      -0.006998562597
 63       0.004548708358
 64      -0.013853908880
 65      -0.014182961647
 66      -0.010245302668
 67      -0.021810807924
 68      -0.018026141935
 69       0.393446787183
 70      -0.552177839635
 71      -0.098613019610
 72      -0.196130587269
 73       0.080431905616
 74      -0.225223224055
 75      -0.466349750140
 76       0.189759355253
 77       0.258025273794
 78       0.940878819497
 79      -0.350976136691
 80      -0.006692476764
 81      -0.012188762174
 82      -0.005781965800
 83       0.009990338094
 84       0.024490950628
 85      -0.151035737499
 86      -0.218615710977
 87      -0.141510000273
 88       0.127050888961
 89       0.432563409930
 90       0.019615951205
 91       0.423731888314
 92       0.000142182653
 93      -0.008943923053
 94       0.008851887691
 95       0.028452744331
 96       0.325511371672
 97      -0.014677061820
 98       0.010353059436
 99      -0.021931779748
100       0.031447133867
101       0.326215979282
102      -0.008085841805
103      -0.002663838374
104      -0.003158344947
105       0.031521160391
106       0.324747398108
107      -0.006591010315
108       0.000469461859
109       0.006274171162
110       0.028397058486
111       0.324044350588
112      -0.008691517345
113       0.022465657758
114       0.014926035463
115       0.019797063634
116       0.424294718158
117      -0.001543097659
118      -0.012396959474
119      -0.001602222636
 Sym=     1a
 Ene= 5.60998387586410E-01
 Spin= Alpha
 Occup= 0.000000
  1      -0.009054636387
  2      -0.020664599747
  3       0.037342861908
  4       0.065290562632
  5       0.767102987100
  6       0.011494400236
  7       0.000632203235
  8       0.030196657766
  9       0.030754780554
 10       0.012391270592
 11       0.066540500516
 12       0.259320970975
 13       0.241620767193
 14      -0.245749438957
 15      -0.009386008296
 16      -0.022131492015
 17       0.004195367119
 18       0.013301662936
 19      -0.001757286060
 20      -0.000003828572
 21      -0.000003104014
 22       0.000025713766
 23      -0.000081557186
 24       0.000205596028
 25      -0.013967150854
 26      -0.028229974373
 27      -0.085977358879
 28       0.010644352321
 29       0.021546075898
 30       0.065631997532
 31       0.087837048452
 32       0.177239545066
 33       0.539793743359
 34      -0.098915189133
 35      -0.198608177401
 36      -0.606808073239
 37      -0.005704388432
 38      -0.084866494616
 39       0.050503154214
 40      -0.030722949551
 41      -0.019351612393
 42      -0.160944174394
 43       0.068910494490
 44       0.210121862596
 45      -0.065757475822
 46       0.066748486902
 47       0.009054305423
 48       0.020662605457
 49      -0.037305957860
 50      -0.065501235752
 51      -0.766937527814
 52      -0.002182088267
 53       0.017957891047
 54       0.026868891730
 55      -0.009039684740
 56       0.031279236145
 57       0.067069012175
 58      -0.294783497719
 59      -0.313989128953
 60       0.027281304070
 61       0.012139525570
 62      -0.008275116495
 63       0.006732570126
 64      -0.021685852584
 65      -0.006642984942
 66       0.000002269745
 67       0.000005392398
 68      -0.000006660118
 69      -0.000032160585
 70       0.000139470712
 71      -0.032559187152
 72      -0.065745022264
 73      -0.200128344763
 74      -0.076172908367
 75      -0.153790715532
 76      -0.468209738779
 77       0.157293119023
 78       0.317400828327
 79       0.966903227801
 80      -0.004881694490
 81       0.024966588342
 82      -0.004921707405
 83       0.005442438140
 84       0.007703829553
 85      -0.037887855831
 86       0.509177337479
 87      -0.193837827029
 88       0.144688049852
 89       0.138262605541
 90      -0.027166240197
 91      -0.427457728570
 92       0.018953570012
 93       0.000011743662
 94       0.006902681650
 95       0.041147991345
 96      -0.183383976980
 97       0.003960148254
 98       0.002138229611
 99       0.009253628252
100      -0.055731345343
101      -0.536099075255
102       0.008474655758
103      -0.008690587187
104      -0.005117295071
105       0.055750413713
106       0.536249269148
107      -0.010367824959
108       0.004866219967
109      -0.006519044147
110      -0.041104046086
111       0.183190366620
112      -0.000921778896
113       0.003993863242
114       0.009471683747
115       0.027081192119
116       0.427057059123
117      -0.016092836307
118       0.005761564090
119       0.010692934427
 Sym=     1a
 Ene= 6.11106560062726E-01
 Spin= Alpha
 Occup= 0.000000
  1       0.000534947490
  2       0.001880231669
  3      -0.019258435505
  4       0.059388314679
  5       0.217350080354
  6      -0.000071592386
  7      -0.091666402129
  8      -0.033399606520
  9      -0.011200848823
 10      -0.199771986364
 11      -0.018632473598
 12      -0.105314837593
 13      -0.237967085041
 14       0.090045705569
 15       0.011745944510
 16       0.008595530357
 17       0.023598703136
 18       0.004557017215
 19       0.019553999255
 20       0.000923214284
 21      -0.000252423887
 22      -0.007449154347
 23       0.096555232703
 24      -0.532682164056
 25       0.027579086292
 26       0.006107980102
 27      -0.006524420720
 28      -0.007648937618
 29      -0.004876341472
 30       0.002886305705
 31      -0.251775409895
 32      -0.033435802844
 33       0.051678280693
 34       0.401976933501
 35       0.100480910348
 36      -0.086066833972
 37      -0.100538828636
 38      -0.007465654476
 39      -0.074181318407
 40      -0.052364200723
 41      -0.051011538368
 42      -0.350155647806
 43      -0.048190190429
 44      -0.363341869720
 45      -0.393887787015
 46      -0.025503292235
 47       0.000585146249
 48       0.001992158539
 49      -0.019266322800
 50       0.058731604408
 51       0.187016189951
 52       0.018166584804
 53      -0.054626564879
 54       0.078801546939
 55       0.012836478347
 56      -0.148080531496
 57       0.134043387188
 58      -0.104938708873
 59      -0.228840051859
 60       0.105115686059
 61       0.030292291832
 62      -0.007343979102
 63       0.003209454892
 64       0.009609006806
 65       0.009782735332
 66      -0.005343546955
 67      -0.011510834847
 68      -0.006810054940
 69       0.179798016989
 70      -0.102707995494
 71      -0.049498456246
 72       0.003292068302
 73       0.007125277425
 74      -0.120871421602
 75       0.002609529167
 76       0.019218010660
 77       0.019001463675
 78      -0.084587802408
 79       0.023131558557
 80       0.016378799553
 81       0.000565946538
 82       0.015292299624
 83       0.016187527686
 84       0.006865687841
 85       0.646748559883
 86       0.039782580005
 87       0.571106095523
 88       0.546315347276
 89       0.260699385077
 90       0.002382858084
 91      -0.277271579295
 92      -0.006759155363
 93       0.006613090801
 94       0.004189626809
 95      -0.009300766799
 96      -0.064752474781
 97      -0.006826038236
 98      -0.012303339569
 99      -0.011528000141
100       0.023076282491
101       0.256105445024
102       0.003823398534
103       0.009655429274
104       0.008302443568
105       0.022686863777
106       0.261297732178
107       0.000385610559
108       0.002599201144
109      -0.013060677508
110      -0.008983475956
111      -0.060110829173
112      -0.002033468874
113      -0.002548508637
114       0.017921431853
115       0.002122729392
116      -0.273338456062
117      -0.008252419257
118       0.003504396849
119      -0.005125780641
 Sym=     1a
 Ene= 6.46622052672889E-01
 Spin= Alpha
 Occup= 0.000000
  1       0.016012277789
  2       0.037272635230
  3      -0.057240791930
  4       0.029378102390
  5      -8.354719064431
  6      -0.020484340498
  7      -0.011485774351
  8      -0.050004317654
  9      -0.255340182783
 10       0.200400867479
 11      -0.318767758635
 12      -0.881308382385
 13       0.161780807737
 14      -2.103824547494
 15      -0.006699818360
 16       0.021736743454
 17      -0.014998961542
 18       0.016013080626
 19      -0.001758650668
 20      -0.000006240733
 21      -0.000004926878
 22       0.000041517265
 23      -0.000094916661
 24       0.000302878653
 25       0.005049995704
 26       0.010130769558
 27       0.030734020101
 28      -0.005346998747
 29      -0.010832257970
 30      -0.032920357007
 31      -0.001763173069
 32      -0.002793777443
 33      -0.007555049236
 34      -0.847321320499
 35      -1.715726274573
 36      -5.225492621529
 37       0.050278171280
 38       0.121814433631
 39      -0.137337305464
 40       0.067090847153
 41       0.014578559588
 42       0.529148440557
 43       0.549943848262
 44      -1.079288316469
 45       0.467433794445
 46      -0.027669289035
 47      -0.016024169034
 48      -0.037298887062
 49       0.057296297327
 50      -0.029171211028
 51       8.354996139336
 52       0.003908367409
 53      -0.021956221916
 54      -0.050182809943
 55       0.170744327141
 56      -0.371642097208
 57      -0.199603381879
 58       0.250002481894
 59      -1.433848922149
 60      -1.762800857385
 61       0.009886604390
 62       0.024441062504
 63      -0.012516936878
 64       0.000686315821
 65       0.012351858113
 66      -0.000011213299
 67      -0.000022562406
 68      -0.000045621232
 69       0.000566047348
 70      -0.000891098835
 71      -0.007757389127
 72      -0.015547705054
 73      -0.047050552721
 74      -0.021346800302
 75      -0.042800478106
 76      -0.129469127744
 77       0.097408823454
 78       0.196909798558
 79       0.597297472887
 80       0.017154440240
 81      -0.002543953870
 82      -0.024722729017
 83       0.008566495999
 84      -0.005915384926
 85       0.448508909503
 86      -0.213306032435
 87      -0.572442772768
 88       0.176062292014
 89      -0.191052236105
 90      -0.035601016417
 91       0.986279813154
 92      -0.002280927137
 93      -0.006684420025
 94       0.006168214408
 95       0.047389390502
 96       1.492293025223
 97      -0.009772904541
 98       0.004256625146
 99      -0.012298519547
100       0.002417685267
101       1.618188619352
102       0.006269691979
103       0.004160662182
104      -0.000468789746
105      -0.002159632032
106      -1.615336124167
107      -0.005629439464
108      -0.003054875593
109       0.003817793167
110      -0.047798677637
111      -1.493974715702
112       0.006212176170
113      -0.011522240569
114      -0.009720425818
115       0.035509891063
116      -0.987595046389
117       0.003199945026
118       0.008783247619
119       0.000161566343
 Sym=     1a
 Ene= 6.85475957701119E-01
 Spin= Alpha
 Occup= 0.000000
  1      -0.003733482616
  2      -0.012134240601
  3       0.090621996771
  4      -0.494117261743
  5       3.606941900042
  6       0.013896760722
  7      -0.005009684519
  8      -0.127261243294
  9      -0.162156583904
 10       0.028229079055
 11      -0.150662561900
 12       0.793055081545
 13      -0.444072990438
 14       0.389241340030
 15       0.005904619657
 16      -0.006794195849
 17       0.005266642639
 18       0.011487159039
 19      -0.002248718309
 20       0.017817649717
 21       0.009244418986
 22      -0.126749463488
 23       0.786297364510
 24      -4.836831525268
 25       0.057348653821
 26       0.037859339091
 27      -0.021738756007
 28       0.046412305178
 29      -0.008687829514
 30      -0.004697337810
 31      -1.002334881863
 32      -0.402615559404
 33       0.295369106817
 34       0.682204953497
 35      -0.551019996453
 36       0.069461515936
 37      -0.017457099518
 38      -0.002748842252
 39      -0.002668199975
 40       0.016861249320
 41      -0.015674049467
 42       0.219815628881
 43       0.227612986839
 44       0.069707295377
 45      -0.364666470496
 46      -0.289811467271
 47      -0.003753634241
 48      -0.012149336090
 49       0.089857561144
 50      -0.488407619537
 51       3.600632836099
 52       0.050252800523
 53       0.068256988883
 54       0.095729365041
 55      -0.113246588562
 56       0.123326632061
 57       0.143677217098
 58       0.686036132793
 59      -0.657880621046
 60      -0.265347124595
 61       0.000681738113
 62       0.005222141776
 63       0.007500682908
 64       0.012557749341
 65       0.002406687007
 66      -0.028549309457
 67      -0.062295663075
 68      -0.017560032949
 69       0.874577117403
 70       0.002998534412
 71      -0.075781760953
 72       0.044428558015
 73      -0.002324294310
 74      -0.276158230745
 75       0.107870353543
 76       0.009251378277
 77      -0.710140940420
 78      -0.249746505815
 79       0.197839470119
 80      -0.022353514687
 81      -0.009626720462
 82      -0.002367343845
 83       0.030786579770
 84      -0.006156784215
 85      -0.680196817850
 86      -0.271037619790
 87      -0.083848758308
 88       0.878072081872
 89      -0.226146454302
 90      -0.067552694940
 91      -1.231365313509
 92       0.013489099634
 93       0.012195979568
 94       0.016740286288
 95       0.006215786040
 96      -0.529284576585
 97      -0.011482896981
 98       0.008127197576
 99      -0.009242132536
100      -0.085344323298
101      -0.932483979638
102       0.018170796740
103      -0.013992535007
104       0.010387423738
105      -0.085587405258
106      -0.931152158057
107       0.015732427308
108      -0.019166597482
109      -0.005173619628
110       0.006489193805
111      -0.528234632858
112      -0.009071035277
113       0.013082645174
114       0.005701859690
115      -0.067061666105
116      -1.231271050136
117       0.006820511939
118      -0.001068651022
119      -0.023602137582
 Sym=     1a
 Ene= 7.22836049126335E-01
 Spin= Alpha
 Occup= 0.000000
  1      -0.012604087260
  2      -0.019964101627
  3      -0.193501061923
  4       1.894341145427
  5      -1.926896408026
  6       0.030711173813
  7      -0.041663311169
  8       0.085303647928
  9       0.443970882720
 10      -0.301474015823
 11       0.686382346296
 12      -0.435076889986
 13      -0.414341236680
 14      -0.905386879837
 15      -0.008817183321
 16       0.008026387662
 17       0.037202447738
 18      -0.009883824826
 19       0.008136780873
 20       0.000036819881
 21       0.000021308018
 22      -0.000259989453
 23       0.001456549725
 24      -0.008044369850
 25      -0.005388774609
 26      -0.010892522344
 27      -0.033506413840
 28       0.006690487236
 29       0.013242782064
 30       0.040397064016
 31      -0.009204231874
 32      -0.016225818508
 33      -0.045889062380
 34       0.113197506866
 35       0.219761466601
 36       0.675877373962
 37      -0.102320578600
 38      -0.072453820076
 39       0.191496903374
 40      -0.079442776449
 41       0.013686997033
 42      -0.460181490792
 43      -0.931626770616
 44       1.161264747855
 45      -0.554245145949
 46      -0.089866952907
 47       0.012566680962
 48       0.019870025976
 49       0.193818180229
 50      -1.894719429566
 51       1.939366061889
 52      -0.008885978114
 53       0.086205525187
 54       0.050140084444
 55      -0.255164561016
 56       0.683313786621
 57       0.476668620544
 58       0.116082093858
 59      -0.232582961475
 60      -1.056111311608
 61      -0.032772649308
 62       0.000686799209
 63       0.021765076869
 64      -0.009952880614
 65       0.006917405882
 66      -0.000040217466
 67      -0.000088740130
 68      -0.000004028744
 69       0.001139783536
 70      -0.001237258277
 71       0.006700618323
 72       0.013530748775
 73       0.041278438414
 74       0.022207706268
 75       0.044871602358
 76       0.137149704510
 77      -0.029072129121
 78      -0.054547879988
 79      -0.170141706626
 80       0.008356253895
 81      -0.012148315590
 82      -0.006750522381
 83       0.000691358956
 84      -0.005602921084
 85       0.549968041122
 86      -0.201808744304
 87      -0.738378556184
 88       0.237529425856
 89      -0.221423827410
 90       0.066056364579
 91      -0.158659787583
 92      -0.020294495880
 93      -0.011022495086
 94      -0.002090787260
 95       0.027659339679
 96       0.260175598168
 97       0.000911834540
 98       0.002532099614
 99      -0.009183642742
100       0.044052826576
101       0.507112197746
102       0.009059020766
103       0.004943275545
104       0.025717944655
105      -0.044416495650
106      -0.508931979709
107      -0.000693860445
108       0.011689550019
109       0.025130202904
110      -0.027836033121
111      -0.263537079606
112      -0.003226011024
113      -0.007311645276
114      -0.005359193045
115      -0.066309925453
116       0.154705858067
117       0.017699246240
118       0.005840626155
119      -0.013882384128
 Sym=     1a
 Ene= 7.61982496602499E-01
 Spin= Alpha
 Occup= 0.000000
  1      -0.012698921637
  2      -0.024689089834
  3      -0.087189205702
  4       1.072283876409
  5       1.852088315998
  6      -0.040281645788
  7      -0.017428056142
  8       0.035681922682
  9       0.318701178091
 10      -0.163730391184
 11       0.495819420555
 12      -0.358222547156
 13      -0.153866539023
 14       0.579618853556
 15      -0.021175715104
 16      -0.013206970582
 17      -0.028138867697
 18       0.026208320430
 19       0.013719479491
 20       0.024587569215
 21       0.017751121620
 22      -0.170202376561
 23       0.681403104668
 24      -1.672022748129
 25      -0.101859911839
 26       0.029437947651
 27       0.006894785604
 28       0.120826063436
 29      -0.014518231905
 30      -0.014913236626
 31       0.079515913670
 32      -0.152288920401
 33       0.037451805021
 34       3.723685884447
 35      -1.504330078970
 36      -0.112031043031
 37      -0.047376998671
 38      -0.073837951002
 39      -0.023795816463
 40       0.093282761396
 41       0.128325815553
 42      -1.065903757981
 43      -0.730743231145
 44      -0.245078429259
 45       1.528449528482
 46       0.458499341473
 47      -0.012721279762
 48      -0.024733980777
 49      -0.087293544066
 50       1.074534490120
 51       1.849020553605
 52      -0.046789123865
 53      -0.031094725717
 54      -0.005596921080
 55       0.177614226679
 56      -0.450524442774
 57      -0.375394223843
 58      -0.492547231103
 59      -0.427391711848
 60      -0.247475129278
 61      -0.036235668032
 62      -0.021964200611
 63      -0.000853030539
 64       0.015100690630
 65       0.016177820205
 66      -0.000320862802
 67       0.002438956642
 68      -0.042250324457
 69       0.265396147486
 70      -3.644215486671
 71       0.240204880305
 72      -0.062470399709
 73      -0.018554203576
 74       0.661698624044
 75      -0.153797347598
 76      -0.057111726165
 77      -0.055906643618
 78       0.653338388731
 79      -0.206045648439
 80      -0.004906298700
 81      -0.004147913275
 82      -0.000364865403
 83       0.009765615010
 84       0.003213442938
 85      -0.170142163629
 86      -0.105429683875
 87       0.065570562468
 88       0.463375781728
 89      -0.050120146414
 90      -0.055727126362
 91      -0.162196158795
 92       0.000778364137
 93       0.006855754614
 94      -0.005034090055
 95       0.017361706409
 96      -0.708362922051
 97       0.018283440633
 98      -0.010990659736
 99       0.005575153431
100       0.051844350560
101      -0.300732840811
102       0.007543991493
103      -0.000734284714
104      -0.011313964891
105       0.051794295616
106      -0.298892976448
107       0.010454435184
108       0.005253814167
109       0.006913289405
110       0.017523561500
111      -0.707418368587
112       0.016853537188
113      -0.013844207958
114      -0.003150883199
115      -0.055699970293
116      -0.163534226796
117       0.001556251958
118       0.008379772276
119      -0.000366111427
 Sym=     1a
 Ene= 8.53875745513683E-01
 Spin= Alpha
 Occup= 0.000000
  1      -0.004113891937
  2      -0.013746105692
  3       0.094010710765
  4      -0.205705244817
  5       1.472377136184
  6       0.096120922871
  7      -0.020919291286
  8      -0.070392983204
  9      -0.218170655169
 10      -0.022016639995
 11       0.164243301739
 12       0.422702179419
 13      -0.060050597380
 14       0.102865495323
 15      -0.027889364604
 16       0.027550404952
 17       0.009090229143
 18       0.029075250249
 19       0.007631545946
 20       0.009489024799
 21       0.004036197735
 22      -0.069214418588
 23       0.415277080493
 24      -1.502367484350
 25       0.000360975991
 26      -0.057859361434
 27       0.019149571049
 28      -0.000286449807
 29       0.033229136557
 30      -0.010954034571
 31      -0.047661202923
 32       0.571620172737
 33      -0.182228441968
 34       0.012738850721
 35       1.205604706561
 36      -0.399749815512
 37      -0.065552008913
 38      -0.002183714844
 39      -0.034892137723
 40      -0.005853278331
 41      -0.052503908298
 42       0.132080475347
 43      -0.493319832653
 44      -0.332847505207
 45      -0.246032641230
 46       1.626849797729
 47      -0.004084884815
 48      -0.013638557232
 49       0.093129428134
 50      -0.203835391714
 51       1.464555898644
 52       0.113201112226
 53       0.015104748831
 54       0.037981257190
 55      -0.251397836392
 56      -0.091903442868
 57      -0.050041535563
 58       0.375783426846
 59      -0.145019901451
 60      -0.165382314037
 61       0.003014388254
 62      -0.039759843929
 63      -0.004316920395
 64       0.023937832200
 65      -0.018216823964
 66      -0.006012885326
 67      -0.012934184061
 68      -0.009504067506
 69       0.275244595837
 70      -0.467049509294
 71       0.004114118302
 72       0.149904996411
 73      -0.050344506734
 74      -0.025729661844
 75       0.445949674901
 76      -0.143654698482
 77       0.285619680023
 78      -2.533883675833
 79       0.793655903430
 80      -0.006134639940
 81      -0.006921165035
 82      -0.005746666238
 83       0.002571572612
 84       0.012969362691
 85       0.056698928321
 86      -0.550223521511
 87      -0.421191441215
 88      -0.290667253492
 89       1.737783856451
 90      -0.049426281543
 91      -0.331969186584
 92       0.009407404890
 93       0.015748895692
 94       0.022306613671
 95       0.133664121681
 96      -0.382403329240
 97      -0.038612979876
 98      -0.000555177390
 99      -0.035128918971
100      -0.016393854217
101      -0.563435344191
102       0.003295166271
103      -0.004270833110
104       0.030294030422
105      -0.016608591174
106      -0.563491864681
107      -0.005031360816
108      -0.021410698453
109      -0.021735894180
110       0.132968598666
111      -0.381448622488
112      -0.026496614860
113       0.023298870360
114       0.038134215140
115      -0.049183480134
116      -0.328413624608
117       0.001030100821
118      -0.000883907096
119      -0.028662075200
 Sym=     1a
 Ene= 8.74851567545460E-01
 Spin= Alpha
 Occup= 0.000000
  1       0.009118542836
  2       0.032189249523
  3      -0.280226717449
  4       0.931774124688
  5      -4.113165822385
  6      -0.073907251370
  7      -0.025217930382
  8       0.043271020847
  9       0.314228862151
 10       0.058116807720
 11      -0.050946475593
 12      -0.677853614631
 13       0.186426363135
 14      -0.986354344864
 15       0.011652806135
 16      -0.017939052547
 17      -0.014499965746
 18      -0.037322134705
 19       0.060393216843
 20       0.000006031523
 21      -0.000000799878
 22      -0.000047670992
 23       0.000491078166
 24      -0.003070795634
 25      -0.011141055887
 26      -0.022749954478
 27      -0.068668396185
 28       0.006959387675
 29       0.014283325500
 30       0.043066458870
 31       0.106837741381
 32       0.217919350138
 33       0.658169969308
 34      -0.028057730937
 35      -0.051268454268
 36      -0.167718913036
 37      -0.064619645602
 38       0.016368295066
 39       0.090127167801
 40      -0.030016076550
 41       0.023898647517
 42      -0.465739899148
 43       1.590354000683
 44      -0.079288166575
 45       0.261614630866
 46       0.542957620148
 47      -0.009101255675
 48      -0.032157678812
 49       0.280195033733
 50      -0.932139989844
 51       4.118115763131
 52       0.080890963974
 53       0.038647832580
 54      -0.002682042317
 55      -0.310095656892
 56      -0.047529864786
 57       0.084816884164
 58       0.383021843692
 59      -0.785866121562
 60      -0.839748540819
 61      -0.011994763377
 62       0.006608273550
 63       0.020471782851
 64       0.033793734067
 65      -0.063005163724
 66      -0.000009034392
 67      -0.000023669660
 68       0.000055736151
 69       0.000055197357
 70       0.000830584567
 71       0.023036223274
 72       0.047098737137
 73       0.142033376483
 74       0.072469789287
 75       0.147940454048
 76       0.446536628959
 77      -0.407452706933
 78      -0.830275538295
 79      -2.505286399970
 80       0.003641527303
 81       0.005959527053
 82      -0.008513963626
 83       0.003936517195
 84       0.000393013928
 85      -0.382407484840
 86       1.710253972352
 87      -0.266397546611
 88       0.346869320883
 89       0.547323195244
 90      -0.018414192377
 91       0.778947730708
 92      -0.024022673056
 93       0.003879673242
 94      -0.029387256610
 95      -0.129023383077
 96       0.872577540040
 97       0.021519615587
 98      -0.032679997582
 99       0.017878171415
100       0.139747471515
101       0.467353160310
102       0.013442174281
103       0.027014326170
104       0.004807063687
105      -0.139689605942
106      -0.469937058257
107      -0.008764270590
108      -0.017956872666
109       0.023039762126
110       0.129785279676
111      -0.874439507136
112      -0.018653358219
113       0.038973390401
114       0.001053323008
115       0.018240303213
116      -0.779969047071
117       0.014767801424
118      -0.022406573037
119      -0.027133678964
 Sym=     1a
 Ene= 9.30740423488659E-01
 Spin= Alpha
 Occup= 0.000000
  1      -0.017265302077
  2      -0.044970462126
  3       0.132077442596
  4       0.335193976758
  5       1.475978109328
  6      -0.025150929416
  7       0.020689236511
  8       0.031401980006
  9       0.256890463525
 10      -0.153871685778
 11       0.356011443114
 12       0.384039398623
 13      -0.092924805306
 14       0.284080126768
 15       0.022240853348
 16       0.026558618576
 17      -0.014669056650
 18      -0.024052714827
 19      -0.017992835692
 20       0.080622695832
 21       0.041705777189
 22      -0.585030420113
 23       3.430389893616
 24      -7.128019662502
 25       0.035317258571
 26       0.037077915508
 27      -0.017923768867
 28      -0.017037253472
 29      -0.028661284143
 30       0.012152985984
 31      -0.307590242472
 32      -0.158950426475
 33       0.102387805848
 34      -1.182727081769
 35      -1.218861802441
 36       0.592847665371
 37       0.082356775453
 38       0.062632626850
 39       0.058425911353
 40      -0.037107302204
 41      -0.087157790475
 42       0.116393272792
 43       0.069082913506
 44      -0.139459532413
 45      -0.525747257022
 46       0.134094175329
 47      -0.017269900208
 48      -0.044987264659
 49       0.132245704445
 50       0.334547045904
 51       1.478015327889
 52      -0.034881733686
 53       0.000863003137
 54      -0.028649815011
 55       0.157224874750
 56      -0.354884287776
 57      -0.256226121935
 58       0.293468062333
 59      -0.275741608324
 60      -0.274038998240
 61       0.007169893291
 62       0.005116273706
 63       0.018735832399
 64      -0.039186144817
 65      -0.018715204978
 66       0.008507391882
 67       0.017412144589
 68       0.024265051333
 69      -0.614440907452
 70       3.396581207823
 71      -0.022493504519
 72       0.014236828385
 73      -0.001006578283
 74      -0.255538986877
 75      -0.029349506194
 76       0.051248644921
 77      -1.020136599630
 78      -0.027309622562
 79       0.174447449083
 80      -0.009575172563
 81      -0.008142474656
 82      -0.002462312263
 83       0.015188758453
 84       0.008002479468
 85       0.149000064478
 86       0.126141304021
 87       0.022201361654
 88      -0.271315203040
 89      -0.107114241372
 90       0.081533272444
 91      -0.350425349213
 92      -0.019529665020
 93       0.004853348338
 94      -0.014964453836
 95      -0.004993783996
 96      -0.149313217625
 97       0.014117081534
 98       0.007988855663
 99      -0.010445533577
100       0.048756739733
101      -0.313938057037
102      -0.022970780618
103      -0.004747466956
104      -0.007886061781
105       0.048969574775
106      -0.314916580132
107      -0.019195143153
108       0.002847016404
109       0.015314658066
110      -0.004858865432
111      -0.149903009371
112       0.015678436646
113       0.011172643982
114      -0.000678185186
115       0.081279610705
116      -0.350059125607
117      -0.014776235563
118       0.014449146233
119       0.014184318707
 Sym=     1a
 Ene= 9.89302868012474E-01
 Spin= Alpha
 Occup= 0.000000
  1      -0.001710558833
  2      -0.008209454498
  3       0.136874725326
  4      -0.594005857950
  5      -0.319523088448
  6      -0.084205304783
  7      -0.091359973860
  8       0.003180828178
  9      -0.079917572701
 10       0.132629808729
 11      -0.193590816217
 12       0.455580886263
 13       0.236332302173
 14      -0.343622452616
 15       0.012497959391
 16       0.008609390556
 17      -0.017294022923
 18      -0.150341430338
 19       0.050378990124
 20       0.006170501511
 21       0.004334888984
 22      -0.045014396940
 23      -0.001400233315
 24       5.854748509396
 25      -0.101639833211
 26      -0.042098714182
 27       0.030383286324
 28       0.089684797681
 29       0.069720519273
 30      -0.037566797113
 31       1.728576341325
 32       0.167197410609
 33      -0.335960722607
 34       0.830105504043
 35       0.769525724671
 36      -0.386843787058
 37      -0.004107811600
 38      -0.051623843509
 39      -0.085284455766
 40      -0.119985950206
 41       0.194473404282
 42      -0.054276932573
 43      -0.049165118837
 44       0.072942009838
 45       0.285027179512
 46      -0.029879284615
 47      -0.001666273750
 48      -0.008088016153
 49       0.136165435154
 50      -0.592962434034
 51      -0.320859792753
 52      -0.071984033092
 53      -0.068332411530
 54       0.075192692553
 55      -0.033919653600
 56       0.227400469332
 57       0.093404242029
 58       0.508963911795
 59       0.349294206407
 60      -0.007105620313
 61       0.041702365549
 62       0.017736825719
 63      -0.067135431060
 64      -0.131089535864
 65       0.043348468281
 66      -0.033102068178
 67      -0.062685740806
 68      -0.226418344113
 69       2.731099481699
 70      -6.585428627597
 71       0.062000809226
 72      -0.024524490080
 73      -0.001964605279
 74      -0.188582099944
 75       0.035511688212
 76       0.019057474252
 77       3.486083601037
 78      -0.025420744243
 79      -0.558884802892
 80      -0.017737477133
 81      -0.003874614427
 82       0.001876671094
 83       0.027943002316
 84      -0.017183160962
 85       0.639751039268
 86       0.416687951139
 87      -0.029755680411
 88      -1.283667077832
 89      -0.054875034118
 90       0.037765334388
 91      -0.122798292739
 92      -0.017235740266
 93      -0.013019326868
 94       0.026543265972
 95      -0.370563443988
 96       1.012278331990
 97       0.038379478572
 98      -0.013875946163
 99       0.019127220904
100       0.329446327520
101      -0.756249657401
102      -0.001332910780
103       0.034232836962
104      -0.012389160341
105       0.330292892543
106      -0.757986252380
107      -0.000784447175
108       0.035083172083
109      -0.010006415504
110      -0.369523623948
111       1.010128366340
112       0.032255909044
113      -0.025895845146
114      -0.017452359823
115       0.036505041833
116      -0.119308744987
117      -0.022876322789
118      -0.024340405127
119      -0.007870780989
 Sym=     1a
 Ene= 1.03862650614686E+00
 Spin= Alpha
 Occup= 0.000000
  1       0.008647254214
  2       0.026689711077
  3      -0.210827370099
  4       0.393581348916
  5       0.731547468408
  6      -0.205721914248
  7      -0.339512027966
  8      -0.052737158683
  9       0.226430154409
 10       0.287413321091
 11       0.125082066441
 12       0.502148592267
 13       0.592958104134
 14       0.114165664874
 15      -0.064238130677
 16       0.000048323859
 17      -0.122155783872
 18      -0.071213102152
 19       0.099237819406
 20      -0.005125026880
 21      -0.004230479644
 22       0.036155602536
 23       0.087384918519
 24      -4.775748389387
 25       0.072947568335
 26      -0.013619259360
 27      -0.007230404388
 28      -0.038541349726
 29       0.073634759227
 30      -0.018394281188
 31      -1.307388875184
 32      -0.234585731834
 33       0.290127306064
 34      -1.376270052573
 35      -0.428608211118
 36       0.364233602710
 37      -0.028903193973
 38       0.010387695288
 39      -0.067963733761
 40      -0.134603965004
 41      -0.001398357689
 42       0.265228508163
 43       0.113590035768
 44       0.003090807669
 45      -0.421380565174
 46       0.100211583562
 47       0.008676253586
 48       0.026783108307
 49      -0.211414050053
 50       0.393445679618
 51       0.737245970136
 52      -0.146989761877
 53      -0.225869057059
 54       0.297011946195
 55       0.150978716814
 56       0.139807420139
 57      -0.327755128120
 58       0.384040325770
 59       0.369303512444
 60      -0.581610424508
 61      -0.074569011605
 62      -0.083130416591
 63      -0.068177233615
 64      -0.103027932211
 65       0.081594025440
 66       0.017420111018
 67       0.032860998271
 68       0.128975190776
 69      -1.672471679913
 70       5.048094032866
 71      -0.067897863748
 72      -0.004300515572
 73       0.012518173882
 74      -0.015919957031
 75       0.039676615285
 76      -0.010617626662
 77      -2.504720666877
 78      -0.403370027503
 79       0.540586818868
 80      -0.000766955336
 81       0.005180842768
 82      -0.006341403256
 83      -0.020139798401
 84      -0.006885959489
 85      -0.559723595333
 86      -0.385945388473
 87      -0.122211019086
 88       0.818381655929
 89       0.237952332491
 90      -0.337394602677
 91       0.597367378490
 92      -0.017745515206
 93       0.020295212125
 94       0.043339396289
 95      -0.113192733813
 96       0.161245336416
 97       0.036640172859
 98      -0.024313249734
 99       0.002204609767
100       0.499275398656
101      -1.532178154992
102       0.036129225508
103       0.084741541060
104      -0.056944377307
105       0.501415039718
106      -1.538801372733
107       0.042839371641
108       0.098394394382
109      -0.016019760704
110      -0.110527481740
111       0.153113911458
112       0.036242920197
113      -0.024397796927
114       0.002208070282
115      -0.341476866498
116       0.608278799801
117      -0.031354642244
118      -0.007194879360
119      -0.040195905023
 Sym=     1a
 Ene= 1.06306095707908E+00
 Spin= Alpha
 Occup= 0.000000
  1      -0.000949413660
  2      -0.003806519678
  3      -0.011639161796
  4       0.511201219797
  5      -2.233295535774
  6      -0.095557027922
  7       0.243749232921
  8       0.115486272799
  9       0.189365045633
 10      -0.246231847108
 11      -0.021440698737
 12       0.223563197593
 13      -1.213406596984
 14      -1.187694256786
 15       0.195777622543
 16       0.030437430077
 17       0.176870091729
 18      -0.009171072724
 19      -0.052762003558
 20      -0.000061233237
 21      -0.000052010712
 22       0.000439984811
 23      -0.003096053786
 24      -0.000041161196
 25       0.004376895416
 26       0.008668111688
 27       0.025994073973
 28      -0.017631338011
 29      -0.036397956555
 30      -0.108745739788
 31       0.026789388237
 32       0.064475139122
 33       0.189372292142
 34      -0.030430812177
 35      -0.066818760781
 36      -0.211050386605
 37       0.140709279811
 38       0.014155269134
 39      -0.218399033467
 40       0.080210200998
 41      -0.038764632460
 42      -0.195084275967
 43       0.054943006951
 44       0.265521255816
 45      -0.087155830074
 46       0.074738133429
 47       0.000276023364
 48       0.001863851344
 49       0.024505680373
 50      -0.529925079398
 51       2.220599385336
 52       0.144492633076
 53      -0.136973803038
 54       0.198099387506
 55      -0.207148970447
 56       0.201715932485
 57      -0.100450581264
 58      -0.668326607688
 59       0.307814276342
 60      -1.541154998237
 61      -0.205576572317
 62      -0.126747797204
 63      -0.110625164880
 64      -0.028658130203
 65       0.030914102737
 66      -0.000021351413
 67      -0.000068017903
 68       0.000385939382
 69      -0.001697706820
 70       0.001411090819
 71       0.003004058595
 72       0.006679432418
 73       0.019615248604
 74       0.002296969633
 75       0.004769656229
 76       0.012622869205
 77      -0.027134258271
 78      -0.051458102131
 79      -0.145688947736
 80      -0.002268790981
 81       0.007914420225
 82      -0.000368036806
 83       0.001329318506
 84       0.002661221536
 85      -0.004340397449
 86       0.152703494968
 87      -0.071479557581
 88       0.051270313388
 89       0.042047252681
 90       0.586766274757
 91      -1.535998663211
 92      -0.018019799243
 93      -0.006699307669
 94      -0.096548298901
 95      -0.225048933984
 96       1.177997266175
 97       0.036033232724
 98       0.011710099417
 99       0.014784914465
100      -0.432994143389
101       1.607946007253
102      -0.010292873628
103      -0.034748237008
104       0.020431740913
105       0.425790066973
106      -1.584873791948
107       0.011847193014
108       0.037916908262
109      -0.006936592696
110       0.220776344083
111      -1.163817382304
112      -0.027667002225
113       0.002679641964
114       0.028031336120
115      -0.585097051393
116       1.534732108974
117      -0.010941545754
118      -0.051673769359
119      -0.082099171315
 Sym=     1a
 Ene= 1.07018881827418E+00
 Spin= Alpha
 Occup= 0.000000
  1      -0.046261337410
  2      -0.133151068021
  3       0.875920567962
  4      -1.271370982826
  5      -0.813420297594
  6      -0.290549194850
  7       0.168299373789
  8       0.167582244800
  9       0.299057894383
 10      -0.246085164152
 11      -0.162100836617
 12       0.519597772834
 13      -0.160367195720
 14       0.092500098763
 15       0.089431928344
 16       0.086446624484
 17      -0.000019124678
 18      -0.062394099275
 19      -0.021371439836
 20      -0.010244977787
 21      -0.008754811013
 22       0.073288305359
 23      -0.399899985088
 24      -1.525762053682
 25       0.031981510406
 26       0.005317047061
 27      -0.007160053295
 28       0.029027200546
 29      -0.044569717251
 30       0.010743321717
 31      -0.994403687233
 32       0.212195746987
 33       0.090834606164
 34      -0.196980128798
 35       0.098968263261
 36       0.002536178963
 37       0.242153812823
 38       0.057932517464
 39       0.117412837516
 40      -0.071526539640
 41       0.091808635656
 42      -0.179784013462
 43      -0.101479031454
 44      -0.202314711154
 45      -0.126529759314
 46       0.175648883607
 47      -0.046298847560
 48      -0.133274381322
 49       0.876205576840
 50      -1.264708605693
 51      -0.845618856854
 52      -0.343595454848
 53       0.067733968851
 54      -0.143964505108
 55       0.358164268164
 56      -0.135725362944
 57       0.180956373563
 58       0.494297366023
 59      -0.234708965835
 60      -0.106826003500
 61       0.076311154850
 62       0.011627225505
 63       0.063233557453
 64      -0.095923142984
 65      -0.035866651205
 66       0.003516658100
 67       0.003977731804
 68       0.080034019243
 69      -0.755983737084
 70       1.910793670845
 71      -0.041510104641
 72       0.028871258249
 73      -0.002868983684
 74       0.014477819202
 75       0.087409746716
 76      -0.030988524766
 77      -1.258816785036
 78      -0.583905078341
 79       0.396566007093
 80       0.004763161142
 81       0.003134020683
 82       0.003076390765
 83      -0.002321811091
 84      -0.003810155126
 85      -0.303203412002
 86      -0.343088863040
 87      -0.048995543356
 88       0.655065147089
 89       0.423274117268
 90      -0.023111222936
 91       0.230592196408
 92      -0.026232300903
 93       0.006836550696
 94      -0.051995030706
 95      -0.507183057954
 96       1.609248550228
 97       0.124252017785
 98      -0.002871395823
 99      -0.035791171666
100      -0.211302794955
101       0.713986422034
102      -0.021004442464
103      -0.040178117234
104       0.021479234295
105      -0.215625596352
106       0.732651499809
107      -0.022423228845
108      -0.043358458985
109       0.013057855221
110      -0.511316733373
111       1.627926975856
112       0.129504703540
113       0.006729561054
114      -0.007201339845
115      -0.015782842145
116       0.211224056797
117      -0.010684798503
118       0.038714191967
119       0.044290082472
 Sym=     1a
 Ene= 1.08933449989329E+00
 Spin= Alpha
 Occup= 0.000000
  1       0.036542767871
  2       0.104769366904
  3      -0.687668180222
  4       0.949305337211
  5       2.200181470391
  6      -0.174966974135
  7       0.086755055274
  8       0.200091030794
  9       0.140338845488
 10      -0.060230522420
 11      -0.162696210818
 12       0.544015382534
 13      -0.318789533656
 14      -0.424387658631
 15      -0.011588933125
 16      -0.073862253488
 17       0.143806057851
 18      -0.120523351994
 19      -0.024712603080
 20       0.000717625699
 21       0.003957678658
 22      -0.002894286398
 23       0.188852724140
 24      -3.716411413989
 25       0.041974909811
 26      -0.014592457645
 27      -0.002010211782
 28       0.004933434386
 29       0.034306314089
 30      -0.012109362101
 31      -0.866697089937
 32      -0.073654646292
 33       0.164973106520
 34      -0.692311268922
 35      -0.113108608434
 36       0.149801480099
 37      -0.146926826125
 38      -0.132067364906
 39      -0.103490268357
 40       0.095180016803
 41       0.201335933484
 42       0.348012793565
 43       0.178485229545
 44       0.075882652744
 45      -0.429995749707
 46      -0.007198044875
 47       0.036573536232
 48       0.104860836039
 49      -0.688295430157
 50       0.950280543700
 51       2.199005274042
 52      -0.232081400367
 53      -0.029198276487
 54      -0.152799411809
 55       0.185894988191
 56       0.032351943303
 57       0.118899837540
 58       0.668954935005
 59      -0.062720144889
 60       0.352152560570
 61       0.096738878216
 62       0.130176953955
 63      -0.122211187405
 64       0.005704000592
 65      -0.007765849271
 66       0.009684019228
 67       0.020660451802
 68       0.029381521507
 69      -0.684005227967
 70       2.686544145509
 71       0.015867218530
 72       0.013531518795
 73      -0.007108434696
 74       0.015804409467
 75       0.106195857130
 76      -0.037689340145
 77      -1.511607852750
 78      -0.560242795900
 79       0.431158239327
 80      -0.003430001493
 81       0.002330456883
 82       0.001278759021
 83       0.003464721927
 84      -0.011315238319
 85      -0.366161580457
 86      -0.316601568250
 87      -0.127067138148
 88       0.513199009108
 89       0.347604215528
 90       0.641332971145
 91      -2.191679916668
 92       0.046251275075
 93      -0.090838989663
 94      -0.031719163253
 95      -0.059840436512
 96      -0.145549570733
 97       0.012492115870
 98       0.026397606544
 99       0.011421394620
100       0.179786191700
101      -0.980282315125
102       0.000939199076
103       0.055159910846
104       0.010671468842
105       0.179307935962
106      -0.979026332163
107      -0.007321547954
108       0.038278846854
109      -0.040310794338
110      -0.058764272718
111      -0.148343636426
112       0.005962111596
113       0.013516909094
114      -0.027577211675
115       0.641161779783
116      -2.190689995031
117       0.061893535266
118      -0.059381564046
119       0.063558351043
 Sym=     1a
 Ene= 1.09417807945355E+00
 Spin= Alpha
 Occup= 0.000000
  1       0.029529032770
  2       0.085915144548
  3      -0.560807074739
  4       0.752021232646
  5       0.060156268123
  6       0.265340181148
  7       0.151851339007
  8       0.004977873129
  9      -0.254727426618
 10      -0.112299473162
 11      -0.110272572894
 12      -0.967152800790
 13      -0.134092868638
 14      -0.019221785627
 15      -0.047861430898
 16      -0.101155597936
 17       0.057060692191
 18       0.190541644296
 19      -0.017137904851
 20       0.000015017562
 21       0.000014645391
 22      -0.000106797525
 23       0.000876210278
 24      -0.004730108810
 25       0.000417516251
 26       0.000672702937
 27       0.002253487439
 28      -0.002248793307
 29      -0.004193565614
 30      -0.013434408297
 31       0.025140923276
 32       0.051078289238
 33       0.156812422456
 34      -0.021960157930
 35      -0.042918525986
 36      -0.128680953038
 37      -0.079704708688
 38      -0.117327120345
 39       0.178280820181
 40      -0.081285691854
 41      -0.004424851930
 42       0.046234884180
 43       0.565080027774
 44      -0.348574329214
 45       0.207981212534
 46       0.126071868702
 47      -0.029384541038
 48      -0.085506832956
 49       0.558182431826
 50      -0.748479912273
 51      -0.051162014565
 52      -0.236904517825
 53      -0.095849656697
 54       0.168799861482
 55       0.200149548623
 56       0.003927508783
 57      -0.223271993576
 58       0.904875177883
 59       0.008598164078
 60      -0.371273908047
 61       0.059176132923
 62      -0.006904996567
 63      -0.021279689842
 64      -0.219571956572
 65      -0.013548018378
 66       0.000001560438
 67       0.000002597742
 68       0.000016365833
 69      -0.000135737174
 70       0.002159491281
 71       0.008328897407
 72       0.016815809781
 73       0.051044823102
 74       0.017969629113
 75       0.036587306825
 76       0.110833739161
 77      -0.119131072229
 78      -0.239378556467
 79      -0.726069310396
 80      -0.000585630094
 81      -0.001439908728
 82       0.001577352371
 83      -0.000766041331
 84      -0.000185978563
 85      -0.113708647009
 86       0.321068269970
 87       0.013449898762
 88       0.042683129269
 89       0.115124034734
 90       0.117446826265
 91      -0.243393838542
 92       0.033198800214
 93      -0.004379137703
 94      -0.050204992622
 95       0.677415986291
 96      -1.867677558267
 97      -0.077667930569
 98      -0.001295803900
 99       0.055910844264
100      -0.231106013758
101       0.586389773275
102       0.036553681614
103      -0.043156154570
104      -0.003588456032
105       0.232899004219
106      -0.593950498491
107      -0.039917809043
108       0.036493394327
109      -0.017474578657
110      -0.676727555039
111       1.864426205186
112       0.089751038659
113       0.026235352420
114       0.019537969284
115      -0.116891867631
116       0.240103742875
117      -0.046450029634
118      -0.022689686882
119      -0.031398146655
 Sym=     1a
 Ene= 1.13169692858072E+00
 Spin= Alpha
 Occup= 0.000000
  1      -0.026354549286
  2      -0.074909071648
  3       0.510780793775
  4      -0.838901160266
  5      -0.625254190589
  6      -0.008261201143
  7      -0.025642071715
  8      -0.015103652614
  9       0.094756855981
 10       0.232605981724
 11       0.038335147004
 12      -0.226622601637
 13      -0.151645211784
 14      -0.020067928681
 15       0.008266804358
 16      -0.072925006248
 17      -0.010481990917
 18       0.022146004190
 19      -0.084070101073
 20       0.002029166421
 21       0.002855953741
 22      -0.012961161451
 23      -0.032905987567
 24       0.327754454666
 25       0.016763344373
 26      -0.000824257613
 27      -0.002560824678
 28      -0.015009525138
 29      -0.009401702210
 30       0.005803014546
 31      -0.127259700040
 32       0.080033748242
 33      -0.005753194058
 34      -0.317690306964
 35      -0.140287233815
 36       0.099324966467
 37      -0.560400431481
 38      -0.189305012100
 39      -0.628898512536
 40      -0.576363674159
 41       0.264630431369
 42       0.599122289339
 43       0.293629318255
 44       0.643351129713
 45       0.430768979031
 46      -0.465209556503
 47      -0.026308004300
 48      -0.074788093921
 49       0.510065760720
 50      -0.837295849426
 51      -0.627638364630
 52      -0.001618000091
 53      -0.011073520272
 54       0.028205205000
 55       0.057731818424
 56       0.157183320394
 57      -0.190552443300
 58      -0.192162246810
 59      -0.089665013342
 60       0.172745641740
 61      -0.061248398584
 62       0.084787371090
 63       0.017954605735
 64       0.035329620021
 65      -0.023216364185
 66       0.002446694879
 67       0.005175865073
 68       0.008795644879
 69      -0.215833809366
 70       0.666567095980
 71      -0.022852186180
 72      -0.054287007966
 73       0.021612691247
 74      -0.041385175957
 75      -0.027756010894
 76       0.016109300327
 77      -0.213454595658
 78       0.430663594649
 79      -0.107960336438
 80      -0.007290061952
 81       0.008321345106
 82      -0.001961752478
 83      -0.007674621457
 84      -0.027513588610
 85      -0.119169953777
 86       0.023656044288
 87      -0.064766416290
 88      -0.050533890128
 89      -0.156007054553
 90      -0.006883761180
 91       0.256601440202
 92       0.083640264709
 93      -0.002297839632
 94       0.085255911182
 95       0.048604846636
 96       0.088698945790
 97       0.043492550668
 98       0.031669657607
 99       0.056103617321
100      -0.187327995262
101       0.763041220846
102      -0.078729935386
103       0.001302329035
104      -0.101544538720
105      -0.187061555070
106       0.763175757350
107      -0.045984776462
108       0.067203167704
109       0.099322698923
110       0.048242818217
111       0.091483284413
112       0.022364314074
113      -0.011091468515
114      -0.073768607903
115      -0.004948255252
116       0.249819538306
117       0.055548430476
118      -0.058993241744
119      -0.087520547221
 Sym=     1a
 Ene= 1.13914636280798E+00
 Spin= Alpha
 Occup= 0.000000
  1      -0.043080295083
  2      -0.121361487764
  3       0.744315856704
  4      -0.777292759657
  5      -1.054751483259
  6       0.152055412290
  7       0.018754700138
  8      -0.160949267397
  9      -0.065106879333
 10      -0.128865863448
 11       0.374557227215
 12      -0.391780163783
 13      -0.392859667600
 14       0.696834711031
 15       0.051636364831
 16       0.084414843877
 17      -0.046604727060
 18       0.115221384298
 19      -0.084373461103
 20       0.000004973954
 21       0.000003908478
 22      -0.000037145128
 23       0.000480247217
 24      -0.003264050779
 25      -0.007988408065
 26      -0.016184294282
 27      -0.049158945428
 28       0.018439662287
 29       0.037345287591
 30       0.113295341673
 31      -0.019597126909
 32      -0.039172182437
 33      -0.118485981082
 34       0.190348459928
 35       0.385369017277
 36       1.174206085714
 37      -0.151465001121
 38       0.492730686471
 39      -0.012968343052
 40       0.077990384010
 41       0.168716530381
 42      -0.127108758782
 43      -0.476155295798
 44       0.428795280980
 45      -0.225079908867
 46      -0.077996918017
 47       0.043179011654
 48       0.121649804066
 49      -0.746341203949
 50       0.780505111747
 51       1.059437565842
 52      -0.189099017828
 53      -0.094605831794
 54      -0.067688901843
 55       0.156687981421
 56       0.315414392309
 57       0.191858227891
 58       0.536282320696
 59       0.686408353724
 60       0.190596933047
 61       0.033852084256
 62       0.039519374385
 63      -0.145227257204
 64      -0.028318530341
 65       0.088602691909
 66       0.000007503873
 67       0.000016343133
 68       0.000012829275
 69      -0.000375478372
 70       0.001802398041
 71       0.000327338206
 72       0.000702567612
 73       0.001736630244
 74       0.027345567981
 75       0.055311014414
 76       0.167813073231
 77      -0.097315890894
 78      -0.195930060790
 79      -0.592731660694
 80       0.007704598725
 81      -0.028828735628
 82       0.002571329140
 83      -0.005149306724
 84      -0.009493355657
 85      -0.020566879592
 86       0.378779431231
 87      -0.156145429876
 88       0.112347889293
 89       0.100841709369
 90      -0.379273459944
 91       1.395951132707
 92      -0.024849655584
 93       0.066739574782
 94       0.039981871556
 95      -0.028609402552
 96       0.128513845593
 97      -0.010709690699
 98       0.039862885453
 99      -0.050400341923
100      -0.523451422864
101       1.792185740134
102      -0.036876123325
103      -0.059623400567
104      -0.002383551595
105       0.524595812375
106      -1.796947422032
107       0.028951631707
108       0.043447657130
109      -0.047229281850
110       0.028819065520
111      -0.130698055906
112      -0.000601844106
113      -0.062447347711
114      -0.018371892815
115       0.379226700179
116      -1.396780109838
117       0.041380194409
118      -0.033156867488
119       0.062050005625
 Sym=     1a
 Ene= 1.17887720256657E+00
 Spin= Alpha
 Occup= 0.000000
  1       0.014272455512
  2       0.041322990859
  3      -0.290028183361
  4       0.449821844040
  5       0.800280464382
  6       0.004014711731
  7      -0.004218212599
  8      -0.006607193317
  9       0.161856257464
 10      -0.118186412508
 11      -0.129635620014
 12      -0.286613659148
 13      -0.275528079359
 14       0.178407685074
 15       0.037147234955
 16      -0.068542083647
 17      -0.015585438243
 18       0.076310970616
 19       0.008088314836
 20       0.002193596395
 21       0.000605427088
 22      -0.016638517311
 23       0.154046639790
 24      -0.721933705951
 25       0.058712397428
 26       0.007425180030
 27      -0.012008039310
 28      -0.152102989389
 29      -0.004490692434
 30       0.026309768118
 31       0.046072857805
 32      -0.059770554318
 33       0.011922565238
 34       0.524292436551
 35      -0.252337659805
 36      -0.003060458047
 37       0.684683139797
 38       0.015630254750
 39       0.134297128628
 40      -0.438773102469
 41       0.779317969044
 42      -0.716436491348
 43       0.005078692521
 44      -0.164955024928
 45       0.376552001514
 46      -0.842583998755
 47       0.014308565839
 48       0.041427075584
 49      -0.290823674630
 50       0.451770353610
 51       0.799550198612
 52       0.005906950840
 53       0.000079398843
 54       0.006081009048
 55       0.202970652597
 56      -0.036048043646
 57       0.121111418012
 58      -0.296204819755
 59      -0.300004437853
 60       0.107739753545
 61      -0.038052148659
 62       0.025067296054
 63       0.052880671813
 64       0.065399965321
 65       0.054829379809
 66      -0.014016588471
 67      -0.035579358149
 68       0.078889780144
 69       0.041624928315
 70      -0.425930923120
 71      -0.110479758581
 72      -0.064505443556
 73       0.039166919931
 74      -0.111093336892
 75       0.019489537188
 76       0.011651159374
 77       0.034186966843
 78       0.383869850540
 79      -0.131518552592
 80       0.015435902781
 81       0.019775151513
 82       0.011834922059
 83      -0.015502959597
 84      -0.035759457353
 85       0.020706313447
 86      -0.037408049835
 87       0.054154441767
 88       0.148553188565
 89       0.063078412175
 90      -0.021638966279
 91      -0.287829869416
 92      -0.017437948814
 93       0.061500516091
 94      -0.093697125087
 95       0.207674134351
 96      -0.784915597110
 97       0.023288501594
 98      -0.047339580383
 99       0.117088147541
100      -0.039883041313
101       0.085112774300
102       0.025695942214
103      -0.001021592047
104      -0.041180954722
105      -0.039852975284
106       0.085201876220
107       0.036490806158
108       0.020469188971
109       0.024325942882
110       0.207362977122
111      -0.783127712038
112      -0.006876558608
113      -0.108204014346
114      -0.068357927094
115      -0.020932391349
116      -0.290693766905
117       0.004301595148
118       0.105754024046
119       0.041037346414
 Sym=     1a
 Ene= 1.21876181313045E+00
 Spin= Alpha
 Occup= 0.000000
  1      -0.038397512344
  2      -0.108255254973
  3       0.759794355479
  4      -1.281730117793
  5      -3.363640694953
  6       0.087139071627
  7      -0.033399386989
  8      -0.084028203886
  9       0.000581117915
 10       0.181837805954
 11      -0.047438719138
 12      -0.297726267465
 13       0.354381449184
 14      -0.507695393624
 15       0.053630250264
 16      -0.082248856223
 17      -0.037657900263
 18       0.033912011581
 19       0.040867982881
 20      -0.000001506196
 21       0.000000467871
 22       0.000012796737
 23      -0.000137146436
 24      -0.000393445680
 25      -0.001168976210
 26      -0.002247095900
 27      -0.006784656520
 28       0.009165744638
 29       0.018019710253
 30       0.054892519119
 31      -0.023541068315
 32      -0.046106178744
 33      -0.141131444680
 34      -0.208744875914
 35      -0.416523551908
 36      -1.270210814432
 37       0.297531690284
 38      -0.934775701718
 39       0.009606076647
 40      -0.140170585317
 41      -0.323334500427
 42      -0.258366780795
 43       1.551056652459
 44      -0.373988759322
 45       0.361428296220
 46       0.464133952471
 47       0.038321430253
 48       0.108036438062
 49      -0.758249286536
 50       1.279194726234
 51       3.360080363078
 52      -0.109933206167
 53      -0.013315772751
 54      -0.058564938038
 55       0.002363700195
 56      -0.174998658153
 57       0.069556439442
 58       0.172790865247
 59      -0.608357957364
 60      -0.266869632531
 61       0.035765474159
 62      -0.031750851123
 63      -0.041738278695
 64      -0.022164390057
 65      -0.096964959766
 66       0.000039321354
 67       0.000095268057
 68      -0.000121333957
 69      -0.000965130584
 70       0.003933639189
 71       0.015495423079
 72       0.031004927313
 73       0.094201531971
 74       0.002104964925
 75       0.004047273678
 76       0.011973393209
 77      -0.125866178590
 78      -0.252047623869
 79      -0.765401287964
 80      -0.011381367262
 81       0.054201203691
 82      -0.009519549874
 83       0.011463339454
 84       0.016948882985
 85      -0.028002566290
 86       0.255252286115
 87      -0.083412356527
 88       0.067730606289
 89       0.072277844921
 90      -0.167164208567
 91       1.294102465821
 92      -0.019985384925
 93       0.082917923687
 94      -0.011513868430
 95      -0.064202346408
 96       0.909359866631
 97       0.036125734254
 98      -0.038085792264
 99       0.113843914799
100      -0.169111891937
101       0.955802714664
102      -0.025368374520
103      -0.046492753558
104      -0.057789412019
105       0.168919283907
106      -0.953945247744
107       0.003074527805
108       0.001652351098
109      -0.078262858209
110       0.063895860063
111      -0.907558702551
112      -0.005483105628
113       0.100346599927
114       0.075226778863
115       0.167132575665
116      -1.293341054985
117       0.023515014596
118      -0.075852460885
119       0.033426069686
 Sym=     1a
 Ene= 1.25809454001045E+00
 Spin= Alpha
 Occup= 0.000000
  1      -0.025318455756
  2      -0.071511240407
  3       0.547053034563
  4      -1.217813244608
  5      -1.145130290143
  6       0.241287064361
  7      -0.014029993163
  8      -0.222686349907
  9      -0.424568309683
 10      -0.010976607473
 11       0.161714137023
 12       0.404461088443
 13       0.132761331822
 14      -0.572007751123
 15      -0.039075405330
 16      -0.031479554898
 17       0.050175586738
 18      -0.070916432116
 19       0.034831801396
 20       0.000381028590
 21       0.004628449847
 22       0.000484969814
 23      -0.049835908484
 24      -0.464689133624
 25      -0.027366064974
 26      -0.021429890127
 27       0.011573760183
 28       0.144947526855
 29       0.024017004659
 30      -0.031663229067
 31      -0.427776879585
 32       0.058335421886
 33       0.050537672419
 34      -2.557513046936
 35       0.402664320598
 36       0.282488797492
 37      -0.124345842254
 38      -0.380443264006
 39       0.020233058616
 40       0.673201807122
 41       0.694483316326
 42       0.523713670901
 43       0.719440155713
 44       0.099601821657
 45      -1.266518135224
 46      -1.044777979222
 47      -0.025342468357
 48      -0.071572403479
 49       0.547303125035
 50      -1.218021695132
 51      -1.145538193348
 52       0.296188626180
 53       0.095030157926
 54       0.108572000810
 55      -0.451082575291
 56      -0.062876273692
 57       0.004900392724
 58       0.536802944178
 59       0.401205253739
 60       0.240554231600
 61       0.037515476096
 62       0.022268937557
 63      -0.092718771896
 64      -0.011588046646
 65       0.024544482198
 66       0.029112081478
 67       0.071585864780
 68      -0.107880264845
 69      -0.674783686685
 70       3.711563688857
 71       0.106436925444
 72      -0.026510026239
 73      -0.008727342965
 74       0.020341280961
 75       0.039725754547
 76      -0.016388688046
 77      -1.135161384714
 78       0.100959627839
 79       0.152662378440
 80      -0.015060110165
 81       0.001656361496
 82       0.010296528992
 83       0.036693258429
 84      -0.034531765331
 85       0.037348861958
 86       0.042842589971
 87       0.040386984687
 88      -0.005412957172
 89      -0.086940038523
 90      -0.047330591787
 91       0.360602481008
 92      -0.059965714436
 93       0.028712015070
 94       0.073365856381
 95      -0.104341595915
 96       0.647631592049
 97      -0.055403658324
 98      -0.010440316056
 99       0.029963405291
100       0.035544192958
101       0.276989514574
102      -0.026884325902
103      -0.040008717980
104       0.066299781689
105       0.035059305003
106       0.277380982370
107      -0.040783271801
108      -0.068364881547
109      -0.019600646468
110      -0.104324065541
111       0.647388124810
112      -0.060627693341
113      -0.020661361369
114      -0.000796941335
115      -0.048119876272
116       0.364253290900
117      -0.081197718710
118      -0.013461421986
119      -0.055307284261
 Sym=     1a
 Ene= 1.28263162861292E+00
 Spin= Alpha
 Occup= 0.000000
  1      -0.032577759245
  2      -0.095914941318
  3       0.833375656466
  4      -2.000434877746
  5      -3.762187707646
  6      -0.264180720502
  7       0.223605152892
  8      -0.078978681319
  9       0.038201095318
 10      -0.173667629479
 11      -0.250780300833
 12      -0.656187117178
 13       0.281345397121
 14      -1.352820754265
 15      -0.088354499591
 16      -0.094981547508
 17       0.092100293620
 18      -0.017332721380
 19       0.039440427790
 20      -0.000002185323
 21       0.000000650796
 22       0.000018191116
 23      -0.000210314233
 24       0.000791177109
 25       0.012364603284
 26       0.024795609062
 27       0.075677680912
 28      -0.022882638571
 29      -0.045670367665
 30      -0.139391019834
 31       0.005909644092
 32       0.011373754816
 33       0.034119013896
 34      -0.589606187606
 35      -1.195334415750
 36      -3.640431261470
 37      -0.486479322682
 38      -0.067982863193
 39       0.773545904505
 40      -0.288659865338
 41       0.132642097085
 42       0.995484583390
 43       0.638087184289
 44      -1.830845232578
 45       0.752642589462
 46      -0.148084363125
 47       0.032573135833
 48       0.095873163538
 49      -0.832756852436
 50       1.999608764834
 51       3.765865006328
 52       0.250125005620
 53      -0.250699266233
 54      -0.007422248339
 55      -0.124419120325
 56      -0.002365828226
 57      -0.279701387467
 58       0.262212926777
 59      -1.073238849628
 60      -1.057709980012
 61      -0.016564573861
 62      -0.034935830173
 63       0.131972774139
 64      -0.081858444363
 65      -0.039090413164
 66      -0.000020759754
 67      -0.000052604091
 68       0.000101734287
 69       0.000438773552
 70      -0.002614238200
 71      -0.004784869688
 72      -0.009393942394
 73      -0.028847605198
 74      -0.011653382737
 75      -0.023560409117
 76      -0.071696957219
 77       0.080370602079
 78       0.160112995589
 79       0.489225807305
 80       0.007600606501
 81      -0.000816864711
 82      -0.011109799270
 83       0.003846499330
 84      -0.002503746061
 85      -0.042283071006
 86      -0.167710626205
 87       0.147485730894
 88      -0.077644418037
 89      -0.028080602516
 90       0.143487476552
 91       0.131102135410
 92       0.050417309057
 93      -0.047519294999
 94       0.040292567026
 95      -0.024594991520
 96       0.885847974312
 97       0.089625037319
 98      -0.032545060427
 99      -0.013238352650
100       0.008987309577
101       0.852516600745
102       0.048945203981
103      -0.067300306560
104       0.074047977093
105      -0.008943767505
106      -0.852048891889
107      -0.031630010572
108       0.101711261062
109       0.031652054716
110       0.025675663439
111      -0.889306262345
112      -0.092202929209
113       0.026979375744
114      -0.003206689469
115      -0.143103872767
116      -0.132336029802
117      -0.040960903538
118       0.066537216168
119       0.017938199457
 Sym=     1a
 Ene= 1.32723879544852E+00
 Spin= Alpha
 Occup= 0.000000
  1      -0.014171127159
  2      -0.053206179932
  3       0.568486291761
  4      -1.014286502576
  5       0.828766502861
  6      -0.130015473696
  7       0.518820493917
  8      -0.224757414283
  9       0.164704613968
 10      -0.847696246154
 11       0.206644848607
 12      -0.185830239953
 13       0.697282188508
 14      -0.219800897944
 15      -0.066368794767
 16      -0.067690000097
 17       0.020911506818
 18       0.014444932017
 19       0.171960421470
 20      -0.006711681310
 21       0.001749399209
 22       0.054106219586
 23      -0.352782641204
 24       0.733995096258
 25       0.053110194190
 26      -0.090379698802
 27       0.021066545895
 28      -0.166069489938
 29       0.243155284880
 30      -0.052946587599
 31       0.225297579191
 32      -0.206234093569
 33       0.031084222278
 34      -0.142389121776
 35      -0.003063405479
 36       0.028218016257
 37      -0.061681237690
 38       0.042877082800
 39      -0.073343772392
 40      -0.153543923802
 41      -0.115059005163
 42       0.028630622356
 43       0.034338945375
 44       0.063094704123
 45       0.060169399467
 46      -0.099619156224
 47      -0.014205467752
 48      -0.053290244932
 49       0.569154982269
 50      -1.016694164438
 51       0.820094727895
 52      -0.108504599263
 53       0.563736387071
 54      -0.092903035504
 55       0.177434630989
 56      -0.822862829468
 57       0.288516268604
 58      -0.179706195920
 59       0.712797504393
 60      -0.182473338904
 61       0.012327619807
 62      -0.072043232047
 63      -0.096986493510
 64       0.055605971278
 65       0.146696949495
 66      -0.003288610810
 67      -0.008774444229
 68       0.028747926039
 69      -0.001625514183
 70      -0.106633471240
 71      -0.040790245989
 72      -0.000779545387
 73       0.006912884824
 74       0.004052072932
 75      -0.002299940718
 76       0.000185449896
 77       0.077170023456
 78       0.107354501743
 79      -0.048192924279
 80       0.013599007374
 81       0.009144261370
 82       0.002685373006
 83      -0.020259906425
 84      -0.005012450484
 85       0.019826956955
 86       0.038051341315
 87       0.052987472584
 88       0.049107096333
 89      -0.111353224789
 90       0.063192269801
 91      -0.071684780040
 92      -0.013381105794
 93      -0.069725547651
 94      -0.007614761769
 95       0.252313329554
 96      -0.436214071346
 97       0.045360601380
 98      -0.116027070368
 99       0.052534175551
100       0.377078526644
101      -0.598887135963
102       0.030814850830
103      -0.143869496316
104       0.061785475420
105       0.377306577135
106      -0.597859142491
107       0.025261375536
108      -0.155765523661
109       0.027213662247
110       0.251698188440
111      -0.433235832480
112       0.039189299720
113      -0.128640105801
114       0.014628362099
115       0.062904331534
116      -0.070538825111
117      -0.004079209523
118      -0.051232526922
119       0.050359452334
 Sym=     1a
 Ene= 1.33966154835936E+00
 Spin= Alpha
 Occup= 0.000000
  1       0.004995132664
  2       0.024107347910
  3      -0.293676663894
  4       0.407177993067
  5      -0.812784625070
  6       0.149667475673
  7       0.474611076858
  8       0.384799296515
  9      -0.262090511995
 10      -0.790035108418
 11      -0.582115772449
 12       0.268363207111
 13       0.628373546566
 14       0.438033487879
 15      -0.040958073735
 16       0.126189158755
 17      -0.048619275787
 18      -0.005475468274
 19       0.085014746896
 20      -0.000001641235
 21       0.000001858816
 22       0.000013883830
 23       0.000201511376
 24      -0.004687727553
 25      -0.013680029936
 26      -0.027874871039
 27      -0.084616710401
 28       0.038886447592
 29       0.079172013787
 30       0.240298379047
 31      -0.036627046932
 32      -0.072936331836
 33      -0.220940674247
 34      -0.055906812281
 35      -0.110679597023
 36      -0.333357862703
 37      -0.002957896970
 38      -0.142491093840
 39       0.074639469919
 40      -0.048461443264
 41      -0.034191836033
 42       0.061550286599
 43      -0.020043359199
 44      -0.083269294228
 45       0.026965640294
 46      -0.024274795449
 47      -0.004964549755
 48      -0.024007051431
 49       0.292884867718
 50      -0.405869686643
 51       0.815366261992
 52       0.013647665539
 53      -0.145597175793
 54       0.610520221620
 55       0.006435934595
 56       0.274993261539
 57      -0.975288167356
 58      -0.068549731284
 59      -0.227724576948
 60       0.773250841214
 61      -0.020974384480
 62       0.150750008501
 63       0.005192072071
 64       0.061995039453
 65       0.003361391406
 66       0.000009262947
 67       0.000016665325
 68       0.000102491048
 69      -0.001301630360
 70       0.004126124331
 71      -0.002134489511
 72      -0.004135314713
 73      -0.012577676497
 74      -0.003498001722
 75      -0.007123833907
 76      -0.021900485052
 77       0.032228717044
 78       0.069369536564
 79       0.212421798940
 80      -0.002572266648
 81      -0.001981232580
 82       0.004941873419
 83      -0.002100100054
 84       0.000259481100
 85       0.033056827861
 86      -0.173211218368
 87       0.034716624718
 88      -0.037058592282
 89      -0.053147055039
 90      -0.315361187370
 91       0.488435917633
 92      -0.035284547196
 93      -0.147867719014
 94      -0.082841068132
 95      -0.220338572794
 96       0.456603984290
 97      -0.042919367579
 98      -0.094151535895
 99      -0.114059633929
100      -0.068104233362
101       0.197387496094
102      -0.024267568156
103      -0.117243019122
104      -0.029779064926
105       0.068998888778
106      -0.200092812766
107       0.003295557017
108       0.074890375523
109      -0.097479136473
110       0.220024227559
111      -0.456684232221
112      -0.000945293584
113       0.005770975569
114      -0.153535826384
115       0.314984520611
116      -0.488661581032
117      -0.004466880029
118       0.068176827762
119      -0.158628663995
 Sym=     1a
 Ene= 1.35151835172606E+00
 Spin= Alpha
 Occup= 0.000000
  1       0.004112618424
  2       0.017544999338
  3      -0.214234403497
  4       0.351012880616
  5      -0.137556245874
  6      -0.389316779559
  7      -0.212002468589
  8       0.435912345675
  9       0.692110110545
 10       0.336086441190
 11      -0.656304123101
 12      -0.525299565073
 13      -0.187789731618
 14       0.660107068802
 15       0.108056110650
 16      -0.109650848270
 17      -0.113096205698
 18       0.110894486468
 19      -0.047756353381
 20       0.000008323297
 21      -0.000002070232
 22      -0.000067552921
 23       0.000393883372
 24       0.000310878567
 25      -0.007060682948
 26      -0.014046874642
 27      -0.042949066872
 28       0.022536531613
 29       0.044847233967
 30       0.137130745194
 31      -0.034856780212
 32      -0.070083045810
 33      -0.214485456367
 34       0.027375127950
 35       0.055738998139
 36       0.168815178615
 37      -0.080991496804
 38       0.039762285247
 39       0.103149697386
 40      -0.030978390066
 41       0.034742556473
 42       0.035204425022
 43      -0.108076708441
 44       0.000227564373
 45      -0.016252953918
 46      -0.037327547822
 47      -0.004071845263
 48      -0.017399599896
 49       0.212828081269
 50      -0.348938453730
 51       0.135729558577
 52       0.475559788710
 53       0.386578868662
 54       0.097405267496
 55      -0.815314809598
 56      -0.585676686126
 57      -0.106447788607
 58       0.672446717840
 59       0.484076130204
 60       0.243688494785
 61       0.126004934301
 62      -0.073150360021
 63      -0.151750812221
 64      -0.042594771826
 65      -0.070361888743
 66      -0.000001307322
 67       0.000000139965
 68      -0.000069924079
 69       0.000528308596
 70      -0.000772469103
 71      -0.002016136771
 72      -0.004150722428
 73      -0.012807394935
 74       0.001262482850
 75       0.002811262149
 76       0.008384885999
 77      -0.001460627345
 78      -0.004783523451
 79      -0.013163721650
 80       0.003664106879
 81      -0.023180218118
 82       0.005843954449
 83      -0.005475273803
 84      -0.006864092569
 85       0.049206652690
 86      -0.138932445333
 87      -0.005822063734
 88      -0.018766018429
 89      -0.049349495891
 90      -0.189545323802
 91       0.347047915600
 92       0.114437987703
 93       0.052720505713
 94      -0.114571732802
 95       0.029950236199
 96      -0.061587525973
 97       0.125083680250
 98       0.018375387261
 99      -0.007134831037
100      -0.201865068892
101       0.220460012857
102       0.083287514182
103       0.055369769686
104      -0.149853783677
105       0.201112643835
106      -0.219768791209
107      -0.116943570440
108      -0.123647108673
109      -0.058443969724
110      -0.030428968989
111       0.062830085889
112      -0.119422831129
113      -0.007057500394
114       0.041295030560
115       0.189191765534
116      -0.347121352790
117      -0.136814447297
118      -0.098253707634
119      -0.023892817490
 Sym=     1a
 Ene= 1.36627090140306E+00
 Spin= Alpha
 Occup= 0.000000
  1      -0.025984226724
  2      -0.089019841822
  3       0.845855278267
  4      -1.491867456356
  5      -0.288125884317
  6      -0.401041617819
  7      -0.280181258325
  8      -0.252406447628
  9       0.612098840486
 10       0.501994391170
 11       0.311487602399
 12      -0.763078275185
 13      -0.391173103384
 14      -0.410355328619
 15      -0.011928132068
 16      -0.131188749963
 17       0.042055306020
 18       0.037992309034
 19      -0.103610964815
 20      -0.005651390086
 21       0.001220929127
 22       0.045757361517
 23      -0.454721096551
 24       3.247327301170
 25       0.013750867880
 26      -0.042876596612
 27       0.011723133138
 28      -0.081865188791
 29       0.112805150304
 30      -0.023418612505
 31       0.611451415397
 32      -0.059853274199
 33      -0.079948220541
 34       0.246677518978
 35       0.777067276883
 36      -0.295435820906
 37       0.117272949774
 38       0.025382928595
 39       0.207274830429
 40       0.309126139469
 41      -0.094799213244
 42      -0.081832242353
 43      -0.005253600095
 44      -0.105283807718
 45      -0.144291299597
 46      -0.000151264913
 47      -0.025993446917
 48      -0.089067858226
 49       0.846449031247
 50      -1.492297412984
 51      -0.289360248861
 52      -0.282688687514
 53      -0.043537675992
 54       0.471277678820
 55       0.445304348565
 56       0.169478625462
 57      -0.706286788988
 58      -0.571793369970
 59      -0.008612720276
 60       0.762766684212
 61      -0.060378546049
 62       0.132409493670
 63      -0.014821073184
 64       0.097576460292
 65      -0.023373820549
 66      -0.005190348249
 67      -0.011336097933
 68      -0.016794870240
 69       0.549010956884
 70      -1.773575854691
 71       0.006456107287
 72       0.010557596632
 73      -0.004533722301
 74      -0.005047435323
 75      -0.014146987703
 76       0.005422803184
 77       1.145865110851
 78       0.113139306095
 79      -0.223401278048
 80       0.003925846953
 81      -0.004321643595
 82      -0.001634971548
 83      -0.002213273152
 84       0.016974118019
 85       0.248179643567
 86       0.176900884726
 87       0.018091038582
 88      -0.452247961372
 89      -0.085417526251
 90       0.265539402825
 91      -0.002265560846
 92       0.085743024217
 93       0.091147655685
 94       0.063794786460
 95       0.317173444418
 96      -0.174279387270
 97       0.113876644928
 98       0.080907338032
 99       0.034643752214
100       0.028709833441
101       0.412580682611
102       0.064127962168
103       0.062249134081
104       0.013593897973
105       0.028650488157
106       0.414025406114
107       0.051154439860
108       0.036753563805
109      -0.065005856322
110       0.317637262389
111      -0.174976557743
112       0.090758044888
113       0.034849146161
114      -0.106489132869
115       0.266623165959
116      -0.004553775259
117       0.054708877216
118       0.028910232315
119      -0.126498793804
 Sym=     1a
 Ene= 1.40444408214731E+00
 Spin= Alpha
 Occup= 0.000000
  1      -0.006299311264
  2      -0.025780293726
  3       0.240162706079
  4      -0.068765523853
  5       2.616220935463
  6      -0.328879222075
  7       0.224701265614
  8      -0.245537180990
  9       0.754175483168
 10      -0.501308026741
 11       0.586798042223
 12      -0.339090122035
 13       0.862202800397
 14       0.986439263788
 15       0.063132932567
 16       0.016343838158
 17      -0.016245085488
 18       0.140471948265
 19       0.251821736571
 20      -0.000006682842
 21      -0.000006125724
 22       0.000049783101
 23      -0.000065862764
 24      -0.005403155552
 25       0.005045744852
 26       0.010030984261
 27       0.030363051448
 28      -0.027329678390
 29      -0.054610665438
 30      -0.165983529276
 31       0.058604444255
 32       0.119639618781
 33       0.365117049652
 34       0.232093924323
 35       0.466463335981
 36       1.426819027595
 37       0.246593012026
 38       0.218750232342
 39      -0.482107425489
 40       0.204099912373
 41      -0.021803105874
 42      -0.568222774785
 43      -0.604475802156
 44       1.161568297792
 45      -0.504354431870
 46       0.025695736107
 47       0.006294270537
 48       0.025758234996
 49      -0.240076020397
 50       0.069927487758
 51      -2.611857750906
 52       0.265837342620
 53      -0.354441485501
 54      -0.150789236106
 55      -0.600437556260
 56       0.815155072539
 57       0.371782179703
 58       0.692756888868
 59      -0.157745565765
 60       1.153949711236
 61      -0.058931160980
 62       0.168812367308
 63      -0.081920648430
 64      -0.077899358563
 65      -0.208145770911
 66      -0.000014380229
 67      -0.000045844447
 68       0.000287079522
 69      -0.001462157793
 70       0.001548801309
 71      -0.002040294698
 72      -0.003749046782
 73      -0.011420186808
 74       0.004879610290
 75       0.009476989961
 76       0.028658102727
 77      -0.029440133661
 78      -0.055172071915
 79      -0.167115060490
 80       0.001472804332
 81      -0.026453607995
 82       0.010937997037
 83      -0.007931339492
 84      -0.007047950325
 85       0.061200082678
 86       0.013321764882
 87      -0.101433672556
 88       0.039954953216
 89      -0.015680553941
 90      -0.088180674814
 91       0.546689932181
 92      -0.054449852154
 93       0.031629201245
 94      -0.079735605136
 95       0.256871124901
 96      -0.820540558196
 97       0.075876969199
 98      -0.132328579984
 99      -0.000507434104
100       0.178785716615
101      -0.783996659700
102       0.136359539639
103      -0.092328945342
104       0.022575599556
105      -0.178020347424
106       0.780732900508
107      -0.133069191650
108       0.100578500502
109       0.002697325995
110      -0.257981157330
111       0.823385587494
112      -0.085425589408
113       0.114105096886
114      -0.054962704385
115       0.089080528954
116      -0.548580582856
117       0.031751552243
118      -0.077178089505
119      -0.058470578067
 Sym=     1a
 Ene= 1.43442358830554E+00
 Spin= Alpha
 Occup= 0.000000
  1       0.009548573744
  2       0.033831832608
  3      -0.282697801839
  4      -0.054590612210
  5      -0.483463844872
  6       0.073038195812
  7      -0.344286670604
  8       0.062954871057
  9      -0.214811823956
 10       0.676409764102
 11      -0.315287724383
 12       0.155748531172
 13       0.327769942599
 14       0.187034738392
 15       0.022466532747
 16       0.199782853495
 17       0.185902712720
 18       0.102431157895
 19       0.238357623878
 20      -0.000092337213
 21      -0.000060367857
 22       0.000703070170
 23      -0.003589138727
 24      -0.018661038154
 25       0.005127280841
 26       0.009393564124
 27       0.027616728164
 28      -0.011944344342
 29      -0.019995598677
 30      -0.059461151928
 31       0.002724939195
 32       0.010199981266
 33       0.036871777690
 34      -0.167807948158
 35      -0.375467398824
 36      -1.115182994546
 37      -0.105085445985
 38      -0.196867326199
 39       0.268134563529
 40      -0.132477404303
 41      -0.017150214859
 42       0.179017416196
 43       0.525686244147
 44      -0.552265587570
 45       0.289158685221
 46       0.077357993297
 47      -0.009720951872
 48      -0.034456506173
 49       0.287614630790
 50       0.057455040022
 51       0.505021960989
 52      -0.075356001515
 53       0.326076956309
 54      -0.123842116508
 55       0.164355552313
 56      -0.761378489607
 57       0.073482285343
 58      -0.048445780555
 59      -0.143745507552
 60       0.382719674284
 61      -0.271881326829
 62       0.234890314123
 63      -0.023459558390
 64      -0.099397711060
 65      -0.058866606540
 66      -0.000071143523
 67      -0.000221747150
 68       0.001399603313
 69      -0.007463295335
 70      -0.002650557220
 71      -0.007107733441
 72      -0.013094360685
 73      -0.038763259705
 74      -0.008501061343
 75      -0.021415586579
 76      -0.064632195663
 77       0.026361447176
 78       0.074140115138
 79       0.223555617740
 80      -0.005644036211
 81       0.001781962067
 82       0.008389270989
 83      -0.003451084794
 84       0.002069386774
 85      -0.058522616924
 86      -0.100981276585
 87       0.130622765227
 88      -0.052666396191
 89      -0.008137859258
 90      -0.101520928063
 91       0.409945983195
 92      -0.161207801693
 93       0.091280064206
 94      -0.062678300091
 95      -0.125677798990
 96       0.136419637377
 97      -0.030591144380
 98      -0.030869281158
 99      -0.092188437686
100      -0.184803876319
101      -0.263058197727
102       0.174983453532
103       0.067962901854
104       0.189490393805
105       0.187877045272
106       0.259404034809
107      -0.110067398394
108       0.071121011592
109       0.233174545704
110       0.122950447395
111      -0.131059759065
112      -0.002415447074
113      -0.029700898729
114      -0.097206450708
115       0.108915254719
116      -0.420735699196
117       0.142053485187
118      -0.127282800628
119      -0.043036256098
 Sym=     1a
 Ene= 1.44455953392409E+00
 Spin= Alpha
 Occup= 0.000000
  1       0.006803301740
  2       0.024351751629
  3      -0.187224820653
  4      -0.138076928857
  5      -0.733462181315
  6      -0.227563501093
  7       0.046812680111
  8       0.367929231385
  9       0.282287461902
 10      -0.055711374607
 11      -0.862540603669
 12      -0.451595748247
 13       0.238893206911
 14       0.288113232592
 15       0.127100920489
 16      -0.120622103247
 17      -0.055799191577
 18       0.125786269551
 19       0.153846812513
 20       0.007629235796
 21       0.005121686677
 22      -0.057994180552
 23       0.303563877197
 24       1.288149272079
 25      -0.042203532843
 26      -0.019380619268
 27       0.013719375570
 28       0.157746695251
 29       0.021204683465
 30      -0.033943824205
 31       0.237177588574
 32       0.124469724360
 33      -0.077931394448
 34      -1.140256743506
 35       0.676103059821
 36      -0.050218644481
 37      -0.398640330412
 38      -0.261188614471
 39      -0.095426334682
 40       0.535551044709
 41       0.145268676941
 42       0.747787779879
 43       0.506911901952
 44       0.178023388071
 45      -1.027849798979
 46      -0.308192434608
 47       0.006522158307
 48       0.023382723794
 49      -0.179211490606
 50      -0.138505656189
 51      -0.733358827017
 52      -0.328806140498
 53      -0.147645411439
 54      -0.246052525680
 55       0.525492030407
 56       0.413111811252
 57       0.612095610758
 58      -0.534792000483
 59       0.064089018877
 60      -0.212632453185
 61      -0.031798408837
 62      -0.002747290217
 63       0.118295915466
 64       0.075944546700
 65       0.225964730090
 66       0.005005188946
 67       0.015513008046
 68      -0.099202620848
 69       0.556617318158
 70       0.314029995280
 71       0.052720173792
 72       0.026270371350
 73      -0.017846699997
 74      -0.154501386753
 75       0.023000236424
 76       0.016649776293
 77       0.714272633074
 78      -0.105960012245
 79      -0.077445365563
 80      -0.026871041695
 81      -0.020649582996
 82      -0.001348825315
 83       0.051720380527
 84       0.012222538825
 85       0.355166073402
 86       0.196708863778
 87      -0.011536677648
 88      -0.663333701788
 89       0.042497643760
 90      -0.277978307301
 91       0.386745373881
 92       0.053458118930
 93       0.028814149642
 94      -0.125686738325
 95       0.100046560796
 96      -0.211531061488
 97       0.078236858144
 98      -0.070257504416
 99       0.016025502685
100      -0.107219311203
101       0.071187666461
102       0.147227377798
103      -0.044349567626
104      -0.066710219471
105      -0.103203907497
106       0.081587272039
107       0.160471794618
108      -0.008570256604
109       0.040221548476
110       0.102709035474
111      -0.210382570671
112       0.076550680395
113      -0.073484118295
114       0.003255816800
115      -0.274514161844
116       0.374054100240
117       0.088345678220
118       0.087596808557
119       0.062387918278
 Sym=     1a
 Ene= 1.57698679878189E+00
 Spin= Alpha
 Occup= 0.000000
  1      -0.029088829983
  2      -0.099363541871
  3       0.905194200068
  4      -1.378225306067
  5       1.358607305591
  6      -0.166256342632
  7      -0.064439898814
  8       0.168219753929
  9       0.577633969943
 10       0.208303673180
 11      -0.305778912714
 12       0.128236131928
 13      -0.174077331191
 14       0.283602853577
 15      -0.251946775250
 16       0.212361655741
 17       0.058660931351
 18       0.031701503959
 19      -0.123850413413
 20       0.000009970178
 21       0.000005330374
 22      -0.000080835256
 23       0.001052114056
 24      -0.000217499968
 25      -0.010431769349
 26      -0.021175047601
 27      -0.064085385905
 28       0.036389975429
 29       0.074055422744
 30       0.224034790351
 31      -0.051877141881
 32      -0.107229681478
 33      -0.324314354770
 34       0.294482735302
 35       0.598481691524
 36       1.821574475967
 37       0.270254418479
 38      -0.236784192036
 39      -0.294337021287
 40       0.071386473624
 41      -0.141801845668
 42      -0.694949439836
 43       1.222315199070
 44       0.451971474914
 45       0.016460034821
 46       0.517221808095
 47       0.029191163999
 48       0.099737560523
 49      -0.908857832701
 50       1.384455181058
 51      -1.364498916800
 52       0.199950707526
 53       0.134957882040
 54       0.043505132449
 55      -0.617135467130
 56      -0.293501120931
 57       0.052951041671
 58      -0.058073211667
 59       0.318213860452
 60       0.152515406560
 61       0.010884464529
 62       0.163875350150
 63       0.121007703856
 64      -0.041046506250
 65       0.291825696080
 66       0.000000038344
 67      -0.000002811608
 68       0.000038982298
 69       0.000086867569
 70       0.001383178294
 71       0.006902583421
 72       0.014155634331
 73       0.042855805123
 74       0.013252472761
 75       0.027032376473
 76       0.082190423086
 77      -0.208654773692
 78      -0.422360707580
 79      -1.286274940878
 80      -0.017139701627
 81       0.011450192110
 82       0.020378088716
 83      -0.005598550600
 84       0.008172770856
 85      -0.236362987368
 86       0.646253276524
 87       0.040726935842
 88       0.079892705459
 89       0.233445008243
 90       0.200539513856
 91      -0.049416270213
 92       0.039907590800
 93      -0.068479698062
 94       0.026389315778
 95       0.366836363401
 96      -0.069463766235
 97       0.035348479979
 98       0.102920504899
 99      -0.264392815636
100       0.086241600056
101      -0.128420182257
102       0.013287560699
103       0.058790331261
104       0.075716189150
105      -0.087151332794
106       0.129903363922
107       0.015069750582
108      -0.002569898055
109       0.095778296229
110      -0.367510995014
111       0.070746515287
112      -0.099608276288
113      -0.233236911276
114      -0.131937229247
115      -0.201861539916
116       0.051307105432
117      -0.036887949603
118       0.074282584932
119      -0.007999967642
 Sym=     1a
 Ene= 1.59740538156426E+00
 Spin= Alpha
 Occup= 0.000000
  1      -0.033511498736
  2      -0.124484864943
  3       1.278794185893
  4      -2.435379224956
  5       1.875339949395
  6       0.219141010426
  7      -0.234937115109
  8       0.330296828228
  9      -0.455694479326
 10       0.531704598719
 11      -0.723334693196
 12       0.254936694644
 13       0.072214239041
 14       0.185723628410
 15       0.096655273071
 16       0.132891413382
 17       0.112475187734
 18       0.076699771808
 19       0.177533605501
 20      -0.000526442264
 21       0.001897891964
 22       0.008378497241
 23      -0.506613342509
 24       0.676925493249
 25       0.021719271169
 26       0.058739021245
 27      -0.022961753037
 28      -0.013797694009
 29      -0.262446605394
 30       0.088923216717
 31      -0.278281536986
 32       0.531626203083
 33      -0.130126586281
 34       0.008495002533
 35      -0.011403047476
 36       0.006341283366
 37      -0.076303613569
 38       0.018022159861
 39      -0.110811498672
 40      -0.190721194953
 41      -0.043052719195
 42       0.470290355826
 43       0.188576396241
 44       0.454872188080
 45       0.278503432520
 46      -0.216582746963
 47      -0.033427821395
 48      -0.124192201327
 49       1.276074187161
 50      -2.431336915853
 51       1.866643161170
 52       0.136643561290
 53      -0.401679422067
 54      -0.178472231971
 55      -0.278175637837
 56       0.891786689102
 57       0.374598896739
 58       0.182334759012
 59      -0.071060904984
 60      -0.255191696596
 61       0.207149552928
 62      -0.140243859450
 63       0.080310919062
 64       0.047766425088
 65       0.076336748349
 66      -0.002234955106
 67      -0.004812841996
 68      -0.006471424041
 69       0.134014464859
 70      -0.410361214333
 71       0.022298719772
 72      -0.025237035595
 73       0.004703140656
 74       0.007317872567
 75      -0.014798379368
 76       0.003829485926
 77      -0.081184322222
 78       0.076291035081
 79      -0.013240162639
 80       0.004458530570
 81       0.011143292907
 82       0.006920471330
 83      -0.003811952672
 84      -0.026137599316
 85      -0.226638787737
 86      -0.056095574411
 87      -0.066759824259
 88       0.162271408795
 89      -0.117042215545
 90       0.349171935278
 91      -0.493333456968
 92      -0.146529451455
 93       0.093295605092
 94      -0.073617397543
 95       0.326372130979
 96      -0.527413785459
 97      -0.019973700133
 98      -0.011502369556
 99      -0.026318173402
100       0.354809763760
101      -0.818062124628
102       0.088037677676
103       0.026222773368
104       0.076769059049
105       0.354210329987
106      -0.816913302801
107       0.059591229955
108      -0.031501481071
109      -0.099108952950
110       0.325490328282
111      -0.525981427706
112      -0.010461625809
113       0.007430675460
114       0.032222659358
115       0.348410220127
116      -0.492371749500
117      -0.127514710864
118       0.131944499870
119       0.044230491317
 Sym=     1a
 Ene= 1.69693063637131E+00
 Spin= Alpha
 Occup= 0.000000
  1       0.041405930844
  2       0.146014043570
  3      -1.434388572411
  4       3.071999395694
  5      -4.681424365400
  6      -0.333387029898
  7       0.164292039298
  8      -0.353259185760
  9       0.790263163988
 10      -0.282039940981
 11       0.581857979985
 12      -0.355448232379
 13      -0.441095672285
 14      -1.371915718566
 15      -0.171074851316
 16      -0.014528994513
 17       0.092482467999
 18      -0.021134121508
 19      -0.125776734560
 20      -0.000010373748
 21      -0.000014593552
 22       0.000072972504
 23      -0.000233071926
 24      -0.004797069243
 25      -0.020598952148
 26      -0.041665308855
 27      -0.125908672621
 28       0.055415244991
 29       0.111579318198
 30       0.336672339360
 31      -0.005252733846
 32      -0.006323146954
 33      -0.016450664559
 34       0.037008313942
 35       0.071810525791
 36       0.211623126710
 37       0.122186147537
 38      -0.300449700638
 39      -0.036417457848
 40      -0.030994903021
 41      -0.113057674509
 42      -0.491279583861
 43       0.550717308247
 44       0.473749716762
 45      -0.090687356345
 46       0.291076272936
 47      -0.041447068885
 48      -0.146182943063
 49       1.436092366514
 50      -3.074700919474
 51       4.690112987583
 52       0.233189298907
 53      -0.369134586399
 54      -0.270974150095
 55      -0.616174056947
 56       0.639170120057
 57       0.509087770864
 58      -0.096409790840
 59      -0.472967680476
 60      -1.404089572232
 61       0.029990952844
 62      -0.038771318457
 63       0.149092595645
 64      -0.074535230853
 65       0.156671883307
 66       0.000006926535
 67       0.000028431519
 68      -0.000232843881
 69       0.000243338732
 70       0.000946900265
 71       0.000898022173
 72       0.001599503372
 73       0.004487008044
 74       0.007721415638
 75       0.016326693925
 76       0.049326794704
 77      -0.133859564600
 78      -0.269618737763
 79      -0.811823985464
 80      -0.001926895550
 81      -0.034798277740
 82       0.020162990512
 83      -0.012293861416
 84      -0.008015291762
 85      -0.015260493661
 86       0.251394233439
 87      -0.102372968392
 88       0.074929826650
 89       0.068482868854
 90      -0.386608932286
 91       0.487858613817
 92       0.062194749014
 93      -0.047866224641
 94       0.063432059412
 95      -0.265461109013
 96       1.159213630346
 97       0.038976273259
 98       0.084410020337
 99       0.005944211988
100      -0.414609197418
101       1.261054532504
102       0.043020039963
103       0.055551513592
104       0.112729212897
105       0.415199652514
106      -1.262310468944
107      -0.003243826978
108       0.024342863501
109       0.131107855250
110       0.265975572075
111      -1.162773328421
112      -0.027920180692
113      -0.061545232635
114       0.063674097050
115       0.387422648569
116      -0.491200447168
117      -0.046068840048
118       0.081757262080
119       0.038682508374
 Sym=     1a
 Ene= 1.71506638568950E+00
 Spin= Alpha
 Occup= 0.000000
  1       0.005726700944
  2       0.021925651023
  3      -0.198297439325
  4       0.212217537885
  5      -1.453064663416
  6      -0.218000066248
  7       0.014460511061
  8      -0.001808482154
  9       0.594765055829
 10       0.028232703720
 11      -0.241670855055
 12      -0.173365942218
 13       0.310770957735
 14      -0.228819471031
 15      -0.292095774364
 16       0.268936694590
 17       0.197217869681
 18       0.145887150619
 19       0.000327143709
 20       0.005602855630
 21       0.006772703227
 22      -0.040134221484
 23       0.070031561452
 24       2.596791836582
 25       0.067845733429
 26       0.106420871236
 27      -0.046230157942
 28      -0.340023079024
 29      -0.352332064026
 30       0.171663713995
 31       1.277858352919
 32       0.345173024544
 33      -0.321229377125
 34      -1.058085533392
 35      -0.552790250919
 36       0.353061937754
 37      -0.049210388783
 38      -0.159627586698
 39      -0.115345542799
 40       0.000993882185
 41       0.410168792726
 42      -0.146185440269
 43       0.328548438770
 44       0.342579995666
 45       0.490819010003
 46      -1.285031222509
 47       0.005563058323
 48       0.021346189611
 49      -0.192535746700
 50       0.199741173890
 51      -1.433981854363
 52      -0.208212343413
 53       0.031910287038
 54       0.054390099492
 55       0.632379080226
 56       0.109465594610
 57      -0.000316432112
 58      -0.129859080661
 59       0.398246585635
 60       0.038831703661
 61       0.112279162575
 62      -0.285254870679
 63      -0.142586082334
 64       0.186404715035
 65      -0.261378208899
 66      -0.008256687681
 67      -0.027289144942
 68       0.151917598963
 69       0.020996659740
 70      -0.791741976031
 71      -0.080354919219
 72      -0.003140432049
 73       0.014046935610
 74       0.125417665191
 75      -0.041652879824
 76      -0.006653470622
 77       1.005717202125
 78       1.078223387692
 79      -0.518580755637
 80       0.009387170406
 81       0.005804523338
 82      -0.000515882376
 83      -0.018872484526
 84      -0.000186820862
 85       0.276445896115
 86       0.355821851768
 87       0.107254128596
 88      -0.514753837034
 89      -0.545056516428
 90      -0.177617874256
 91       0.511101473274
 92      -0.017185699057
 93      -0.164990780637
 94       0.084795228610
 95       0.033178094978
 96       0.299165517895
 97       0.068967896100
 98       0.023890941430
 99      -0.225624974252
100      -0.075534366506
101       0.318562834468
102       0.102810191767
103       0.042502386077
104       0.081510946798
105      -0.073952957636
106       0.313937776779
107       0.070374266042
108      -0.022209635654
109      -0.115763886689
110       0.034708475165
111       0.294355337674
112       0.128277287143
113       0.143466907322
114       0.138895187707
115      -0.176373058449
116       0.509178924778
117      -0.024815493623
118      -0.180966142797
119       0.035913537645
 Sym=     1a
 Ene= 1.83435872266263E+00
 Spin= Alpha
 Occup= 0.000000
  1      -0.017477269258
  2      -0.065681472433
  3       0.715807504750
  4      -1.628910692301
  5       1.800139658593
  6       0.173885057537
  7       0.048035911407
  8       0.435404533068
  9      -0.258214975710
 10      -0.420233836499
 11      -1.121588572149
 12       0.041633423798
 13      -0.127855889266
 14       0.278736504914
 15      -0.162386903121
 16       0.046302272632
 17      -0.215599399998
 18      -0.046618758849
 19      -0.261122211204
 20       0.001669820628
 21       0.000891942349
 22      -0.012442519458
 23      -0.185561773246
 24       0.374174471375
 25       0.065509983158
 26      -0.230754789316
 27       0.065268498434
 28      -0.213919886758
 29       0.772307320932
 30      -0.219272104150
 31       0.297625373577
 32      -0.834429414534
 33       0.225884890383
 34      -0.456581927575
 35       1.120506673284
 36      -0.293478903795
 37       0.193465804455
 38      -0.024002086687
 39       0.157340582036
 40       0.182332813873
 41       0.173277286943
 42      -0.531826519717
 43       0.179683020771
 44      -0.370286758610
 45      -0.509349616269
 46      -0.799084952747
 47      -0.017448533889
 48      -0.065578120340
 49       0.714728749950
 50      -1.626390740264
 51       1.792301886080
 52       0.036241387887
 53      -0.229106166277
 54      -0.409717145943
 55       0.115498044167
 56       0.332845652518
 57       1.172771019524
 58      -0.028061707574
 59      -0.268481461360
 60      -0.147475542968
 61      -0.273385033516
 62       0.009972972189
 63      -0.028917949413
 64      -0.118589176800
 65      -0.236229094515
 66      -0.004314261816
 67      -0.012589632702
 68       0.042152052569
 69       0.182187983708
 70      -0.340885199886
 71       0.005541077163
 72       0.054809940145
 73      -0.018970334370
 74      -0.004363825628
 75       0.023239763678
 76      -0.006918303989
 77       0.223131427310
 78      -0.018961616862
 79      -0.029340533350
 80      -0.002353918059
 81       0.003370470899
 82       0.006460045402
 83       0.012637453824
 84      -0.017205928861
 85       0.156432131470
 86       0.088755771788
 87       0.157703497990
 88       0.073495832904
 89      -0.140437346137
 90      -0.018514539600
 91      -0.563760333266
 92       0.064957923140
 93      -0.154174703922
 94       0.037439912433
 95       0.276041034607
 96      -0.824455534557
 97       0.065425958346
 98       0.147343429660
 99      -0.021098354831
100       0.285520138958
101      -0.650871676391
102      -0.044014997319
103      -0.059001797811
104      -0.023552848344
105       0.285196081934
106      -0.648307387650
107      -0.028893057323
108      -0.030011874390
109       0.065249894689
110       0.275561545741
111      -0.822418932237
112       0.054220669733
113       0.125853587651
114      -0.088770872011
115      -0.018583832855
116      -0.563529989399
117       0.065523408967
118      -0.152980446384
119       0.042142377178
 Sym=     1a
 Ene= 1.86307158265366E+00
 Spin= Alpha
 Occup= 0.000000
  1       0.000668789966
  2       0.002270527499
  3      -0.026484346156
  4       0.066248362905
  5      -0.024976300471
  6       0.013431661138
  7       0.024117389988
  8      -0.010288965459
  9      -0.012447836740
 10      -0.046015098187
 11       0.023788489755
 12      -0.006376342504
 13       0.023354580083
 14       0.017629777888
 15       0.005420731058
 16       0.001375058798
 17       0.009423094353
 18       0.007630754871
 19      -0.001853818273
 20       0.000011504430
 21       0.000019363001
 22      -0.000075016083
 23      -0.000915785631
 24       0.009936899477
 25      -0.000014525699
 26      -0.000294389384
 27      -0.002469748642
 28      -0.000362904598
 29       0.000597213382
 30       0.007496171991
 31       0.002724558093
 32      -0.000972180379
 33      -0.009383956348
 34      -0.003148246812
 35      -0.000058894050
 36      -0.001990270997
 37       0.005602834583
 38       0.002758898498
 39      -0.009952142663
 40       0.004929375700
 41      -0.000193840383
 42      -0.008555545733
 43      -0.061102525605
 44       0.043549866444
 45      -0.025193889830
 46      -0.017055321712
 47      -0.000737632130
 48      -0.002560143511
 49       0.030412940051
 50      -0.076263750208
 51       0.028235689158
 52      -0.014717954925
 53      -0.025583036552
 54       0.009113258073
 55       0.017664270817
 56       0.053399203296
 57      -0.007583687017
 58       0.011816099859
 59      -0.007818217772
 60       0.024381034487
 61      -0.008132307340
 62      -0.002695177287
 63      -0.006546511316
 64      -0.009345178810
 65       0.001356943929
 66      -0.000020753666
 67      -0.000061437926
 68       0.000242993947
 69       0.001261493605
 70      -0.004446832729
 71      -0.002272379526
 72      -0.005172668593
 73      -0.013895452359
 74       0.001452112357
 75       0.002738652521
 76       0.007254435082
 77       0.011061945875
 78       0.017269551598
 79       0.043356342607
 80       0.005184942218
 81      -0.004976046956
 82      -0.005616115374
 83       0.001161679800
 84      -0.003109546170
 85       0.024816988707
 86      -0.033598487635
 87      -0.019009159241
 88       0.000279220257
 89      -0.017884466082
 90      -0.024332376422
 91       0.033221928937
 92       0.335569283213
 93       0.219512291478
 94      -0.108337883375
 95       0.004944291110
 96      -0.029392551220
 97      -0.029764187862
 98      -0.402086911343
 99      -0.113707959640
100      -0.014165964474
101       0.042577245348
102      -0.298985518999
103       0.187736465064
104       0.227477269950
105       0.015742243142
106      -0.046252308379
107       0.357238324386
108      -0.047016789284
109       0.191351289018
110      -0.002668615420
111       0.026516058990
112      -0.041229472114
113       0.249983966992
114      -0.318315619983
115       0.024242809870
116      -0.033424055579
117      -0.320198249067
118      -0.204579375565
119       0.137314593752
 Sym=     1a
 Ene= 1.86534409854279E+00
 Spin= Alpha
 Occup= 0.000000
  1      -0.003983928641
  2      -0.015443041068
  3       0.187271003586
  4      -0.453400020137
  5       0.201600207682
  6      -0.015073855180
  7      -0.012097904379
  8       0.085658691712
  9       0.028543278676
 10      -0.024074237062
 11      -0.275047062956
 12      -0.031241877167
 13       0.032145443223
 14       0.014838213054
 15      -0.042977587238
 16       0.031671956719
 17      -0.029847070382
 18      -0.010788134965
 19      -0.031801604993
 20       0.000415345369
 21       0.000667993878
 22      -0.002502368089
 23      -0.085303830597
 24       0.657720854351
 25       0.023380492692
 26       0.008442486271
 27      -0.006750131047
 28      -0.093624796951
 29      -0.033343157781
 30       0.026749144055
 31       0.254428560361
 32       0.031041680115
 33      -0.051933600435
 34      -0.216107556021
 35       0.136894303831
 36      -0.011236131994
 37       0.011493417659
 38      -0.028357420703
 39       0.018445176852
 40       0.064979572705
 41       0.063475564337
 42      -0.056782134026
 43       0.104577397256
 44       0.000263948940
 45      -0.071133593835
 46      -0.316365819046
 47      -0.003979526948
 48      -0.015443979174
 49       0.187351883203
 50      -0.454213088358
 51       0.214799881228
 52      -0.036995452398
 53      -0.057802612631
 54      -0.054562639877
 55       0.107094716641
 56       0.136120223730
 57       0.216475185513
 58      -0.038340478982
 59       0.019277052725
 60      -0.026494130600
 61      -0.033470091683
 62      -0.023647319142
 63      -0.016258984371
 64      -0.023372526495
 65      -0.048041309453
 66      -0.001727901750
 67      -0.005128860294
 68       0.019646627218
 69       0.091929801916
 70      -0.283874706767
 71       0.002114836966
 72      -0.029765727167
 73       0.009817556596
 74       0.011410746305
 75       0.020637003606
 76      -0.008785524616
 77       0.242304776219
 78       0.157400377496
 79      -0.092855517260
 80      -0.009262075320
 81       0.003333698371
 82      -0.004028876562
 83      -0.003709968958
 84      -0.016249873613
 85       0.053796159604
 86       0.076707751846
 87       0.029508470073
 88      -0.089982606858
 89      -0.128295297284
 90       0.002271941901
 91      -0.051191519952
 92       0.342930970802
 93       0.164245625794
 94      -0.089507144329
 95       0.086776680031
 96      -0.121694597245
 97      -0.027313160889
 98      -0.377485974622
 99      -0.137716720476
100       0.068482054532
101      -0.144325027894
102      -0.307545336149
103       0.157565908032
104       0.210582360853
105       0.068635244262
106      -0.146990087014
107      -0.379202341976
108       0.035524419933
109      -0.168804707835
110       0.087156851523
111      -0.126190078110
112       0.050827056016
113      -0.230885694461
114       0.340848648150
115       0.001674802594
116      -0.050621662867
117       0.346311060547
118       0.158954083550
119      -0.129469208823
 Sym=     1a
 Ene= 1.99877124388905E+00
 Spin= Alpha
 Occup= 0.000000
  1      -0.005759333502
  2      -0.032497971650
  3       0.486979774032
  4      -1.174113710238
  5       1.046585961835
  6      -0.108517693344
  7      -0.003015877153
  8      -0.085989085492
  9      -0.006464982048
 10      -0.051051505829
 11      -0.150848206644
 12       0.032653727302
 13       0.074398179312
 14       0.000183206179
 15       0.094832872943
 16       0.090168361147
 17      -0.209761863910
 18      -0.058350013206
 19      -0.013474572329
 20      -0.008682895524
 21      -0.014453497548
 22       0.064332020285
 23      -0.371459870850
 24       0.398104091378
 25      -0.054238389123
 26       0.321381643587
 27      -0.096535439428
 28       0.191259243820
 29      -1.132060453077
 30       0.340030863781
 31      -0.162853764686
 32       1.245980457039
 33      -0.382037399768
 34      -0.274594859984
 35       0.349871889493
 36      -0.070188347087
 37       0.070040274315
 38      -0.037280342839
 39       0.100795502740
 40       0.202140802619
 41       0.087224159228
 42       0.002421117548
 43       0.039196057899
 44      -0.200648042509
 45      -0.504761719468
 46       0.103810017572
 47      -0.005751571488
 48      -0.032481887781
 49       0.486954050683
 50      -1.174294189536
 51       1.047091148909
 52      -0.078577459442
 53       0.057756076780
 54       0.098770518961
 55       0.041690141629
 56       0.046426302078
 57       0.146154889845
 58       0.024471648771
 59       0.057187642777
 60      -0.052136901255
 61      -0.082043820933
 62      -0.045851548881
 63       0.126832660833
 64      -0.199767218409
 65       0.007150884747
 66      -0.001818366017
 67      -0.004703837657
 68       0.002192235213
 69       0.188175715565
 70      -0.095079581226
 71       0.035374363575
 72       0.015953772085
 73      -0.010916292307
 74      -0.056771400370
 75       0.025052676939
 76       0.000983856305
 77       0.177463387227
 78      -0.567122889805
 79       0.156976055908
 80      -0.007164637606
 81      -0.004054184139
 82       0.007943349581
 83       0.030759054266
 84      -0.008044099136
 85       0.104858766367
 86      -0.092224331836
 87      -0.039636603739
 88      -0.077718573031
 89       0.396433451675
 90       0.259803061790
 91      -0.364891633196
 92       0.073913922701
 93      -0.221472272532
 94       0.072799503931
 95       0.297029286400
 96      -0.394628822394
 97      -0.061028189527
 98      -0.070315799971
 99      -0.041687194020
100       0.147957984735
101      -0.429155801762
102      -0.111633369550
103      -0.104114646232
104      -0.287061030306
105       0.148086942643
106      -0.429594644292
107      -0.014523692761
108       0.092512131561
109       0.311384838330
110       0.297183807386
111      -0.394496870467
112      -0.039763295704
113      -0.027491841243
114       0.089756327049
115       0.260055313287
116      -0.365502773778
117       0.070576786669
118      -0.228008140876
119       0.051520726217
 Sym=     1a
 Ene= 2.06915318832268E+00
 Spin= Alpha
 Occup= 0.000000
  1       0.002946088856
  2       0.021885373114
  3      -0.405029497389
  4       1.323558822755
  5      -1.572985373840
  6       0.128083063763
  7      -0.159633443619
  8       0.108959460713
  9       0.110479641569
 10       0.169205451904
 11       0.121729714459
 12      -0.169662014909
 13      -0.063639542997
 14      -0.141260206508
 15      -0.103274295028
 16      -0.114166992680
 17       0.067218577625
 18       0.025225545701
 19       0.086391892311
 20       0.000033591780
 21       0.000066504933
 22      -0.000226217203
 23      -0.001336691440
 24       0.023096172707
 25       0.060955303930
 26       0.120104579570
 27       0.365045840813
 28      -0.219846028601
 29      -0.431987484467
 30      -1.311868125262
 31       0.257686884733
 32       0.496814544924
 33       1.504088492820
 34       0.046605429087
 35       0.095283055018
 36       0.283070819545
 37       0.161736478078
 38      -0.000777284117
 39      -0.247012988975
 40       0.090196977612
 41      -0.050930250395
 42      -0.531127362766
 43       0.323951820492
 44       0.646684192648
 45      -0.182563996482
 46       0.244875252594
 47      -0.002959601120
 48      -0.021875244733
 49       0.404684861106
 50      -1.323400463269
 51       1.560562807079
 52      -0.107543460431
 53       0.202409050945
 54       0.026818224796
 55      -0.051149645533
 56      -0.052221372602
 57       0.223703326429
 58       0.114206378864
 59      -0.044325395397
 60      -0.192334190522
 61       0.011678794398
 62       0.002660491668
 63       0.126391941454
 64      -0.110874304500
 65      -0.086026927777
 66      -0.000131607645
 67      -0.000425145715
 68       0.002343324732
 69       0.000287639866
 70      -0.016208689881
 71       0.007491240332
 72       0.015192634641
 73       0.045536210228
 74       0.003983236021
 75       0.004964589554
 76       0.014991467853
 77      -0.125908689701
 78      -0.274496392034
 79      -0.839468802187
 80       0.005706629311
 81      -0.009941179718
 82      -0.003644091158
 83      -0.000324747184
 84      -0.004025869299
 85      -0.075366385157
 86       0.559051737823
 87      -0.158775995552
 88       0.135945163234
 89       0.161731581642
 90      -0.145909615211
 91       0.440820375351
 92       0.192988731251
 93      -0.168673521263
 94       0.184323979733
 95      -0.229117949665
 96       0.350163883206
 97       0.054164243503
 98      -0.055549409841
 99      -0.178335073552
100      -0.295638406086
101       0.481908401286
102       0.040448600118
103      -0.092289340717
104      -0.079614481355
105       0.293561787977
106      -0.478963799641
107      -0.072761809918
108       0.032882475112
109      -0.102243637900
110       0.229503600625
111      -0.347031382087
112      -0.108823460609
113      -0.056780816598
114      -0.154989311457
115       0.144032168161
116      -0.437024301318
117      -0.149545062765
118       0.261603290388
119       0.099028095842
 Sym=     1a
 Ene= 2.07555766809085E+00
 Spin= Alpha
 Occup= 0.000000
  1       0.000873314435
  2      -0.000510838600
  3       0.016219108694
  4       0.043332403625
  5       0.981318350115
  6       0.124402661453
  7       0.081167681471
  8      -0.173114295040
  9      -0.248786350539
 10      -0.156388975483
 11       0.370827610513
 12       0.101846939847
 13      -0.089381580158
 14       0.139324130118
 15       0.133180591466
 16      -0.036606712471
 17      -0.082132014455
 18       0.034167376686
 19      -0.003233080173
 20      -0.005254594794
 21      -0.010270342543
 22       0.035297678759
 23       0.247643195965
 24      -4.060008657934
 25      -0.276372736552
 26      -0.045319186661
 27       0.062047290648
 28       1.132074649784
 29       0.210473524377
 30      -0.261229100777
 31      -2.279890017638
 32      -0.423963091285
 33       0.519282663107
 34      -0.045587066574
 35      -0.417064092472
 36       0.145755719059
 37       0.156050941701
 38       0.058716246371
 39      -0.028667661451
 40      -0.300796366362
 41       0.103480528422
 42       0.121463377193
 43       0.124947942206
 44       0.012972512882
 45      -0.271748943164
 46      -0.121437110194
 47       0.000832684168
 48      -0.000781432797
 49       0.021042675391
 50       0.027456657505
 51       1.002350974540
 52       0.159127422514
 53       0.156254927496
 54       0.049836060321
 55      -0.328850062849
 56      -0.318168036444
 57      -0.118501881361
 58       0.066324067819
 59      -0.163574976818
 60      -0.087508653871
 61      -0.035455026920
 62       0.044803581138
 63       0.135250159092
 64      -0.033025259385
 65       0.068549248396
 66       0.023939408234
 67       0.077646741698
 68      -0.431467266646
 69      -0.044032657895
 70       2.892546451495
 71      -0.018244194113
 72      -0.041423093141
 73       0.016815537122
 74      -0.273989590446
 75       0.005935137466
 76       0.042763395838
 77      -1.856120555765
 78      -0.028760631453
 79       0.306126917275
 80      -0.011317012354
 81       0.003790336660
 82       0.008475378682
 83       0.025930760573
 84      -0.032677011634
 85      -0.326241533716
 86      -0.201599890303
 87      -0.002898703037
 88       0.606455963090
 89       0.027758071522
 90       0.152037410424
 91      -0.282769693071
 92       0.246979276269
 93       0.030305446739
 94      -0.018832449974
 95      -0.077006514466
 96      -0.257894957447
 97      -0.025524842132
 98       0.117863319799
 99      -0.402597284534
100       0.177848672117
101      -0.207303292799
102       0.259423705994
103      -0.037807789856
104       0.027896964258
105       0.180729333031
106      -0.213485053243
107       0.242207676486
108      -0.070758676608
109      -0.074754167434
110      -0.074154421603
111      -0.262678134846
112       0.078702454048
113       0.330591099654
114       0.244603706366
115       0.153776733006
116      -0.287337911457
117       0.236297259578
118       0.014863222629
119      -0.073016450488
 Sym=     1a
 Ene= 2.19382833594267E+00
 Spin= Alpha
 Occup= 0.000000
  1       0.000881397432
  2       0.004794006386
  3      -0.072315592490
  4       0.244354936288
  5      -0.607419937631
  6      -0.355833797720
  7      -0.264767950003
  8       0.115242529602
  9       0.795536261655
 10       0.496784571294
 11      -0.230229153681
 12      -0.139203681497
 13      -0.217852111733
 14      -0.124579707183
 15      -0.198048547496
 16       0.142534820937
 17       0.071122821932
 18      -0.052711418139
 19       0.066800851239
 20       0.000001258917
 21       0.000005146398
 22      -0.000007603906
 23       0.000008993683
 24       0.000132525515
 25       0.005175284418
 26       0.010511904147
 27       0.032140682775
 28      -0.017658142628
 29      -0.035981267165
 30      -0.109995900724
 31       0.019682931022
 32       0.040513828385
 33       0.123681048586
 34       0.042821334608
 35       0.085682442777
 36       0.260413541472
 37       0.006416660684
 38       0.019401687393
 39      -0.018972762715
 40       0.009594154532
 41       0.002681901741
 42      -0.232497076811
 43       0.422977480971
 44       0.144251494152
 45       0.010561146558
 46       0.177002991992
 47      -0.000871914794
 48      -0.004763168034
 49       0.072113943319
 50      -0.243969098953
 51       0.606944131246
 52       0.347048523204
 53       0.247338187626
 54      -0.167226196014
 55      -0.777345101637
 56      -0.460258109249
 57       0.339587086460
 58       0.075947900627
 59       0.090793623664
 60      -0.260779644735
 61      -0.065191281006
 62       0.167597625848
 63       0.175708371751
 64       0.009680278563
 65       0.092315339523
 66      -0.000001790223
 67      -0.000000479197
 68      -0.000062192631
 69       0.000218113522
 70      -0.000266365639
 71      -0.009189547939
 72      -0.018726785201
 73      -0.056694660557
 74       0.010361287109
 75       0.021376636873
 76       0.064721836100
 77      -0.070500760087
 78      -0.142626820465
 79      -0.433808336824
 80       0.000562397727
 81      -0.066056726981
 82       0.031839862544
 83      -0.021229421717
 84      -0.016557767744
 85      -0.083082870546
 86       0.219166464896
 87       0.017745908148
 88       0.025934148823
 89       0.080060091036
 90       0.003852974840
 91       0.044076773833
 92      -0.246922387479
 93      -0.158075276691
 94       0.042272685798
 95       0.289521941751
 96       0.111395065098
 97      -0.061619929852
 98      -0.222907843992
 99       0.290302272875
100      -0.424991441043
101       0.334689196269
102      -0.358354767072
103      -0.054147821714
104      -0.122378075247
105       0.424107473768
106      -0.333836495866
107       0.301486992226
108      -0.060667554216
109      -0.227300633095
110      -0.289456507878
111      -0.111608375342
112       0.120821846647
113       0.342892967413
114       0.075382171676
115      -0.003396968533
116      -0.044090633211
117       0.232694970675
118       0.128757105491
119      -0.130516909121
 Sym=     1a
 Ene= 2.20847220155750E+00
 Spin= Alpha
 Occup= 0.000000
  1      -0.006925314457
  2      -0.014576320700
  3       0.132213085905
  4      -0.192714483717
  5      -0.742354964723
  6       0.185802496624
  7      -0.440847418209
  8       0.045409703179
  9      -0.363931553305
 10       0.919649580381
 11       0.041333650235
 12       0.020138481546
 13      -0.172641025700
 14      -0.015119259491
 15      -0.123373204025
 16      -0.210014327682
 17       0.127272862435
 18       0.014312313046
 19       0.267962546678
 20       0.006930908051
 21       0.020175044965
 22      -0.045564390586
 23      -0.099475478335
 24       1.199290625293
 25       0.065099428918
 26      -0.109026994434
 27       0.025028103176
 28      -0.215877549414
 29       0.327393058202
 30      -0.071722012148
 31       0.169472981586
 32      -0.134709988773
 33       0.015939666111
 34       0.264087652196
 35       0.122800506369
 36      -0.083968715069
 37       0.154207296816
 38       0.109667684159
 39       0.100949666377
 40      -0.079416122460
 41      -0.137293604894
 42       0.144445952244
 43      -0.077966638155
 44       0.141520356799
 45       0.269341098540
 46       0.243749779842
 47      -0.006936814772
 48      -0.014603973328
 49       0.132317656613
 50      -0.192345446143
 51      -0.741688747198
 52       0.205319976502
 53      -0.401192373434
 54       0.167170758202
 55      -0.444610913790
 56       0.755410006017
 57      -0.459608843298
 58       0.039272648601
 59      -0.133307298593
 60       0.105192256158
 61       0.046040039512
 62      -0.026503198959
 63      -0.221487684238
 64       0.165748641632
 65       0.261232749042
 66      -0.000738889366
 67      -0.000754473592
 68      -0.009613498838
 69       0.053424873477
 70      -0.610116742820
 71       0.018969245178
 72      -0.012685654792
 73       0.001101969941
 74      -0.001196219348
 75      -0.001841955673
 76       0.000751820227
 77       0.225004955249
 78       0.026309526237
 79      -0.044696067071
 80       0.046659537763
 81       0.022754027052
 82       0.013950501588
 83      -0.047413990869
 84      -0.001502885215
 85      -0.056938030546
 86      -0.002103329854
 87      -0.031626658459
 88      -0.009035648381
 89      -0.044313606112
 90       0.255149015397
 91       0.171934418617
 92       0.110141271433
 93      -0.217071724079
 94       0.120286350773
 95      -0.252678331650
 96       0.375086302620
 97       0.041730005828
 98      -0.231934325872
 99      -0.147539280514
100      -0.408170633835
101       0.453193080623
102       0.013737934784
103      -0.220136188305
104      -0.191497337548
105      -0.408930920284
106       0.453580125204
107       0.088512969023
108      -0.068628198941
109       0.269813824685
110      -0.251714440082
111       0.374315486807
112       0.103921740436
113      -0.106614967759
114       0.234773217767
115       0.254718870473
116       0.172482810969
117       0.090809441543
118      -0.255914728748
119       0.002332232790
 Sym=     1a
 Ene= 2.24768461997316E+00
 Spin= Alpha
 Occup= 0.000000
  1       0.009196260991
  2       0.022276961247
  3      -0.186688615223
  4       0.212212135194
  5       0.475855918502
  6       0.014869703532
  7      -0.270979812036
  8      -0.397413831218
  9      -0.110214692029
 10       0.548938144137
 11       0.617288434885
 12       0.081925446829
 13      -0.201013555516
 14      -0.199203299536
 15       0.214784134194
 16       0.178475150241
 17      -0.106333009498
 18       0.102729314733
 19       0.093090414418
 20      -0.000003992121
 21      -0.000006906105
 22       0.000030006627
 23      -0.000194089397
 24       0.001031646869
 25      -0.026001961078
 26      -0.052378336261
 27      -0.159622205965
 28       0.087771173938
 29       0.176814218639
 30       0.538817199516
 31      -0.078316348874
 32      -0.158171721277
 33      -0.481854827429
 34       0.032241093261
 35       0.064808409884
 36       0.198030268245
 37      -0.108204554478
 38      -0.137008208245
 39       0.232277775455
 40      -0.103797776310
 41      -0.000340847205
 42       0.092045782063
 43      -0.052860489783
 44      -0.114054674593
 45       0.033603116658
 46      -0.042511881089
 47      -0.009190410549
 48      -0.022263943513
 49       0.186609803793
 50      -0.212265214952
 51      -0.476121274373
 52      -0.154590694207
 53      -0.009631068959
 54      -0.455763910774
 55       0.335423547776
 56      -0.096921720935
 57       0.757643156778
 58      -0.155002977227
 59       0.054819104584
 60      -0.244606825919
 61      -0.071175158899
 62       0.141813841650
 63      -0.271371936722
 64       0.079649759312
 65      -0.058254341435
 66      -0.000005195665
 67      -0.000015011604
 68       0.000058336901
 69       0.000066145326
 70      -0.000572280492
 71       0.008589384826
 72       0.017255009317
 73       0.052764061939
 74      -0.010413468702
 75      -0.020883776244
 76      -0.063758589501
 77       0.028923226037
 78       0.058332643331
 79       0.175393647810
 80      -0.022128456534
 81       0.036170382240
 82       0.015807524127
 83      -0.000336207291
 84       0.015818299209
 85       0.028058934076
 86      -0.138528118830
 87       0.026210098026
 88      -0.029899687576
 89      -0.043346280183
 90       0.422768987338
 91      -0.391743904033
 92       0.213071100840
 93      -0.318868545865
 94       0.091956614345
 95      -0.060184473456
 96      -0.129474309610
 97      -0.019473130338
 98      -0.169679435993
 99      -0.182040943993
100      -0.075250327025
101      -0.168195382284
102       0.012403667025
103      -0.103136515347
104      -0.241834348776
105       0.074825468619
106       0.169051453846
107      -0.090819160739
108      -0.056286194636
109      -0.241187673988
110       0.060842745476
111       0.128611447913
112      -0.050286689191
113       0.030733184767
114      -0.242815921044
115      -0.422968803864
116       0.391704305679
117      -0.207004434138
118       0.331530787277
119      -0.053204183969
 Sym=     1a
 Ene= 2.31080702287352E+00
 Spin= Alpha
 Occup= 0.000000
  1      -0.001388681729
  2      -0.004753429153
  3       0.037677013525
  4      -0.102915616500
  5       0.001209539395
  6       0.449197804104
  7       0.096495431080
  8      -0.232172454385
  9      -0.764651929243
 10      -0.152986165950
 11       0.383968539070
 12       0.488538377304
 13       0.101688528306
 14      -0.276396456449
 15      -0.034574224499
 16      -0.023607786721
 17      -0.077044622438
 18       0.283606885621
 19      -0.083185082216
 20      -0.000342191252
 21      -0.001491739566
 22       0.002766693783
 23      -0.070162229346
 24       0.563468059230
 25       0.139128198172
 26       0.076474402642
 27      -0.047964214118
 28      -0.571591260254
 29      -0.297648819448
 30       0.191439771107
 31       0.897148478581
 32       0.420231830154
 33      -0.284530369732
 34      -0.334351926558
 35       0.343401009327
 36      -0.055512617018
 37      -0.123738768910
 38      -0.036469822944
 39       0.015434503470
 40       0.211031883099
 41      -0.101052540548
 42       0.216991142185
 43      -0.070514750695
 44      -0.111928116568
 45      -0.386125427809
 46       0.567736295578
 47      -0.001401179775
 48      -0.004764984784
 49       0.037478262786
 50      -0.099891215665
 51      -0.014617298429
 52       0.489720260788
 53       0.171619640891
 54      -0.008644596067
 55      -0.828286586210
 56      -0.275955188403
 57       0.016011144733
 58       0.543193206617
 59       0.199943075844
 60       0.017160864652
 61      -0.169225616857
 62      -0.068421031110
 63       0.144768789402
 64       0.201988337126
 65      -0.054970410203
 66      -0.001996418978
 67      -0.009182488010
 68       0.090133371483
 69      -0.045685173126
 70      -0.338858129876
 71       0.050372255897
 72       0.052462442291
 73      -0.024292010621
 74       0.096437797949
 75      -0.028422286706
 76      -0.007591209646
 77       0.342529381861
 78      -0.541208730704
 79       0.122000235795
 80      -0.009557833461
 81       0.001923604794
 82      -0.001998564434
 83       0.003297714875
 84      -0.014934044576
 85       0.069961454758
 86      -0.053284634282
 87      -0.067845098342
 88      -0.156617511588
 89       0.283956604423
 90       0.256466003811
 91      -0.303087456208
 92       0.088278674447
 93       0.004019170625
 94      -0.154975246973
 95      -0.550697495526
 96       0.635217186593
 97       0.298461714146
 98      -0.013554349360
 99       0.056572221734
100       0.338087717854
101      -0.409233524169
102       0.078761857239
103       0.142239941567
104      -0.118981942089
105       0.340885750125
106      -0.410131536896
107       0.095171894159
108       0.179166606518
109      -0.014655048481
110      -0.557531769101
111       0.648767282600
112       0.273080767365
113      -0.074079053229
114      -0.123475955692
115       0.259025431977
116      -0.307534734075
117       0.127272903364
118       0.086046833186
119       0.092762468228
 Sym=     1a
 Ene= 2.31613654933893E+00
 Spin= Alpha
 Occup= 0.000000
  1      -0.001032343797
  2      -0.004388761152
  3       0.047599084397
  4      -0.242523745788
  5       1.019801349400
  6      -0.306886463896
  7       0.057429006737
  8       0.134095276311
  9       0.311035514679
 10      -0.059447629889
 11      -0.120353656676
 12      -0.438405285977
 13       0.284667318988
 14       0.658800016017
 15       0.324548032032
 16      -0.034310940748
 17       0.083229495669
 18      -0.310006687524
 19       0.105676922383
 20       0.000011877453
 21       0.000048380356
 22      -0.000072846886
 23      -0.000342396847
 24       0.003111247713
 25      -0.002348761287
 26      -0.003550687135
 27      -0.010528701617
 28       0.006482751426
 29       0.008047623401
 30       0.023990118934
 31      -0.000031467963
 32       0.007035259350
 33       0.020960635393
 34       0.049116852097
 35       0.095106694242
 36       0.296806175774
 37      -0.009589093474
 38      -0.060739471434
 39       0.045624100395
 40      -0.026897935652
 41      -0.011093288561
 42       0.003736542841
 43       0.050803998044
 44      -0.031453000853
 45       0.021723669701
 46       0.006270849841
 47       0.001065498246
 48       0.004483821613
 49      -0.047701246077
 50       0.241549687113
 51      -1.024110020785
 52       0.330689583962
 53      -0.000514955330
 54       0.047616048596
 55      -0.327145812087
 56       0.012581772881
 57      -0.035245180871
 58       0.627104893621
 59       0.108225660916
 60       0.541753785525
 61      -0.269086051484
 62      -0.210771644805
 63      -0.047309563006
 64       0.256860001973
 65      -0.181134708454
 66       0.000003282242
 67       0.000028481668
 68      -0.000395838147
 69       0.000528300715
 70      -0.000284132792
 71       0.022335513212
 72       0.045165183739
 73       0.139178138541
 74      -0.025314179665
 75      -0.049898435160
 76      -0.152964774005
 77      -0.010163094310
 78      -0.016336465264
 79      -0.062504803594
 80      -0.008535623739
 81       0.028749707730
 82      -0.000607328545
 83       0.004464151576
 84       0.009784258387
 85      -0.013949121620
 86       0.008021752907
 87       0.018229053286
 88      -0.004894038458
 89       0.004372541554
 90      -0.316823343313
 91       0.562713960257
 92       0.105465188702
 93       0.063510343325
 94       0.231868798844
 95       0.514685204434
 96      -0.973730639849
 97      -0.331577283553
 98       0.073781273956
 99      -0.178867675486
100      -0.098129591041
101      -0.050469931145
102       0.035997742132
103      -0.091995051114
104       0.012360282638
105       0.092951228862
106       0.057913456644
107      -0.040361074089
108       0.080858294302
109      -0.034154058990
110      -0.508186390303
111       0.966992624029
112       0.268438593021
113      -0.192237614522
114      -0.188151560407
115       0.313905774169
116      -0.558537813562
117      -0.028650617523
118       0.092142381046
119       0.243191567348
 Sym=     1a
 Ene= 2.33395360575277E+00
 Spin= Alpha
 Occup= 0.000000
  1      -0.001695153962
  2      -0.005808040405
  3       0.056470074022
  4      -0.191879187208
  5       0.781146533548
  6       0.014881736220
  7       0.260022855682
  8       0.045677655168
  9       0.167274896582
 10      -0.173467199062
 11      -0.057869418607
 12       0.114155280671
 13       0.622760201277
 14       0.390522940338
 15       0.142205028401
 16       0.132313013806
 17       0.376265236454
 18       0.244648937064
 19      -0.053068764870
 20      -0.000008604634
 21      -0.000030881859
 22       0.000056701580
 23      -0.000044251983
 24       0.003545579326
 25       0.001999551437
 26       0.003381563405
 27       0.009691665449
 28      -0.009750606404
 29      -0.016401708973
 30      -0.048044890254
 31       0.024907733029
 32       0.042455768587
 33       0.127849013171
 34       0.062344184908
 35       0.127231082138
 36       0.389923783008
 37       0.007995999455
 38      -0.089291061112
 39       0.029395757692
 40      -0.023749899478
 41      -0.024622409435
 42      -0.184924691071
 43       0.387689690698
 44       0.091426878931
 45       0.025252515910
 46       0.152961187393
 47       0.001702228448
 48       0.005848241596
 49      -0.057666094408
 50       0.195097409676
 51      -0.785967924200
 52       0.025159682285
 53      -0.182896045244
 54       0.192620811973
 55      -0.194090011105
 56       0.121429483739
 57      -0.100757040306
 58       0.064811016093
 59      -0.267441269074
 60       0.694965940765
 61      -0.325324593996
 62      -0.007698584469
 63      -0.165096227623
 64      -0.303135558583
 65       0.139261295867
 66      -0.000012775949
 67      -0.000052342720
 68       0.000451913436
 69      -0.000357121095
 70      -0.002228609615
 71      -0.009910769748
 72      -0.020179180398
 73      -0.061330756511
 74       0.013875924662
 75       0.027008201987
 76       0.082114040528
 77      -0.056542946472
 78      -0.116975349175
 79      -0.359681748114
 80       0.000670262254
 81      -0.031364026835
 82       0.014647046668
 83      -0.009796910542
 84      -0.007901002308
 85      -0.069351796686
 86       0.185263028401
 87       0.014583947330
 88       0.021119109407
 89       0.066811301213
 90      -0.304782819133
 91       0.578626733710
 92      -0.046198727497
 93      -0.021683701632
 94       0.273052754733
 95      -0.011428440380
 96      -0.016927241771
 97       0.067434447138
 98      -0.096477322889
 99       0.033269362041
100       0.427419506287
101      -0.892916136072
102      -0.103147831969
103       0.258412195800
104      -0.315711127985
105      -0.429159755072
106       0.896881550939
107       0.032191881560
108      -0.403425738306
109      -0.121861154735
110       0.009232684083
111       0.021475132699
112      -0.063274350375
113       0.104114655715
114      -0.012333082749
115       0.308654283995
116      -0.583328721594
117       0.120846847962
118       0.173837340111
119       0.185582304471
 Sym=     1a
 Ene= 2.33611365213998E+00
 Spin= Alpha
 Occup= 0.000000
  1      -0.003245897878
  2      -0.011042761725
  3       0.188749808067
  4      -0.456605451870
  5       0.241529975050
  6       0.109763189706
  7       0.293000924622
  8       0.231792569357
  9      -0.271462156598
 10      -0.293093611524
 11      -0.402862488337
 12       0.071483051943
 13       0.358829878447
 14       0.246480376323
 15       0.177497443177
 16      -0.105262725906
 17       0.353614523924
 18       0.038283199257
 19      -0.052334167580
 20       0.001624479180
 21       0.007569005971
 22      -0.008807883946
 23      -0.129508068264
 24       0.311431103401
 25       0.007793539408
 26       0.012641353612
 27      -0.005528279843
 28       0.000169584054
 29      -0.088600296022
 30       0.029378498350
 31      -0.137915319790
 32       0.231850066057
 33      -0.053641025193
 34       0.094474070831
 35       0.344169456114
 36      -0.125784026260
 37       0.204917085456
 38       0.100124533168
 39       0.178251401418
 40       0.052508509286
 41      -0.119257775376
 42      -0.185855884218
 43      -0.135268373434
 44      -0.250417077619
 45      -0.188751217312
 46       0.299538056898
 47      -0.003235576069
 48      -0.010993698491
 49       0.188074899348
 50      -0.453403615694
 51       0.228897137575
 52       0.010979006504
 53       0.091203884297
 54      -0.376650568249
 55      -0.117220911811
 56       0.022232750039
 57       0.554286672809
 58      -0.034502612640
 59       0.139544768967
 60      -0.408421409613
 61       0.269745678482
 62       0.234142769725
 63       0.037602825510
 64       0.199796635836
 65       0.002998440419
 66       0.001976869231
 67       0.007991822353
 68      -0.063697030097
 69       0.116881739961
 70      -0.220884295254
 71       0.051807729317
 72      -0.042003661584
 73       0.005612124939
 74      -0.076401645664
 75       0.062365597213
 76      -0.008244915554
 77       0.068404500950
 78      -0.385085872535
 79       0.113932362324
 80      -0.008958999654
 81       0.015844427267
 82      -0.014668164880
 83      -0.044315851345
 84      -0.035078591810
 85       0.002777815986
 86      -0.071072491180
 87      -0.020304535593
 88       0.045001171096
 89       0.189979016220
 90      -0.405319879116
 91       0.560425883848
 92       0.083572739108
 93       0.015721192076
 94       0.399572446310
 95       0.015590045706
 96      -0.122469542243
 97      -0.002035804502
 98      -0.099769647158
 99      -0.043515190402
100       0.347849325060
101      -0.586950667971
102       0.005153847390
103       0.154553544403
104      -0.261331531208
105       0.344572849510
106      -0.578824453795
107       0.065280051103
108       0.272975210672
109       0.107174064902
110       0.014187957480
111      -0.118471974245
112       0.020158096688
113      -0.055073516607
114       0.090869208052
115      -0.402280999870
116       0.554635476491
117      -0.035926422350
118      -0.224515365337
119      -0.335794550970
 Sym=     1a
 Ene= 2.38228095522697E+00
 Spin= Alpha
 Occup= 0.000000
  1       0.000623500850
  2       0.003829968789
  3      -0.205833901645
  4       0.715908712625
  5       1.074038334673
  6      -0.121677899848
  7      -0.067663365255
  8      -0.190596478882
  9       0.531632925818
 10       0.277583062151
 11       0.599654015790
 12       0.156517621647
 13      -0.098826373120
 14       0.042109507899
 15       0.115206489309
 16       0.311895332929
 17       0.035663691970
 18       0.249987096758
 19      -0.064284087894
 20      -0.004244450364
 21      -0.020181758390
 22       0.021911586338
 23       0.492382540516
 24      -3.900663435900
 25      -0.181059967687
 26      -0.221730813644
 27       0.102176879432
 28       0.764651868423
 29       0.974161596006
 30      -0.443966498200
 31      -1.505718905579
 32      -1.600857030901
 33       0.770281918319
 34       0.270855879795
 35      -0.481441171725
 36       0.115879064268
 37      -0.041414784749
 38      -0.034816481690
 39      -0.051584568170
 40      -0.027225405714
 41       0.072578460731
 42       0.174843106152
 43       0.065299619084
 44       0.132180528827
 45       0.028221998908
 46      -0.035351148262
 47       0.000625188902
 48       0.003849524531
 49      -0.206272410973
 50       0.718332291878
 51       1.064137625632
 52      -0.053991829179
 53       0.067222461125
 54       0.219575065190
 55       0.307968699109
 56      -0.173177696528
 57      -0.770730148986
 58       0.149396584558
 59      -0.117955499080
 60      -0.015676492953
 61       0.113886220237
 62      -0.198150859873
 63       0.287210438629
 64       0.085200241956
 65      -0.191076285992
 66       0.009322167298
 67       0.029825828968
 68      -0.174799559648
 69      -0.085468803952
 70       1.824619719214
 71      -0.127423188569
 72       0.154308347805
 73      -0.029594477210
 74      -0.011090469302
 75      -0.192807815638
 76       0.064697781860
 77      -1.351663481416
 78       0.263988521366
 79       0.133060905386
 80      -0.073870019378
 81      -0.064586300872
 82      -0.047421904737
 83       0.055707150300
 84       0.092990140015
 85      -0.301837165093
 86      -0.080120015384
 87      -0.009786648344
 88       0.399435116646
 89      -0.220834685566
 90       0.211532146249
 91      -0.441417909188
 92      -0.222969679458
 93      -0.145221694410
 94      -0.009038420247
 95       0.044638084507
 96      -0.100072217346
 97       0.012332244309
 98      -0.259063863708
 99       0.073330715300
100       0.004351986235
101      -0.462374300659
102      -0.179296840544
103       0.123233882741
104      -0.209725742491
105       0.004582580351
106      -0.460419364973
107      -0.122760706286
108       0.238050357042
109       0.139735828204
110       0.042748888083
111      -0.094562827587
112       0.016303116953
113      -0.253838786708
114       0.089447228813
115       0.212515392596
116      -0.444000914926
117      -0.196530058047
118      -0.090534093582
119       0.156420173717
 Sym=     1a
 Ene= 2.52870110947870E+00
 Spin= Alpha
 Occup= 0.000000
  1       0.010769828912
  2       0.025572062325
  3       0.043250859546
  4      -0.757652182850
  5      -0.193237233533
  6       0.048963630047
  7      -0.088461113051
  8      -0.089605682730
  9      -0.254508489844
 10       0.195085840149
 11       0.124401286508
 12       0.155460548322
 13      -0.057974335601
 14       0.055762440040
 15      -0.222358753600
 16      -0.399912173192
 17       0.294004324601
 18      -0.059327506552
 19       0.202939886658
 20      -0.000040718963
 21      -0.000086110703
 22       0.000331299079
 23      -0.000004569774
 24      -0.012485866854
 25      -0.024406657921
 26      -0.048519667587
 27      -0.147647383469
 28       0.114709502257
 29       0.227979445671
 30       0.694027077340
 31      -0.182463822414
 32      -0.367653855266
 33      -1.111749141466
 34      -0.077922227454
 35      -0.147978912496
 36      -0.458817654886
 37       0.001855209755
 38       0.159471188612
 39      -0.082352535225
 40       0.054040824087
 41       0.039617762838
 42       0.340788034915
 43      -0.210604395973
 44      -0.415428116883
 45       0.113362396238
 46      -0.159597607723
 47      -0.010708979534
 48      -0.025436851723
 49      -0.040887658781
 50       0.743842992929
 51       0.206744874951
 52      -0.083206588929
 53       0.030101887959
 54      -0.105971319991
 55       0.304949044707
 56      -0.129062880035
 57       0.131661849692
 58      -0.135949424446
 59       0.091213458161
 60       0.049288613533
 61      -0.064579189053
 62      -0.152931063466
 63       0.401030431233
 64      -0.270282709959
 65      -0.251469633540
 66      -0.000241508469
 67      -0.000784292039
 68       0.004485231983
 69      -0.004180032668
 70       0.006660787243
 71      -0.001889882312
 72      -0.000791542955
 73      -0.009489910552
 74      -0.004902756701
 75      -0.011299722036
 76      -0.026865293519
 77       0.089222409760
 78       0.181761742144
 79       0.557697315912
 80       0.005023603404
 81       0.061359431566
 82      -0.039577142671
 83       0.023609560391
 84       0.013705297872
 85       0.059260428521
 86      -0.377438776466
 87       0.097296715472
 88      -0.090451208945
 89      -0.110917303908
 90       0.048494470203
 91       0.142876247817
 92      -0.147611309387
 93       0.201379223578
 94      -0.140574334513
 95      -0.118445281013
 96       0.257216215426
 97       0.023129116349
 98       0.058468830410
 99      -0.385613868052
100      -0.053136710054
101       0.194571964053
102      -0.214422072576
103      -0.128050661098
104      -0.311515309586
105       0.056729060176
106      -0.197613408721
107       0.095654006182
108      -0.087273095396
109      -0.358597678762
110       0.120367150244
111      -0.257125418529
112      -0.123616903141
113      -0.254335749800
114      -0.244275164485
115      -0.049929984192
116      -0.142644072158
117       0.110774945694
118      -0.240162787557
119      -0.027992354894
 Sym=     1a
 Ene= 2.53145754927652E+00
 Spin= Alpha
 Occup= 0.000000
  1       0.000977613266
  2       0.001987305911
  3       0.056714282841
  4      -0.300155460512
  5       0.313178012772
  6      -0.067628628060
  7       0.119626624999
  8      -0.055339175921
  9       0.253601418386
 10      -0.336520753527
 11       0.274548833236
 12       0.067127011174
 13       0.009726642665
 14       0.100866074205
 15      -0.238174370593
 16      -0.224980257740
 17       0.117547476223
 18      -0.048064116289
 19       0.013679204726
 20      -0.001736629093
 21      -0.003804954934
 22       0.014193281712
 23       0.006725034046
 24      -0.582161118458
 25      -0.015049293855
 26       0.000434945892
 27       0.005802649098
 28       0.071402812650
 29      -0.007088803266
 30      -0.025777105784
 31      -0.047736611369
 32      -0.093398171390
 33       0.064952413429
 34      -0.155269564929
 35       0.114440685466
 36      -0.001355525809
 37      -0.014950807574
 38      -0.024739072440
 39       0.000230038672
 40       0.038902175554
 41       0.029621041352
 42      -0.015961710586
 43       0.055372035317
 44      -0.050613271767
 45      -0.193150156982
 46      -0.070727832417
 47       0.001420462490
 48       0.003033800330
 49       0.058744000358
 50      -0.332113845278
 51       0.304076242518
 52      -0.056360530771
 53       0.134248727708
 54      -0.003357884860
 55       0.182159227555
 56      -0.450387861207
 57      -0.092966132841
 58       0.040168354077
 59      -0.060568008999
 60      -0.104144250777
 61      -0.067388450019
 62       0.098176108603
 63      -0.312630205007
 64       0.158715112384
 65       0.050697807125
 66      -0.011795598787
 67      -0.038418271214
 68       0.221519842041
 69      -0.211893314616
 70       0.309383587155
 71      -0.024880166501
 72       0.115216004900
 73      -0.033525889478
 74      -0.011012482275
 75      -0.124544352701
 76       0.043271061623
 77      -0.062193592963
 78      -0.048382995590
 79       0.012868488471
 80      -0.030514504572
 81      -0.018231516084
 82      -0.014028093633
 83       0.020421316883
 84       0.011074353081
 85       0.016917543791
 86       0.000617268036
 87       0.001928974666
 88       0.001290342729
 89       0.040284735969
 90      -0.032093359652
 91       0.008991822182
 92      -0.271661193607
 93       0.289333058648
 94      -0.276037345078
 95       0.051407327056
 96      -0.008473816656
 97      -0.022384804812
 98       0.130676000049
 99      -0.383574290429
100       0.081156300050
101      -0.071824001701
102      -0.276155474287
103      -0.004277278206
104      -0.343044105806
105       0.079186043241
106      -0.063846943967
107      -0.168567047519
108       0.225176757330
109       0.359063022170
110       0.046101869341
111       0.003149945945
112       0.081710429117
113       0.341197355215
114       0.233853965605
115      -0.030078824361
116       0.015332305168
117      -0.212367506126
118       0.430196166005
119       0.122421821074
 Sym=     1a
 Ene= 2.62603415383575E+00
 Spin= Alpha
 Occup= 0.000000
  1       0.006954570418
  2       0.010715740032
  3       0.306731481793
  4      -1.296010519147
  5      -0.052536115673
  6       0.100118911079
  7      -0.017463838617
  8       0.223967390919
  9      -0.265762551244
 10      -0.018143501982
 11      -0.977966891844
 12       0.232512801142
 13      -0.070028316522
 14       0.046674635308
 15      -0.224628303703
 16      -0.211905608481
 17       0.045643907335
 18       0.121497130153
 19       0.132273001833
 20       0.002443149566
 21       0.014249985267
 22      -0.012803585449
 23      -0.321905907890
 24      -0.116519291733
 25      -0.280434881767
 26       0.136412278832
 27       0.000409060467
 28       1.284080740322
 29      -0.665155237579
 30       0.011574856786
 31      -2.343996517411
 32       1.205376096114
 33      -0.018519054735
 34      -0.268159500272
 35       0.268105138598
 36      -0.044576004542
 37       0.162235034324
 38       0.100684677965
 39       0.108052583011
 40      -0.057294580624
 41      -0.111829849126
 42       0.169320899796
 43       0.231495218442
 44      -0.067292608675
 45      -0.629139567702
 46      -0.240078953180
 47       0.006965450430
 48       0.010774402855
 49       0.304845302634
 50      -1.289742392785
 51      -0.055566631484
 52       0.032457545738
 53      -0.152113734685
 54      -0.188948745722
 55       0.030006799474
 56       0.572608985711
 57       0.830788346562
 58       0.214120588947
 59      -0.104912247226
 60      -0.059997745012
 61      -0.117850597299
 62      -0.047469597915
 63      -0.198297108958
 64       0.232550033879
 65       0.140824471375
 66       0.015170607719
 67       0.056042319659
 68      -0.430065356368
 69       0.634839882347
 70       1.200583442304
 71      -0.489989399960
 72       0.155074040259
 73       0.029149916830
 74       0.331177489748
 75      -0.226315050398
 76       0.019950045862
 77      -1.074379598991
 78      -0.204335503980
 79       0.242875920785
 80      -0.032485127747
 81       0.004971329027
 82       0.028818077930
 83       0.093155509266
 84      -0.082721021570
 85      -0.106064395446
 86      -0.156951163394
 87      -0.027990183637
 88       0.252715491063
 89       0.242525884644
 90      -0.048165815667
 91      -0.063908962607
 92      -0.030003030166
 93      -0.064629623093
 94       0.118121668209
 95      -0.043534352801
 96       0.441256282469
 97       0.226155210644
 98       0.117201455519
 99       0.198529696897
100       0.049506175693
101       0.068801226484
102      -0.232392262358
103       0.023730967960
104       0.197171553262
105       0.049300572759
106       0.070048796640
107      -0.281072105687
108      -0.072626001735
109      -0.096930617973
110      -0.043190218478
111       0.440248468111
112       0.146900003719
113      -0.039726437850
114      -0.284237721014
115      -0.048174770584
116      -0.064527575102
117      -0.056069586022
118      -0.116870619881
119      -0.043741194702
 Sym=     1a
 Ene= 2.65458850741543E+00
 Spin= Alpha
 Occup= 0.000000
  1       0.001687882404
  2       0.011948220881
  3      -0.473387690079
  4       1.614577438486
  5      -0.316482590030
  6      -0.186590336615
  7       0.134064017423
  8      -0.260437507761
  9       0.755171642717
 10      -0.554244171570
 11       0.886252765921
 12      -0.236689587598
 13      -0.094180299431
 14      -0.320953576623
 15       0.161170268320
 16       0.039386717821
 17      -0.231743060169
 18       0.092044363430
 19       0.017356208494
 20       0.000003091904
 21       0.000012547548
 22      -0.000018358345
 23      -0.000486904889
 24      -0.000415098745
 25       0.029921820686
 26       0.061533222630
 27       0.186776843039
 28      -0.147596799527
 29      -0.303223619670
 30      -0.920466529357
 31       0.291727367674
 32       0.598441229498
 33       1.817138350320
 34       0.073929965322
 35       0.151152849159
 36       0.457791623802
 37      -0.044173458617
 38      -0.339909921929
 39       0.236128752409
 40      -0.134832451504
 41      -0.070840588067
 42      -0.365942789913
 43       0.071872017920
 44       0.521737789989
 45      -0.178165917322
 46       0.130708025291
 47      -0.001663012995
 48      -0.011911977959
 49       0.474473858264
 50      -1.619116206493
 51       0.317303034225
 52       0.116129037852
 53      -0.277387111796
 54      -0.175263968214
 55      -0.518390946325
 56       1.034782624293
 57       0.574507313113
 58       0.125513836088
 59      -0.131967948446
 60      -0.367831406387
 61       0.117046599850
 62       0.059212806235
 63      -0.240946337570
 64       0.093298104455
 65      -0.078880764655
 66       0.000022487174
 67       0.000084311029
 68      -0.000666922685
 69       0.001095130206
 70       0.001912702460
 71      -0.083374469877
 72      -0.166499861601
 73      -0.506148570838
 74       0.116384669838
 75       0.233598792734
 76       0.710181745468
 77      -0.142660236401
 78      -0.285280771748
 79      -0.865452232901
 80      -0.016396573917
 81      -0.142707532633
 82       0.095085120166
 83      -0.054978463110
 84      -0.030481953347
 85      -0.053390741393
 86       0.394046723613
 87      -0.114288356624
 88       0.099461533288
 89       0.114667899162
 90       0.008835041140
 91      -0.266920182573
 92      -0.163692572973
 93      -0.007670162154
 94      -0.203211191640
 95       0.080537893957
 96      -0.147723461215
 97      -0.124177075029
 98       0.260253527915
 99      -0.275535054759
100       0.010141445029
101       0.043134672337
102      -0.274480904479
103       0.171300916114
104      -0.057885160462
105      -0.009764526869
106      -0.043898339969
107       0.260506561855
108      -0.197930335983
109      -0.024135001467
110      -0.080626039898
111       0.149006262231
112       0.064825367329
113      -0.382277609147
114      -0.095637384089
115      -0.008896907651
116       0.266613506985
117       0.096472390248
118      -0.127331230211
119      -0.206569033616
 Sym=     1a
 Ene= 2.70568886167303E+00
 Spin= Alpha
 Occup= 0.000000
  1       0.001025696494
  2       0.004244522202
  3      -0.106843418497
  4       0.330305914528
  5      -0.360163461531
  6      -0.055374097892
  7      -0.010108021293
  8      -0.024281106906
  9       0.160024131464
 10       0.006109534452
 11       0.035042172057
 12      -0.139322156786
 13       0.025406593635
 14      -0.004500100615
 15       0.134682211118
 16      -0.091142140131
 17      -0.041845228845
 18       0.089718219992
 19       0.088427130432
 20      -0.001771046881
 21       0.001784702552
 22       0.016227455622
 23       0.007739875368
 24       0.171944595849
 25       0.025197591579
 26      -0.004867427815
 27      -0.002486222563
 28      -0.115299777913
 29       0.017681907109
 30       0.012883014446
 31       0.110862813130
 32      -0.044391734057
 33      -0.003257595949
 34       0.062610599607
 35      -0.459033622936
 36       0.140758507191
 37       0.018852269180
 38      -0.028204772671
 39      -0.036959391056
 40      -0.066088737096
 41       0.125907890961
 42      -0.007148052103
 43       0.075470017343
 44       0.091544370517
 45       0.114499207741
 46      -0.270171442104
 47       0.001012188213
 48       0.004207673353
 49      -0.106568389401
 50       0.329683139177
 51      -0.358598617316
 52      -0.044874977582
 53       0.011038285203
 54       0.040132168577
 55       0.141810132825
 56      -0.030270085327
 57      -0.075542937996
 58      -0.133569936939
 59       0.035753382318
 60       0.028567402655
 61      -0.010231025337
 62       0.023136682355
 63       0.121848072604
 64       0.047425198083
 65       0.162309548545
 66      -0.009904916441
 67      -0.032494314074
 68       0.195189677937
 69      -0.251591429896
 70       0.088895672891
 71       0.395073329430
 72       0.898522207654
 73      -0.360592235870
 74      -0.567886964842
 75      -1.313983691110
 76       0.525720869922
 77       0.276009892183
 78       1.040194459386
 79      -0.387981260243
 80       0.101354625418
 81       0.143738838983
 82       0.055252117041
 83      -0.170126043965
 84      -0.245014737238
 85      -0.033884252997
 86       0.039295514716
 87       0.028313377722
 88       0.048054157288
 89      -0.163883894482
 90      -0.047244098506
 91       0.129369492776
 92      -0.018042286552
 93      -0.110243840524
 94       0.061603109092
 95       0.001886551192
 96       0.019258573056
 97      -0.043826020425
 98       0.077056750668
 99      -0.065255595787
100      -0.024818744341
101       0.143907325662
102      -0.083852139331
103       0.074893380187
104       0.139164045569
105      -0.024934664729
106       0.144032038294
107      -0.127118685502
108      -0.012153758903
109      -0.125492059607
110       0.001909277342
111       0.019016960611
112      -0.030562489766
113       0.104435015739
114       0.017025330351
115      -0.047244430194
116       0.128655686398
117      -0.023786446913
118      -0.123291256103
119       0.021880740297
 Sym=     1a
 Ene= 2.72603708176118E+00
 Spin= Alpha
 Occup= 0.000000
  1      -0.001081963087
  2      -0.006222046221
  3       0.185444587011
  4      -0.536925286072
  5       0.027560144254
  6       0.002332125736
  7      -0.090719404607
  8       0.113893277523
  9      -0.011686331999
 10       0.391714537900
 11      -0.388319230264
 12      -0.010948738113
 13       0.150988143110
 14       0.218920782844
 15       0.124324618363
 16      -0.351956958376
 17      -0.058870558563
 18       0.041087154107
 19      -0.222360902159
 20      -0.000001158107
 21      -0.000005682541
 22       0.000006101524
 23       0.000229631406
 24      -0.001572996160
 25      -0.010981035764
 26      -0.022377167315
 27      -0.067884648086
 28       0.055993910114
 29       0.113974974331
 30       0.345836843792
 31      -0.113327941567
 32      -0.230101746441
 33      -0.698443996120
 34       0.040566033207
 35       0.081864634475
 36       0.249054862793
 37       0.091100217985
 38       0.010002542112
 39      -0.143635850212
 40       0.053065984084
 41      -0.025727738212
 42      -0.051164844870
 43       0.290322763744
 44      -0.066154265256
 45       0.066702176077
 46       0.088079733229
 47       0.001072092383
 48       0.006199345875
 49      -0.185468874768
 50       0.537425798883
 51      -0.025703400105
 52       0.021819731889
 53       0.139847795847
 54       0.034991335429
 55      -0.063076427972
 56      -0.543776753693
 57      -0.073233942516
 58       0.087592858108
 59       0.003609331487
 60       0.250749298760
 61       0.205869615263
 62      -0.363047907951
 63      -0.088618076526
 64      -0.094423389276
 65      -0.058076508523
 66       0.000000567008
 67      -0.000001067989
 68       0.000044254507
 69      -0.000249323422
 70       0.000278463399
 71      -0.092007316116
 72      -0.187481973631
 73      -0.567565945246
 74       0.136196489325
 75       0.277293442099
 76       0.839490262942
 77      -0.097769932841
 78      -0.198341520477
 79      -0.600701863526
 80      -0.077158967623
 81       0.306555543573
 82      -0.034424137175
 83       0.057474180355
 84       0.100207833563
 85      -0.014688640342
 86      -0.009000694567
 87       0.026685469108
 88      -0.010774874528
 89       0.002350287748
 90      -0.030923704600
 91       0.344864000722
 92      -0.268958814571
 93      -0.219402377679
 94       0.204400485823
 95       0.033885955782
 96       0.051646850514
 97      -0.012006645733
 98      -0.300122661853
 99      -0.134924036420
100      -0.039007317053
101      -0.076897824563
102       0.116146853518
103       0.006066483521
104       0.243789674992
105       0.039205244167
106       0.075793281535
107      -0.039287418695
108       0.147369387983
109       0.223491977727
110      -0.033722649676
111      -0.052488150701
112      -0.056004679206
113       0.163223545271
114      -0.279927612300
115       0.030844574063
116      -0.344751748464
117       0.294287384803
118       0.271657905216
119      -0.048607778495
 Sym=     1a
 Ene= 2.76066228392849E+00
 Spin= Alpha
 Occup= 0.000000
  1       0.000179913531
  2       0.002635583586
  3      -0.108994267451
  4       0.290229248589
  5       0.243603648299
  6      -0.012299980659
  7       0.059553612736
  8      -0.047952111314
  9       0.083682464177
 10      -0.307960062067
 11       0.138773235485
 12      -0.024016345482
 13      -0.216179847568
 14      -0.035111507782
 15       0.058283674792
 16       0.258672522460
 17       0.072241097632
 18       0.105372919478
 19       0.512435565699
 20      -0.001043045933
 21      -0.004474033033
 22       0.006397644149
 23       0.152657764266
 24      -0.813698119144
 25       0.018712714642
 26      -0.070673977805
 27       0.020072877251
 28      -0.083538346423
 29       0.328972255096
 30      -0.094019060659
 31       0.084826346454
 32      -0.596023794281
 33       0.181102643499
 34      -0.025432070555
 35       0.125091175416
 36      -0.037354849398
 37       0.074056479952
 38      -0.013983872512
 39       0.055260846111
 40       0.064906607082
 41       0.082205022103
 42      -0.126045466643
 43       0.009139467991
 44      -0.084882388208
 45      -0.069788697173
 46      -0.114908951396
 47       0.000188411321
 48       0.002660840706
 49      -0.109516414867
 50       0.291742952568
 51       0.243053582856
 52      -0.003469273666
 53       0.077346499750
 54       0.006006115397
 55       0.068501643787
 56      -0.338255165930
 57       0.047202902932
 58       0.005814902224
 59      -0.152413102388
 60       0.158552245618
 61       0.300659282903
 62      -0.430813866653
 63       0.045146661684
 64       0.011092288594
 65       0.264916957726
 66      -0.003621908606
 67      -0.012829960409
 68       0.089564092929
 69      -0.173308998860
 70       0.319487788854
 71       0.194418155369
 72      -0.164644144145
 73       0.023560636208
 74      -0.276888652296
 75       0.250420869179
 76      -0.038939531137
 77      -0.019936942320
 78      -0.057625287177
 79       0.023810185152
 80       0.024028748420
 81      -0.035763071586
 82      -0.048559434183
 83      -0.088305677626
 84       0.161432519858
 85      -0.022188108215
 86       0.023704683975
 87       0.037590430382
 88       0.076013041307
 89      -0.122039607914
 90       0.014071106508
 91      -0.293753181533
 92       0.338779512816
 93       0.022960644018
 94       0.007622942586
 95       0.017480357991
 96      -0.119608274631
 97       0.028128715207
 98       0.473687810575
 99       0.111316357974
100      -0.031400205156
101       0.152293381683
102      -0.319495827161
103       0.095307738377
104      -0.124447602537
105      -0.031498976860
106       0.152817885581
107      -0.276035484662
108       0.179065751166
109       0.132948953419
110       0.017721083548
111      -0.121552498345
112      -0.050554251362
113       0.315363984060
114      -0.366893181051
115       0.013892218345
116      -0.292129816731
117       0.319269018493
118      -0.015960077316
119      -0.116741690032
 Sym=     1a
 Ene= 2.77647133925022E+00
 Spin= Alpha
 Occup= 0.000000
  1       0.000274831075
  2       0.001627632272
  3      -0.076845985588
  4       0.348719442150
  5      -0.127289424161
  6       0.016513558489
  7       0.006367115951
  8      -0.045182098573
  9      -0.091919070151
 10      -0.078068152274
 11       0.214162530206
 12      -0.452855289854
 13      -0.013056303095
 14       0.200383375751
 15      -0.171114833864
 16       0.310732544219
 17       0.146625948666
 18      -0.204390259618
 19      -0.027599842194
 20       0.000014800131
 21      -0.000029881677
 22      -0.000145472920
 23       0.000981995044
 24       0.003519646652
 25       0.005217899986
 26       0.008171652329
 27       0.025736692011
 28      -0.024371709760
 29      -0.038054044214
 30      -0.120149052576
 31       0.045192690909
 32       0.068229181143
 33       0.215101055042
 34       0.075144422411
 35       0.160598896165
 36       0.484861417368
 37       0.004224348408
 38      -0.017428636779
 39       0.001944637075
 40      -0.002761305364
 41      -0.004847635408
 42      -0.117698169646
 43       0.057476129494
 44       0.148945593242
 45      -0.043718531670
 46       0.050995232562
 47      -0.000322259666
 48      -0.001720480947
 49       0.075696966094
 50      -0.343671558780
 51       0.125820907727
 52      -0.028453554248
 53      -0.029047856112
 54      -0.025323957004
 55       0.143946852682
 56       0.175614329149
 57       0.089541692884
 58       0.491153443337
 59       0.086546398180
 60       0.016309089909
 61      -0.204078644103
 62       0.149311909229
 63       0.199770467407
 64       0.150296531440
 65       0.264125506485
 66      -0.000081845163
 67      -0.000297537452
 68       0.002296870974
 69      -0.003302926202
 70      -0.002825951395
 71      -0.111149075089
 72      -0.223342182964
 73      -0.672416474910
 74       0.174544108284
 75       0.348645474635
 76       1.049117095508
 77      -0.155963272552
 78      -0.322247087321
 79      -0.973964580276
 80       0.006687578510
 81       0.254415667851
 82      -0.138215770682
 83       0.088252421577
 84       0.061933573975
 85      -0.032978037021
 86       0.194785055839
 87      -0.044294272816
 88       0.042576732077
 89       0.058447617928
 90      -0.052502067617
 91       0.313926947988
 92       0.288756542456
 93       0.219111370828
 94      -0.128913210197
 95       0.064729826271
 96      -0.443616415030
 97      -0.020042779337
 98      -0.017327152209
 99       0.156766113442
100      -0.037406505851
101       0.271429241841
102       0.203405817117
103      -0.163369650950
104      -0.267256536192
105       0.037825621061
106      -0.273832242392
107      -0.291215581089
108      -0.002475010724
109      -0.242757976852
110      -0.065424420457
111       0.445978876325
112       0.062219137988
113       0.108067850198
114       0.105001350090
115       0.052704407718
116      -0.316161868704
117      -0.293001384231
118      -0.229378105590
119       0.112765087612
 Sym=     1a
 Ene= 2.77846177951323E+00
 Spin= Alpha
 Occup= 0.000000
  1      -0.001890200300
  2      -0.003809363612
  3      -0.041226051076
  4       0.137685700769
  5      -0.045512822047
  6      -0.051147551939
  7      -0.000804066482
  8      -0.031602402062
  9       0.250091864542
 10      -0.026777670573
 11       0.049856153930
 12       0.274564232846
 13       0.081981663416
 14      -0.215282862653
 15       0.337494274918
 16      -0.357348124532
 17      -0.207592559845
 18       0.214998511644
 19       0.070840351270
 20       0.001274506543
 21      -0.002142469407
 22      -0.012298329512
 23       0.099919019280
 24       0.185136558228
 25       0.099533393856
 26      -0.014896486647
 27      -0.011541966628
 28      -0.462485916118
 29       0.082583350178
 30       0.049258210609
 31       0.942887294236
 32      -0.161279444225
 33      -0.102470062054
 34      -0.728202519538
 35       0.211827612877
 36       0.044359698067
 37      -0.015374028388
 38      -0.037783883880
 39      -0.011698999616
 40       0.039572898116
 41       0.077781658430
 42      -0.012447574399
 43      -0.014948133370
 44      -0.012022531349
 45       0.009767913874
 46       0.025784177085
 47      -0.001883560275
 48      -0.003778027183
 49      -0.042325553871
 50       0.142584228408
 51      -0.044369873510
 52      -0.039354311454
 53       0.022951469314
 54       0.039499581005
 55       0.224889004180
 56      -0.077154431154
 57      -0.095441546450
 58       0.308547336503
 59       0.163799080277
 60       0.037179388893
 61      -0.192198360050
 62       0.197855719350
 63       0.323449327378
 64       0.103008043380
 65       0.371426828810
 66      -0.012921338219
 67      -0.045509582064
 68       0.328125703691
 69      -0.472823427821
 70       0.124844223725
 71      -0.046849020230
 72      -0.322896551917
 73       0.118984985628
 74       0.167277536870
 75       0.518837693781
 76      -0.205922041079
 77       0.240891904798
 78      -0.417919534380
 79       0.105792341599
 80      -0.111975948896
 81      -0.076127958307
 82      -0.074596583694
 83       0.045367773628
 84       0.089109936178
 85       0.100792829892
 86       0.041081114785
 87      -0.007773042296
 88      -0.179793670993
 89       0.047629174142
 90       0.020637187913
 91      -0.175715321475
 92      -0.266529496156
 93      -0.305097563357
 94       0.138891307108
 95      -0.039760311235
 96       0.261634571691
 97      -0.048806799304
 98       0.096851811945
 99      -0.301923002149
100       0.026195501051
101      -0.232915942473
102      -0.223053152739
103       0.196768150959
104       0.282726654442
105       0.025909969315
106      -0.229478700652
107      -0.309271690665
108       0.016547479410
109      -0.261927113012
110      -0.038591322063
111       0.254342651087
112       0.029884010495
113       0.257031650240
114       0.186159387894
115       0.019916609136
116      -0.171846146504
117      -0.260311658570
118      -0.299552468757
119       0.145518649090
 Sym=     1a
 Ene= 2.79664332622314E+00
 Spin= Alpha
 Occup= 0.000000
  1      -0.003999463475
  2      -0.006621277243
  3      -0.161846254043
  4       0.808377379121
  5      -0.218859764683
  6      -0.000055792660
  7      -0.002818921468
  8      -0.118298608018
  9      -0.008344066156
 10      -0.004499141504
 11       0.592176318065
 12      -0.402640329953
 13       0.116899112475
 14       0.068847975409
 15       0.157713421163
 16       0.088767604102
 17       0.015818966733
 18      -0.090456086714
 19       0.004550957584
 20       0.002987683623
 21      -0.005769510555
 22      -0.029226069585
 23       0.052584616856
 24       1.691372076502
 25       0.177662440767
 26      -0.048018728376
 27       0.007313988989
 28      -0.846065729720
 29       0.227306588613
 30      -0.039204185170
 31       1.898413539183
 32      -0.344441162227
 33       0.016807166437
 34       0.887538364802
 35      -0.211118231274
 36      -0.145527065075
 37      -0.039664419059
 38      -0.051471424326
 39       0.006559896286
 40       0.001368510205
 41       0.021503284323
 42      -0.352678031912
 43      -0.306751228913
 44       0.011919120782
 45       0.756776326072
 46       0.260916886362
 47      -0.003821415765
 48      -0.006759542426
 49      -0.107561101803
 50       0.695206199666
 51      -0.523120616191
 52       0.025159522237
 53       0.034013645143
 54       0.030503726996
 55      -0.164036036769
 56      -0.253418553476
 57      -0.260789217454
 58      -0.312999043918
 59      -0.015213235553
 60       0.208800542892
 61       0.169880534379
 62      -0.093780799049
 63       0.107659616869
 64      -0.072033511066
 65       0.180686762222
 66       0.004788665481
 67       0.012456901698
 68      -0.014721378508
 69       0.055161681642
 70      -2.287047522458
 71      -0.715935595548
 72       0.390907381909
 73       0.032724041529
 74       1.363522710618
 75      -0.595106207384
 76      -0.097392948751
 77       0.527549727396
 78       0.630299152738
 79      -0.262907056526
 80      -0.164062698178
 81      -0.142317858283
 82       0.077026444273
 83       0.412583518978
 84      -0.151718236624
 85       0.196586888946
 86       0.215857937635
 87       0.016715234278
 88      -0.402147957952
 89      -0.150456001208
 90      -0.006817388298
 91       0.269735736842
 92       0.111555371643
 93       0.055603671084
 94      -0.031014086062
 95      -0.002124624756
 96      -0.390576389750
 97      -0.142029650819
 98       0.005739511043
 99      -0.102135947567
100      -0.006954536069
101       0.078227856710
102       0.109594211746
103      -0.028414836045
104      -0.115860079491
105      -0.043092890653
106       0.318088337850
107      -0.008224331183
108       0.035282374254
109       0.017993708309
110      -0.022917545043
111      -0.217042396849
112      -0.108900945637
113       0.169960442122
114      -0.056829813012
115       0.014603674803
116       0.153627344797
117       0.185839574248
118      -0.048384058953
119      -0.115902334246
 Sym=     1a
 Ene= 2.79669719907091E+00
 Spin= Alpha
 Occup= 0.000000
  1      -0.000421008607
  2      -0.001724200628
  3       0.095252787909
  4      -0.098665864216
  5      -0.777938613918
  6       0.028956243356
  7       0.023915079004
  8       0.137486332657
  9      -0.120174567541
 10      -0.080392063478
 11      -0.349098305728
 12       0.025186990154
 13      -0.499698618091
 14      -0.296985131456
 15       0.085203071239
 16      -0.007879706810
 17      -0.013224698675
 18       0.172657175765
 19       0.518012026229
 20       0.000654868139
 21      -0.001264431057
 22      -0.006405642051
 23       0.011404869362
 24       0.372346244220
 25       0.024894849753
 26      -0.038920045506
 27      -0.085111441630
 28      -0.115268054137
 29       0.191749414239
 30       0.424685135772
 31       0.270423523421
 32      -0.370474705790
 33      -0.896566678388
 34       0.241806987919
 35       0.049122486502
 36       0.258370737938
 37       0.029878708677
 38       0.131318901113
 39      -0.128237972933
 40       0.067815641090
 41       0.028028320434
 42      -0.020659189106
 43      -0.094219524078
 44      -0.069775236558
 45       0.188014711121
 46       0.033419017869
 47      -0.001289591038
 48      -0.001197219613
 49      -0.154485646099
 50       0.428757756521
 51       0.613447083406
 52       0.027001899608
 53       0.084799551056
 54       0.154194178636
 55      -0.067987228440
 56      -0.279387684670
 57      -0.503005550467
 58      -0.316714858465
 59       0.252035357734
 60      -0.463509254860
 61      -0.066417321021
 62       0.282496208480
 63      -0.015976682512
 64      -0.146195047707
 65      -0.393643632445
 66       0.001041788921
 67       0.002703767261
 68      -0.003044142237
 69       0.011923178612
 70      -0.501815392676
 71      -0.186836589194
 72       0.025546433215
 73      -0.176284884028
 74       0.346522398977
 75      -0.034751428725
 76       0.270540438027
 77       0.096923989919
 78       0.099416717103
 79      -0.175599543033
 80      -0.098966239401
 81       0.289223761922
 82      -0.045688630794
 83       0.160299060033
 84       0.065514612525
 85       0.082575902487
 86      -0.112070203282
 87       0.022601149054
 88      -0.118774059461
 89      -0.084487896000
 90       0.050082958314
 91      -0.219202124145
 92       0.268179126932
 93      -0.098430431020
 94       0.220212450411
 95      -0.051007292962
 96       0.334582476190
 97       0.061698149059
 98       0.419163802412
 99       0.162563041476
100      -0.087253969137
101       0.587628551284
102      -0.278902342450
103       0.108551906245
104       0.178357730769
105       0.075954147375
106      -0.499676665491
107       0.356473593127
108       0.003933955832
109       0.137878316876
110       0.045692634018
111      -0.467880509969
112      -0.019327331228
113      -0.185473945299
114       0.398473418975
115      -0.048430467431
116       0.312403940402
117      -0.137848720657
118       0.232906558887
119       0.154381472496
 Sym=     1a
 Ene= 2.92896730249987E+00
 Spin= Alpha
 Occup= 0.000000
  1      -0.000867614978
  2      -0.002574516218
  3       0.014433137017
  4       0.012856959651
  5      -0.140814187453
  6       0.001534078640
  7      -0.010611057412
  8       0.002598363887
  9      -0.026993292145
 10      -0.017295927018
 11      -0.028241458438
 12      -0.118797371080
 13      -0.055610164282
 14       0.024648750579
 15      -0.042657450620
 16       0.023840853443
 17       0.000044181788
 18      -0.033391564798
 19       0.012960041595
 20      -0.000094614382
 21       0.000164064125
 22       0.001105394735
 23      -0.045315829323
 24       0.335629531749
 25      -0.000287818327
 26       0.004127630617
 27      -0.001298029503
 28      -0.001838667798
 29      -0.017489052018
 30       0.006011696996
 31       0.034383287017
 32       0.055227896028
 33      -0.023770948323
 34       0.137405342593
 35       0.084699313702
 36      -0.050251643385
 37       0.028328694692
 38       0.018210318831
 39       0.036012464897
 40       0.027501736201
 41      -0.037194556009
 42      -0.099940844217
 43      -0.036605975009
 44      -0.079534857117
 45      -0.025858903777
 46       0.022608418346
 47      -0.000840318073
 48      -0.002502370245
 49       0.014236285965
 50       0.012295762117
 51      -0.139865238763
 52       0.001783312269
 53      -0.010286291349
 54       0.003724443489
 55      -0.015999949840
 56       0.004723276237
 57       0.039133384933
 58      -0.114380688278
 59      -0.048166967253
 60       0.047495569959
 61       0.004067740552
 62      -0.027238506191
 63      -0.045608015705
 64      -0.024386079718
 65      -0.014272599453
 66       0.000267049194
 67       0.001244206940
 68      -0.010900548353
 69       0.043418777406
 70      -0.223358339776
 71      -0.017662803483
 72      -0.014536667662
 73       0.007587626706
 74       0.032717665945
 75       0.016847475318
 76      -0.010729843040
 77       0.094388776810
 78      -0.018380161857
 79      -0.009510944529
 80      -0.726248902676
 81      -0.057628208844
 82      -0.539014933701
 83      -0.371059877883
 84      -0.354900263595
 85       0.292899858008
 86       0.031308538615
 87       0.201268331087
 88       0.103125967943
 89       0.139856806034
 90       0.016664311763
 91      -0.006154253932
 92       0.033266825430
 93       0.008045451926
 94      -0.026744347386
 95       0.009982924570
 96      -0.061523215099
 97      -0.006000782566
 98       0.007954105757
 99       0.033169620249
100      -0.058501333697
101       0.187191100200
102       0.037360106280
103      -0.029450642310
104      -0.014025415378
105      -0.058213067329
106       0.186671812134
107       0.042155635553
108      -0.019365769565
109       0.017134266432
110       0.009940542341
111      -0.061048851354
112      -0.015682989939
113      -0.012145109975
114      -0.028058235784
115       0.016975495925
116      -0.006647734726
117       0.038224302755
118       0.018926785317
119       0.006095077839
 Sym=     1a
 Ene= 2.96629659703288E+00
 Spin= Alpha
 Occup= 0.000000
  1      -0.001083811742
  2      -0.002432614547
  3      -0.023776610268
  4       0.193985253251
  5      -1.381672423925
  6       0.015013170432
  7       0.020848508539
  8      -0.013900132967
  9      -0.083955662725
 10      -0.025056362584
 11       0.047755459792
 12      -0.261331119761
 13       0.096724800789
 14      -0.348884045914
 15      -0.055532614530
 16       0.009602903736
 17       0.022638593580
 18      -0.035313243406
 19      -0.005947050904
 20      -0.000001055424
 21      -0.000004330022
 22       0.000007352534
 23      -0.000017413593
 24       0.000055612524
 25       0.003250127907
 26       0.006513129028
 27       0.019813868752
 28      -0.016125368416
 29      -0.032335037863
 30      -0.098396048047
 31       0.025594535548
 32       0.051236618025
 33       0.156081611156
 34      -0.179909160082
 35      -0.363717802809
 36      -1.107232835648
 37      -0.054744060369
 38       0.101043318770
 39       0.033290104633
 40       0.002916672464
 41       0.042062950639
 42       0.130912229672
 43      -0.150722609339
 44      -0.124695258747
 45       0.022613701370
 46      -0.077885890806
 47       0.001097826933
 48       0.002470300773
 49       0.023649312887
 50      -0.194120402092
 51       1.381783751356
 52      -0.016295947684
 53      -0.023485834584
 54       0.005714696759
 55       0.091360612379
 56       0.039824518993
 57      -0.002218344556
 58       0.158115151034
 59      -0.304961083986
 60      -0.285067716429
 61      -0.006300367863
 62       0.007057438366
 63       0.063228847683
 64       0.006859952714
 65       0.029433592992
 66      -0.000005017825
 67      -0.000018018383
 68       0.000130590247
 69      -0.000212775424
 70      -0.000021417078
 71       0.012929739576
 72       0.026201258609
 73       0.079556333340
 74      -0.021135357297
 75      -0.042889518004
 76      -0.130251239186
 77       0.048316077145
 78       0.097651035941
 79       0.296859317347
 80      -0.579150083986
 81       0.243175214194
 82       0.760160148363
 83      -0.237529041818
 84       0.239508045922
 85       0.272353843995
 86      -0.179337594914
 87      -0.325283246693
 88       0.090551123607
 89      -0.128737143908
 90      -0.022774735134
 91       0.160852397302
 92       0.029987240942
 93       0.058987610423
 94      -0.050916494788
 95      -0.043857560863
 96       0.139170792564
 97      -0.017457883850
 98      -0.013004522555
 99       0.034037683360
100      -0.006105939930
101       0.208627056883
102       0.039762528836
103       0.001693299978
104      -0.055879871997
105       0.006198990386
106      -0.208423142584
107      -0.054039317551
108      -0.030062185240
109      -0.030185885508
110       0.043991020306
111      -0.139387491386
112       0.025314608763
113       0.028819216637
114       0.013438521037
115       0.022864654039
116      -0.160888218202
117      -0.037640948510
118      -0.074508435966
119       0.003760839792
 Sym=     1a
 Ene= 3.00709681558016E+00
 Spin= Alpha
 Occup= 0.000000
  1       0.000214668537
  2       0.001745788727
  3      -0.130849687113
  4       0.352623515550
  5       0.445280244029
  6      -0.081484812169
  7      -0.003258895585
  8      -0.049266582907
  9       0.195907551025
 10      -0.055658183019
 11       0.133355082525
 12       0.169044835449
 13      -0.090186260815
 14      -0.031425405132
 15      -0.009511456718
 16       0.053339597870
 17       0.029321542841
 18       0.078247225073
 19       0.025725982792
 20       0.000146350619
 21      -0.003658370294
 22      -0.003622576471
 23       0.264335369399
 24      -1.820310805319
 25      -0.026812122961
 26      -0.045749498675
 27       0.019414796196
 28       0.130464341155
 29       0.252092376356
 30      -0.104138746836
 31      -0.400286118684
 32      -0.391798001020
 33       0.193944161566
 34      -0.446398939530
 35       0.404191855702
 36      -0.060138611068
 37      -0.031812652135
 38       0.050578223962
 39       0.048251089642
 40       0.075676070036
 41      -0.206670046323
 42       0.094173876673
 43      -0.054134869839
 44      -0.100707679459
 45      -0.254460906143
 46       0.350831328196
 47       0.000246285253
 48       0.001827375348
 49      -0.131035691200
 50       0.351857607408
 51       0.445511942905
 52      -0.063235405788
 53       0.033564942631
 54       0.062758628035
 55       0.153824700411
 56      -0.140761423217
 57      -0.125951526948
 58       0.179107358102
 59      -0.070544297668
 60       0.027484507092
 61       0.029278491882
 62      -0.070266685620
 63       0.031444622017
 64       0.059284136847
 65      -0.016736814124
 66      -0.011378805258
 67      -0.040072774794
 68       0.286359846771
 69      -0.582912549873
 70       1.358727916658
 71       0.170944172056
 72      -0.410952039363
 73       0.107148880914
 74      -0.313034091236
 75       0.683478497043
 76      -0.173529926691
 77      -0.401718904151
 78      -0.864738451894
 79       0.349278994072
 80       0.036090408387
 81       0.267079169882
 82       0.289177675198
 83       0.261243469542
 84      -0.842637458389
 85      -0.087574391882
 86      -0.227429421157
 87      -0.171875481913
 88       0.004130343613
 89       0.568989542223
 90      -0.007518491546
 91      -0.287069100736
 92      -0.029867973193
 93      -0.050778761311
 94      -0.061351859557
 95      -0.015716440757
 96      -0.032059053854
 97      -0.036357619542
 98       0.032913552212
 99       0.023264072871
100      -0.033431394861
101      -0.180399384779
102      -0.086514374692
103       0.039575877167
104      -0.057163635950
105      -0.033184683868
106      -0.180726109203
107      -0.070188048017
108       0.073240587074
109       0.045736978671
110      -0.015704626367
111      -0.031516603444
112      -0.044157331252
113       0.016695320591
114      -0.026339063071
115      -0.007323063519
116      -0.286894003721
117      -0.006373555173
118      -0.002728956164
119       0.084436521682
 Sym=     1a
 Ene= 3.10516933942006E+00
 Spin= Alpha
 Occup= 0.000000
  1      -0.005044949820
  2      -0.009635908601
  3      -0.317170386162
  4       1.148639593417
  5       1.396828292480
  6      -0.165624925888
  7       0.072523599420
  8      -0.142757427102
  9       0.418897516714
 10      -0.249737970663
 11       0.431085930459
 12       0.236286411675
 13       0.170316291140
 14       0.153418230416
 15      -0.052504600785
 16       0.037698082703
 17      -0.043339408338
 18       0.076553032077
 19      -0.106575823349
 20       0.000000188301
 21      -0.000002020011
 22      -0.000002632425
 23       0.000109290985
 24      -0.000609786979
 25       0.017976328807
 26       0.036360570057
 27       0.110777681588
 28      -0.095547817175
 29      -0.193201326614
 30      -0.588609344481
 31       0.174331806050
 32       0.352446626802
 33       1.074004269861
 34       0.009737102064
 35       0.019778114742
 36       0.060828860138
 37      -0.108928226648
 38       0.099759200476
 39       0.116289314943
 40      -0.027067206195
 41       0.058460064719
 42      -0.081507225880
 43      -0.521771926799
 44       0.382384790638
 45      -0.214261037864
 46      -0.104481872605
 47       0.005054774564
 48       0.009664416641
 49       0.316977792926
 50      -1.148526463462
 51      -1.396630061253
 52       0.123843022806
 53      -0.156989927113
 54      -0.114384223007
 55      -0.299257126593
 56       0.490993578364
 57       0.304416064168
 58      -0.164748920800
 59      -0.027097012040
 60       0.283682507307
 61       0.086148727617
 62       0.023689594928
 63      -0.037869223216
 64      -0.038347908696
 65       0.111222843671
 66       0.000000325628
 67       0.000002185875
 68      -0.000029451685
 69       0.000066139334
 70       0.000210373128
 71       0.072267420279
 72       0.146117761817
 73       0.444356059865
 74      -0.126096741670
 75      -0.254847543520
 76      -0.775022911359
 77       0.133819669911
 78       0.270983090811
 79       0.823746915328
 80      -0.037016437038
 81       0.740985728359
 82      -0.309933522549
 83       0.220742583789
 84       0.195370656870
 85       0.066336128888
 86      -0.492565705718
 87       0.142532439135
 88      -0.123847649129
 89      -0.142956926176
 90      -0.092191252672
 91      -0.453968246553
 92      -0.139540014794
 93      -0.045280514020
 94      -0.220638277975
 95      -0.065982239372
 96      -0.318566637285
 97      -0.199822067720
 98      -0.010162761180
 99      -0.043037310619
100      -0.002407869332
101      -0.691645128407
102      -0.040745280152
103       0.167261287564
104      -0.097624211629
105       0.002494120258
106       0.691666337311
107       0.026815161809
108      -0.195978299782
109       0.010861098376
110       0.065857708454
111       0.319055237241
112       0.177243083377
113      -0.035386857319
114      -0.096412083419
115       0.092308122599
116       0.453556321427
117       0.065361793176
118      -0.104158787055
119      -0.234531038639
 Sym=     1a
 Ene= 3.19655730595964E+00
 Spin= Alpha
 Occup= 0.000000
  1      -0.056655746953
  2      -0.150919075741
  3       0.637508419362
  4       0.231422643181
  5       1.424449607097
  6      -0.009369912693
  7       0.073568046619
  8      -0.000352768368
  9      -0.375562453947
 10       0.110907963027
 11      -0.710021138594
 12       0.101283195456
 13      -0.012884425354
 14       0.097432564175
 15      -0.310559260962
 16      -0.311915355459
 17       0.133224305868
 18      -0.049021521962
 19       0.114460163481
 20       0.007115044938
 21       0.025887258405
 22      -0.052288774209
 23       0.031342703514
 24      -0.603094137272
 25      -0.061279264053
 26       0.004900376136
 27       0.008382792270
 28       0.273055192746
 29      -0.101387738173
 30      -0.011268065532
 31      -0.505029295537
 32       0.287003263627
 33      -0.011759268863
 34      -0.013715198099
 35       0.165778463218
 36      -0.052433667950
 37       0.040912185736
 38       0.023270332776
 39       0.055338090309
 40       0.050608905154
 41      -0.050094912437
 42       0.029812305293
 43       0.061820465987
 44      -0.047727094318
 45      -0.219892629114
 46      -0.056950053703
 47      -0.056678500917
 48      -0.150974969429
 49       0.637883658293
 50       0.230861587784
 51       1.425587781770
 52      -0.015641522244
 53       0.060619280536
 54      -0.039697544072
 55      -0.165492707274
 56       0.536865194488
 57       0.585897974987
 58       0.069887125592
 59      -0.076371268305
 60      -0.096359711078
 61      -0.088636691442
 62       0.071388788236
 63      -0.394387911279
 64       0.196856145574
 65       0.140856495990
 66      -0.011039501345
 67      -0.035432160635
 68       0.226311802731
 69      -0.262745664831
 70       0.367555378495
 71      -0.156965279422
 72      -0.001384967103
 73       0.026069893611
 74       0.200155392624
 75       0.014852239383
 76      -0.037583438206
 77      -0.339445457417
 78      -0.197297000879
 79       0.120188178513
 80       0.081048115433
 81       0.033703754877
 82      -0.002473678885
 83      -0.134981898363
 84       0.036428337600
 85      -0.082394199143
 86      -0.078008872048
 87      -0.013799849533
 88       0.157964747606
 89       0.079765303640
 90      -0.196557055201
 91      -0.748647307798
 92       0.118691755600
 93      -0.359914860067
 94      -0.367689072324
 95      -0.211889891070
 96      -0.724939714084
 97      -0.554949273884
 98       0.015000661192
 99       0.151686028510
100      -0.187193606155
101      -0.837581764735
102       0.219579032924
103       0.558164626174
104      -0.129663015692
105      -0.187094341762
106      -0.838271706632
107       0.193359961883
108       0.506730220797
109      -0.287536214357
110      -0.212084611120
111      -0.725019185289
112      -0.574088338818
113      -0.024058906252
114       0.035183039201
115      -0.196618003567
116      -0.748706283680
117       0.253225523056
118      -0.089530444138
119       0.454813317956
 Sym=     1a
 Ene= 3.23614748330559E+00
 Spin= Alpha
 Occup= 0.000000
  1       0.054002820109
  2       0.144728026398
  3      -0.615802539226
  4      -0.190410310853
  5      -1.902159046869
  6      -0.041069501508
  7       0.034970139511
  8       0.041721156656
  9       0.526648709568
 10      -0.261995215478
 11       0.697962184256
 12      -0.183707742191
 13       0.079986731864
 14      -0.292966569902
 15       0.201425551221
 16       0.368400369209
 17      -0.302118509941
 18       0.078818913675
 19      -0.162914081606
 20       0.000000103777
 21      -0.000005331227
 22      -0.000003394333
 23       0.000215028735
 24      -0.003357244394
 25       0.007278732778
 26       0.014912663363
 27       0.045408861828
 28      -0.052852113577
 29      -0.107874478446
 30      -0.328528101243
 31       0.124976652021
 32       0.255827581398
 33       0.779133963021
 34      -0.060607276687
 35      -0.119841737569
 36      -0.364937155852
 37      -0.077374847465
 38      -0.167193304969
 39       0.200530959731
 40      -0.096697941773
 41      -0.017634300537
 42      -0.147982588646
 43       0.141973159903
 44       0.155268657950
 45      -0.035495950522
 46       0.081075449082
 47      -0.053975367252
 48      -0.144651514351
 49       0.615423404500
 50       0.190501248687
 51       1.901546078612
 52       0.054544297406
 53      -0.008079228235
 54       0.040412671829
 55      -0.326706609729
 56       0.665640994730
 57       0.532110272031
 58       0.098700311592
 59      -0.251710410836
 60      -0.229703494720
 61       0.080518331103
 62       0.173820688584
 63      -0.395053175060
 64       0.251436072306
 65       0.210056991245
 66      -0.000068465761
 67      -0.000237968403
 68       0.001750950662
 69      -0.003351833946
 70       0.005267213785
 71       0.012916773936
 72       0.025554483948
 73       0.078451911115
 74      -0.020065654025
 75      -0.039421127451
 76      -0.121213589226
 77      -0.031966035502
 78      -0.061324962858
 79      -0.184242708795
 80      -0.030598587029
 81       0.158328832387
 82      -0.032305350962
 83       0.035095775372
 84       0.048451085336
 85       0.006915935705
 86       0.093314722334
 87      -0.056998410368
 88       0.034763173096
 89       0.021392887002
 90       0.239299506405
 91       0.776900677458
 92      -0.185597970626
 93       0.457856107292
 94       0.401580453950
 95       0.223468760385
 96       0.750234224550
 97       0.515701503045
 98      -0.016262914330
 99      -0.149951978673
100       0.174230225974
101       0.767218118438
102      -0.225932422199
103      -0.472197022995
104       0.086373287280
105      -0.174203002800
106      -0.766432329833
107       0.194858146768
108       0.410931050727
109      -0.272369531291
110      -0.223267785706
111      -0.750259146617
112      -0.535848363549
113      -0.025650317868
114       0.024557344816
115      -0.239319286769
116      -0.776848947702
117       0.335919812785
118      -0.155380491844
119       0.518071355693
 Sym=     1a
 Ene= 3.28839452770585E+00
 Spin= Alpha
 Occup= 0.000000
  1      -0.001539708919
  2      -0.002869910180
  3      -0.022775820633
  4       0.002541702776
  5       0.479574319811
  6      -0.112864607935
  7       0.018661661422
  8       0.025130357869
  9      -0.006552688453
 10      -0.034701887306
 11       0.130729889498
 12      -0.048917028081
 13      -0.113890421824
 14       0.017354945525
 15      -0.016847431103
 16      -0.005790056301
 17      -0.098179437935
 18       0.179968171654
 19      -0.014468893240
 20       0.000153216626
 21       0.003630849165
 22       0.000389782204
 23      -0.153464915554
 24       4.898318878950
 25       0.159562534272
 26      -0.004857544002
 27      -0.024316679865
 28      -0.867607317692
 29       0.034002495619
 30       0.129664778127
 31       2.630470624581
 32      -0.024550266162
 33      -0.419122553814
 34       1.873747152546
 35       0.405101529746
 36      -0.438210573639
 37      -0.059065504447
 38      -0.032563419321
 39       0.006302737685
 40       0.118236223438
 41      -0.012000091386
 42      -0.418083684954
 43      -0.331921213045
 44      -0.082925738802
 45       0.686985279308
 46       0.272106957197
 47      -0.001609463883
 48      -0.003055977274
 49      -0.021745400358
 50       0.001755677100
 51       0.483964284520
 52      -0.116472674425
 53       0.011104623116
 54       0.002353792215
 55      -0.041305138806
 56      -0.102448490985
 57      -0.076889959903
 58      -0.040866161550
 59      -0.097825077244
 60       0.065196739254
 61      -0.127075173160
 62      -0.077673944068
 63       0.104805074796
 64       0.096670743316
 65       0.002361000545
 66       0.111474964860
 67       0.387484298616
 68      -2.878149641076
 69       5.547878897226
 70      -8.278021722377
 71      -0.148282112702
 72      -0.057510195879
 73       0.043042210961
 74       0.341847338738
 75       0.122576832622
 76      -0.095915073257
 77       3.235211708539
 78       0.009498711833
 79      -0.529589408399
 80       0.202929588324
 81       0.161281795332
 82       0.028744972150
 83      -0.359605223115
 84      -0.120766165833
 85       0.421805317978
 86       0.253740404368
 87      -0.004051143424
 88      -0.783745995113
 89      -0.002513502139
 90       0.111528943516
 91      -0.241585709741
 92      -0.081718223828
 93       0.069742457136
 94       0.029313681657
 95      -0.101065130238
 96      -0.145208877880
 97      -0.187665171432
 98       0.037654917366
 99      -0.020025546460
100       0.040870896492
101      -0.138905406869
102      -0.092201273293
103      -0.016802365128
104      -0.033809241349
105       0.041102206880
106      -0.140840568005
107      -0.076388257816
108       0.015128965079
109       0.061820437063
110      -0.101477441229
111      -0.146569728847
112      -0.177511806439
113       0.059551262227
114       0.047544637331
115       0.111200746144
116      -0.241880420963
117      -0.092598848806
118       0.047006356090
119      -0.038901873007
 Sym=     1a
 Ene= 3.49915088938178E+00
 Spin= Alpha
 Occup= 0.000000
  1      -0.001464215872
  2      -0.004161886792
  3       0.050752162335
  4      -0.082614140958
  5       0.023051274687
  6      -0.165953188935
  7      -0.094024554224
  8       0.080161902924
  9      -1.008247216688
 10      -0.507772678419
 11       0.280946336867
 12       0.086378695314
 13       0.050201134451
 14      -0.013300273352
 15      -0.087459260911
 16      -0.093876507352
 17       0.166482830919
 18       0.837406941620
 19      -0.316953771067
 20       0.000181766023
 21       0.000305121180
 22      -0.001429076393
 23       0.015054919336
 24      -1.079307089236
 25      -0.014051058416
 26       0.015383631736
 27      -0.002812242407
 28       0.082470908732
 29      -0.082851028520
 30       0.014046969123
 31      -0.374719331837
 32       0.150643303019
 33       0.010991747576
 34      -0.446598535796
 35       0.057935196883
 36       0.052806756755
 37       0.026631499756
 38       0.011769658179
 39       0.007627827718
 40      -0.026259040235
 41       0.002036605367
 42       0.084516766989
 43       0.041396397236
 44      -0.072909959472
 45      -0.305446532703
 46       0.089791639109
 47      -0.001454902967
 48      -0.004128394551
 49       0.050606257124
 50      -0.083038820322
 51       0.027213865098
 52      -0.171862630284
 53      -0.107030132864
 54       0.041024088841
 55      -0.991583211433
 56      -0.479940705948
 57       0.369653594215
 58       0.080639980458
 59       0.040004283258
 60      -0.045640426561
 61      -0.214769474741
 62      -0.042332804345
 63       0.335381774722
 64       0.784036115111
 65      -0.262427316501
 66      -0.019045669631
 67      -0.067387872823
 68       0.534564642491
 69      -1.120453488379
 70       1.775813122166
 71       0.024932744264
 72       0.003011030499
 73      -0.005086727683
 74      -0.026489215683
 75      -0.010602952475
 76       0.007898728602
 77      -0.717121849024
 78      -0.182586575954
 79       0.176525241302
 80      -0.043260579522
 81      -0.041263176956
 82      -0.022601392353
 83       0.048395980442
 84       0.057141953352
 85      -0.057554321070
 86      -0.072978875613
 87       0.012520797164
 88       0.184402996360
 89       0.078049268159
 90       0.066394434768
 91       0.055089374520
 92       0.084207488422
 93       0.098542519663
 94       0.045111770036
 95      -0.706536001486
 96      -0.324887717246
 97      -0.753735941437
 98       0.064968292501
 99       0.158103091180
100       0.639725195121
101       0.230801080432
102      -0.189281846049
103      -0.640607750182
104       0.130879553118
105       0.639498712243
106       0.229405041788
107      -0.156604117563
108      -0.576592530746
109       0.325361814329
110      -0.705306892251
111      -0.325460892115
112      -0.768799169096
113       0.031366820078
114       0.058509555867
115       0.065804110147
116       0.055424565175
117       0.058026329303
118       0.045773567462
119      -0.115285230775
 Sym=     1a
 Ene= 3.50584343183130E+00
 Spin= Alpha
 Occup= 0.000000
  1      -0.002853835917
  2      -0.008179046744
  3       0.012912036573
  4       0.055212402792
  5       0.475743628954
  6       0.052530362421
  7      -0.193672488166
  8      -0.118782397388
  9       0.242281910892
 10      -0.922614375205
 11      -0.568003590874
 12       0.000814668603
 13       0.002257330767
 14       0.099494060648
 15       0.439880773319
 16      -0.060504162502
 17       0.718559926076
 18      -0.217968165055
 19      -0.338826220913
 20      -0.001323893458
 21      -0.002237776941
 22       0.011106281681
 23      -0.041940408689
 24       0.323562603159
 25       0.010521795489
 26       0.016420296939
 27      -0.007095561059
 28      -0.017076317305
 29      -0.087607234266
 30       0.031515139001
 31       0.040124986383
 32       0.166898458184
 33      -0.061312569130
 34       0.440345644310
 35       0.068466941473
 36      -0.095234485921
 37       0.004114065229
 38       0.018331789993
 39      -0.006125069064
 40      -0.042050449192
 41      -0.031002267411
 42      -0.170151393679
 43      -0.064982839723
 44      -0.109593072106
 45       0.018634703917
 46       0.019632387433
 47      -0.002852383200
 48      -0.008179251555
 49       0.012693763269
 50       0.055915380881
 51       0.478631413519
 52       0.102249374959
 53      -0.092562034089
 54       0.187311610673
 55       0.480586063792
 56      -0.439557747034
 57       0.895446623925
 58      -0.028343584058
 59      -0.056362160537
 60      -0.078210739102
 61       0.639098679968
 62       0.625489401037
 63       0.071983089949
 64       0.116829304227
 65      -0.230039968296
 66       0.018451309331
 67       0.064827241467
 68      -0.512394863058
 69       0.995478832136
 70      -1.226852803885
 71       0.026041747038
 72      -0.011964725770
 73      -0.000247981234
 74      -0.082465744637
 75       0.035855270510
 76       0.001503518452
 77       0.405443404066
 78      -0.115767138022
 79      -0.027576420745
 80      -0.010076744130
 81      -0.007936890399
 82      -0.008186862470
 83       0.002364132650
 84       0.012296941270
 85       0.065607753639
 86       0.002603183265
 87       0.016247474701
 88      -0.035833436482
 89       0.068678616162
 90      -0.764299816278
 91      -0.546149946014
 92       0.164648431126
 93      -0.576496251882
 94      -0.668851274665
 95       0.278454049214
 96      -0.024384255644
 97       0.282135044173
 98       0.054750814234
 99      -0.027058540620
100       0.431947510875
101       0.028913537338
102      -0.210931904139
103      -0.383796337882
104       0.120833220793
105       0.430907514526
106       0.027655617191
107      -0.198521545951
108      -0.360022502980
109       0.190327545341
110       0.277563359550
111      -0.025955572205
112       0.270246105747
113       0.033649419915
114      -0.091839081779
115      -0.762489688501
116      -0.544981275491
117       0.402993977550
118      -0.094263951923
119       0.794760048587
 Sym=     1a
 Ene= 3.52698511228262E+00
 Spin= Alpha
 Occup= 0.000000
  1       0.000747332031
  2       0.001761907216
  3      -0.017175107354
  4       0.006322172782
  5       0.003010137857
  6       0.187336804506
  7       0.089593567360
  8      -0.080435151916
  9       1.013332835596
 10       0.422143409137
 11      -0.380143275932
 12       0.018983970316
 13       0.005028163440
 14      -0.016103933024
 15       0.121876779713
 16       0.073363256016
 17      -0.110634340919
 18      -0.867728734559
 19       0.284357064697
 20       0.000008498129
 21       0.000021960306
 22      -0.000067545587
 23       0.000152312834
 24      -0.000670548181
 25       0.000506830802
 26       0.001181680256
 27       0.003589511068
 28      -0.003560676202
 29      -0.007503779137
 30      -0.022760750453
 31       0.007623189341
 32       0.015134156979
 33       0.045916653420
 34      -0.010217990701
 35      -0.018124863581
 36      -0.055964795673
 37      -0.015731501648
 38       0.010590006877
 39       0.018358059371
 40      -0.004639766181
 41       0.007530044049
 42      -0.040847575460
 43       0.096042378228
 44       0.014716062602
 45       0.008339083830
 46       0.036322444675
 47      -0.000732145730
 48      -0.001714395213
 49       0.016975745716
 50      -0.006601452003
 51      -0.004338562649
 52      -0.193160496789
 53      -0.101752942738
 54       0.044454583996
 55      -1.035926355676
 56      -0.468167552874
 57       0.245916293272
 58      -0.021905119149
 59      -0.011574576231
 60      -0.003445129622
 61      -0.260845373875
 62      -0.109683181333
 63       0.339463373202
 64       0.781721235783
 65      -0.248497168892
 66      -0.000055505059
 67      -0.000192190786
 68       0.001495775470
 69      -0.002586229622
 70       0.002617329535
 71       0.005617636828
 72       0.011990253643
 73       0.036515724418
 74      -0.014342812584
 75      -0.030343729329
 76      -0.092426606391
 77       0.010812178140
 78       0.023512920662
 79       0.071843976129
 80      -0.002208109863
 81       0.053639359384
 82      -0.022794345476
 83       0.015790289002
 84       0.014001066878
 85      -0.012560710352
 86      -0.052868916070
 87       0.045146606499
 88      -0.023939194065
 89      -0.009249898485
 90      -0.139073416324
 91      -0.096569410638
 92      -0.060607067305
 93      -0.150112887054
 94      -0.094861381636
 95       0.698342435021
 96       0.479275081605
 97       0.814539831463
 98      -0.057361852108
 99      -0.132621593884
100      -0.555242627692
101      -0.405081266804
102       0.174238833641
103       0.626065003245
104      -0.151054745460
105       0.555822361984
106       0.406021094498
107      -0.149668389616
108      -0.578916089810
109       0.297777401532
110      -0.699060294837
111      -0.479167492425
112      -0.820696315972
113       0.045774002770
114       0.100076712645
115       0.139528179239
116       0.096788078563
117       0.016170018036
118       0.061075587013
119      -0.177227294078
 Sym=     1a
 Ene= 3.53108899105305E+00
 Spin= Alpha
 Occup= 0.000000
  1      -0.001698995294
  2      -0.005547649169
  3      -0.005736397281
  4       0.032899697079
  5       0.950968849049
  6      -0.044782403471
  7       0.188752382278
  8       0.064892263987
  9      -0.287765915850
 10       1.047995004605
 11       0.483075418868
 12       0.057627071356
 13       0.023819119383
 14       0.274860201641
 15      -0.497555245468
 16      -0.013517706873
 17      -0.676338674044
 18       0.127710917784
 19       0.361944540844
 20       0.000013914442
 21       0.000038156720
 22      -0.000110273916
 23       0.000255245766
 24       0.001293859338
 25      -0.003533350252
 26      -0.007037909398
 27      -0.021343242587
 28       0.018843226547
 29       0.038433509875
 30       0.116645575108
 31      -0.036977963064
 32      -0.077987124432
 33      -0.236868907129
 34       0.060285876863
 35       0.121671481005
 36       0.369579190870
 37       0.003385321063
 38       0.007967068449
 39      -0.009844545140
 40       0.005371124511
 41       0.000962970259
 42      -0.008613743940
 43      -0.087457573598
 44       0.055823773162
 45      -0.032823008803
 46      -0.019070097421
 47       0.001707485239
 48       0.005570556349
 49       0.005449609714
 50      -0.032492958277
 51      -0.950417057770
 52       0.079778441933
 53      -0.119467631851
 54       0.146396003746
 55       0.514692928018
 56      -0.597140064342
 57       0.894298448991
 58       0.026483061436
 59       0.145632450843
 60       0.239818527477
 61       0.633552539885
 62       0.575097804467
 63       0.195206128746
 64       0.128926871706
 65      -0.265036815069
 66      -0.000020763725
 67      -0.000069398794
 68       0.000530481334
 69      -0.000347382150
 70      -0.001956674378
 71      -0.002712534546
 72      -0.004331242650
 73      -0.012812120296
 74       0.005267828434
 75       0.008250125491
 76       0.024228937903
 77       0.007951187777
 78       0.014252388449
 79       0.043727257531
 80       0.014830203913
 81      -0.036191712142
 82      -0.003835361119
 83      -0.004703356088
 84      -0.013688325607
 85       0.008051048083
 86      -0.031577040017
 87       0.003680250314
 88      -0.006235911862
 89      -0.010218386718
 90       0.721752693378
 91       0.352523511991
 92      -0.153858806929
 93       0.515998919155
 94       0.599801568115
 95      -0.268067986355
 96      -0.428629664753
 97      -0.354705528848
 98      -0.093820277343
 99       0.001153843616
100      -0.499274449250
101      -0.566400048867
102       0.276966594229
103       0.515414645779
104      -0.232758913563
105       0.500470967011
106       0.565900962965
107      -0.281992948364
108      -0.527077824034
109       0.201088735315
110       0.268949051196
111       0.429555910977
112       0.330786806038
113       0.043718715151
114      -0.155919697556
115      -0.723673325665
116      -0.353759877505
117       0.369002180495
118      -0.084722661176
119       0.714099098313
 Sym=     1a
 Ene= 3.59676426328340E+00
 Spin= Alpha
 Occup= 0.000000
  1      -0.007857646601
  2      -0.024591903797
  3       0.205255847688
  4      -0.336031625178
  5       0.423447413168
  6      -0.040955044618
  7       0.015929122784
  8       0.079603988704
  9      -0.005869598656
 10       0.156865369860
 11      -0.514022267975
 12       0.037775524760
 13      -0.073156299320
 14       0.139011562886
 15      -0.231607666735
 16      -0.114117088626
 17       0.034693664358
 18       0.010571014599
 19       0.063456909414
 20      -0.017259583723
 21      -0.047227199856
 22       0.139364052033
 23      -0.372789727875
 24      -0.162601231041
 25       0.055598824023
 26       0.035431909444
 27      -0.020671180551
 28       0.202480972199
 29      -0.176548586168
 30       0.024995475457
 31      -1.443405437200
 32       0.295863504373
 33       0.137699899338
 34       0.218437851995
 35      -0.027617015404
 36      -0.025656991481
 37       0.399273191633
 38       0.263842169299
 39       0.050673657944
 40      -0.650861077847
 41      -0.109090050298
 42       0.018864362464
 43       0.111643585604
 44       0.026217662059
 45      -0.108245106247
 46      -0.257294057073
 47      -0.007857877461
 48      -0.024593285448
 49       0.205487287613
 50      -0.336788445623
 51       0.420778981356
 52      -0.063367480033
 53      -0.029730424482
 54      -0.057919256253
 55       0.126430062756
 56       0.424002261123
 57       0.305423804765
 58       0.003363972001
 59      -0.142830645969
 60      -0.074005994183
 61      -0.086298679196
 62      -0.041471921350
 63      -0.219669196611
 64       0.113767059976
 65       0.035854956353
 66       0.056442131841
 67       0.195913076567
 68      -1.568687262964
 69       2.496286264780
 70      -0.530026612251
 71       0.669327502436
 72       0.053001656090
 73      -0.126258318621
 74      -1.546331479564
 75      -0.119310520175
 76       0.290663333355
 77       0.232124579720
 78       0.078946179563
 79      -0.063666752755
 80      -0.392815106474
 81      -0.277960697354
 82      -0.022703876753
 83       0.725502187738
 84       0.124071950849
 85       0.000305894875
 86       0.008164692126
 87       0.007497187415
 88       0.005773812799
 89      -0.025754771333
 90      -0.037416844462
 91      -0.146162071448
 92      -0.015296640155
 93      -0.054257718708
 94      -0.016118131978
 95      -0.004919743506
 96      -0.104263781366
 97      -0.085296551448
 98      -0.012761439595
 99       0.071535757437
100      -0.121264183069
101      -0.138170328485
102       0.035848443441
103       0.150685663820
104       0.005775045928
105      -0.119602734054
106      -0.136629361501
107       0.017396614996
108       0.113706963979
109      -0.101278282942
110      -0.005268371353
111      -0.103499388296
112      -0.100845350685
113      -0.043721918151
114      -0.022830212912
115      -0.038734976430
116      -0.146674877961
117      -0.004010448982
118      -0.033317427393
119       0.049324086643
 Sym=     1a
 Ene= 1.89507383808939E+01
 Spin= Alpha
 Occup= 0.000000
  1      -0.005152860308
  2       0.003966317449
  3      -0.026167658830
  4       0.193334413060
  5       0.559969989886
  6       0.014513747897
  7      -0.009265877185
  8       0.019166100654
  9      -0.013442340589
 10       0.007568459540
 11       0.011415378562
 12       0.138292101947
 13      -0.062725684270
 14       0.166111250306
 15      -0.013809126596
 16      -0.027883475369
 17       0.016855551959
 18      -0.002841988796
 19       0.012097004996
 20       0.548585607963
 21      -2.519768747746
 22      -3.205327042348
 23       2.185030068898
 24      -2.049813484484
 25       0.000709856452
 26      -0.003425628615
 27       0.001009358455
 28      -0.056174247691
 29       0.009173246227
 30       0.006126177767
 31       0.269860812133
 32       0.025949940833
 33      -0.052423849780
 34      -0.065656921026
 35      -0.402422843453
 36       0.142870632435
 37      -0.045243933257
 38      -0.029163345139
 39       0.003381440099
 40       0.093287530013
 41       0.001961347164
 42      -0.013980058356
 43      -0.020573268296
 44      -0.024877786981
 45      -0.014250375355
 46       0.052123899851
 47      -0.005155730104
 48       0.003969335148
 49      -0.026173468494
 50       0.193316571873
 51       0.560195747187
 52       0.009218034978
 53      -0.019967397512
 54      -0.013422382925
 55      -0.016775337656
 56       0.000814543123
 57      -0.009261296069
 58       0.090238607078
 59      -0.159971648745
 60      -0.130143318108
 61       0.001274545558
 62       0.011331416560
 63      -0.025536680042
 64       0.018139223998
 65       0.017185848634
 66      -0.011704984181
 67      -0.005102020029
 68       0.169158834070
 69      -0.291657762483
 70       0.281859566392
 71      -0.067521216462
 72      -0.005505966710
 73       0.012792081386
 74       0.234691477870
 75       0.016228286963
 76      -0.043506288833
 77      -0.056437574813
 78       0.011663535315
 79       0.005328529822
 80       0.051529396133
 81       0.035197575421
 82       0.003819506055
 83      -0.091610116106
 84      -0.014138782148
 85       0.052860112896
 86       0.039322779946
 87      -0.000912304654
 88      -0.108993138464
 89      -0.017343239634
 90      -0.014020234341
 91      -0.113924584856
 92       0.008479160621
 93      -0.011342127406
 94      -0.002970133499
 95      -0.024605388116
 96      -0.103404040723
 97      -0.015650115485
 98      -0.001116799753
 99       0.002713118364
100      -0.016227117749
101      -0.107805358882
102       0.012830152321
103       0.009591222605
104       0.003422648826
105      -0.016250262820
106      -0.107974963310
107       0.010332780157
108       0.004635983906
109      -0.011831610816
110      -0.024610775060
111      -0.103349031815
112      -0.015581291016
113      -0.001002759294
114       0.003078881921
115      -0.013992658874
116      -0.113997309001
117       0.010015205183
118      -0.008273630663
119       0.006383085222
 Sym=     1a
 Ene= 2.18608461329518E+01
 Spin= Alpha
 Occup= 0.000000
  1      -0.979797105296
  2       1.217500639896
  3      -1.095285751792
  4       0.978208671651
  5      -0.434689393153
  6      -0.010000554148
  7       0.001628872115
  8      -0.016490163899
  9       0.114908699747
 10      -0.042620075681
 11       0.205615223870
 12      -0.029148026707
 13       0.009680230473
 14      -0.027435947371
 15       0.043580623435
 16       0.048610518644
 17      -0.024247289211
 18       0.006496753594
 19      -0.014199113351
 20      -0.003498709224
 21       0.014259148656
 22       0.021450383155
 23       0.087646996883
 24      -0.276688663742
 25      -0.000161476117
 26       0.000531988529
 27      -0.000149649534
 28      -0.009593930191
 29       0.013033395322
 30      -0.002709270409
 31       0.061386067329
 32      -0.087027198469
 33       0.018551930726
 34       0.060580434114
 35      -0.187650192825
 36       0.051726332181
 37      -0.013703733794
 38      -0.004667203161
 39      -0.011620282614
 40      -0.005591064173
 41       0.002976546044
 42      -0.025666137066
 43      -0.039163277197
 44      -0.006218452783
 45       0.064410469024
 46       0.061301801222
 47      -0.980207832448
 48       1.218008954922
 49      -1.095747619467
 50       0.978682685384
 51      -0.434695742112
 52      -0.004973349891
 53       0.011815490065
 54       0.014512375863
 55       0.054666031101
 56      -0.164481000203
 57      -0.165266006849
 58      -0.020791191315
 59       0.026480021507
 60       0.023697419180
 61       0.010645669515
 62      -0.015318385584
 63       0.057540628295
 64      -0.032277117667
 65      -0.019879265600
 66      -0.000906595174
 67      -0.000016912561
 68       0.012368472788
 69      -0.063477706422
 70       0.094829722140
 71       0.004291342234
 72       0.001777163368
 73      -0.001281198360
 74      -0.007203939030
 75      -0.007845547134
 76       0.003741802262
 77      -0.021243509586
 78       0.057084047611
 79      -0.015286867661
 80      -0.000805517196
 81       0.001276702651
 82       0.001670963198
 83       0.002933637259
 84      -0.005655116731
 85       0.004844836246
 86       0.005310738600
 87      -0.001753522395
 88      -0.016052149518
 89      -0.003946902158
 90       0.024205390692
 91       0.076349466213
 92      -0.023530379972
 93       0.065685426890
 94       0.060392821691
 95       0.018946261932
 96       0.094712300273
 97       0.093102551972
 98       0.000032579503
 99      -0.021220578068
100       0.009667510032
101       0.118631556990
102      -0.035030528097
103      -0.083312504046
104       0.022931386645
105       0.009694395081
106       0.118579662202
107      -0.032012721169
108      -0.077507222090
109       0.040840436465
110       0.018928213400
111       0.094673874818
112       0.094847016241
113       0.003645552831
114      -0.010608290301
115       0.024209728864
116       0.076314972813
117      -0.046054742006
118       0.020387208747
119      -0.077359969982
 Sym=     1a
 Ene= 2.19131175284623E+01
 Spin= Alpha
 Occup= 0.000000
  1      -0.980847770657
  2       1.221418151753
  3      -1.117443409685
  4       1.062261489693
  5      -0.797660285825
  6      -0.011698719465
  7       0.002302958473
  8      -0.019364522997
  9       0.114410566124
 10      -0.055999736631
 11       0.179872268664
 12      -0.052854135480
 13      -0.066824716422
 14      -0.230113350559
 15       0.028302847486
 16       0.043712249017
 17      -0.032703160999
 18       0.006889874275
 19      -0.018673167406
 20       0.000000269256
 21      -0.000001250484
 22      -0.000001680099
 23       0.000026582661
 24       0.000059655476
 25       0.000164790357
 26       0.000330496444
 27       0.001002380402
 28      -0.004497844834
 29      -0.009066909513
 30      -0.027594386711
 31       0.024886951372
 32       0.050180490215
 33       0.152780311800
 34      -0.007656094844
 35      -0.015630079826
 36      -0.047740355146
 37      -0.006146900769
 38      -0.024033500590
 39       0.021241993110
 40      -0.011163219691
 41      -0.004067158408
 42      -0.048910381787
 43      -0.029095677984
 44       0.088787282955
 45      -0.036204145568
 46       0.007950488641
 47       0.980436059127
 48      -1.220903588278
 49       1.116963350039
 50      -1.061843675491
 51       0.797570034382
 52       0.005834301465
 53      -0.014168767470
 54      -0.016793612581
 55      -0.062847944352
 56       0.160186084828
 57       0.137628937746
 58      -0.022032757329
 59      -0.084208207111
 60      -0.229339257384
 61       0.004756503984
 62       0.017725548184
 63      -0.048009326480
 64       0.031142142673
 65       0.023680098899
 66       0.000002311552
 67       0.000000016874
 68      -0.000025169595
 69       0.000087082386
 70      -0.000152044603
 71       0.000366014132
 72       0.000734904192
 73       0.002245815701
 74      -0.001128498088
 75      -0.002242973454
 76      -0.006870222096
 77      -0.006388122898
 78      -0.013121298235
 79      -0.039851394243
 80      -0.002031042969
 81       0.009935191016
 82      -0.001826308668
 83       0.002118015015
 84       0.003085765432
 85       0.012082223780
 86       0.000992909735
 87      -0.018851382037
 88       0.006886698614
 89      -0.003447897770
 90       0.027423564887
 91       0.011762685174
 92      -0.021757987989
 93       0.063563000052
 94       0.059191643071
 95       0.016544890973
 96       0.124882798209
 97       0.085475278339
 98       0.000693591732
 99      -0.027002698786
100       0.007326070715
101       0.135649608130
102      -0.039107071129
103      -0.077873874149
104       0.010272215578
105      -0.007337708435
106      -0.135470230683
107       0.032767457757
108       0.065317284167
109      -0.048494794460
110      -0.016524577009
111      -0.125031063116
112      -0.089115276935
113      -0.008214137010
114       0.004419637553
115      -0.027395191170
116      -0.011826885695
117       0.043773129237
118      -0.019184676796
119       0.075670182987
 Sym=     1a
 Ene= 4.35597066199990E+01
 Spin= Alpha
 Occup= 0.000000
  1       0.001044937560
  2      -0.002184126512
  3       0.016246904069
  4      -0.072392326905
  5       0.154267979445
  6      -0.008114248245
  7      -0.000045546305
  8       0.007325592538
  9       0.019610234360
 10       0.002609945706
 11      -0.057819876397
 12      -0.011444489682
 13      -0.039534076447
 14       0.028587319763
 15      -0.004758543054
 16      -0.001425545764
 17       0.002963969009
 18      -0.003388250262
 19      -0.000427073213
 20      -0.010716654329
 21       0.037938969711
 22       0.068555706439
 23      -0.111822686625
 24       1.021907934283
 25       0.017002082405
 26       0.002574113114
 27      -0.003608956616
 28      -0.078214878975
 29      -0.014393048628
 30       0.017435721974
 31       0.258976690913
 32       0.035128209758
 33      -0.053631878079
 34       0.503225698902
 35       0.073620143760
 36      -0.105959410443
 37       0.029416511599
 38       0.020961027282
 39       0.005146393660
 40      -0.046769200358
 41      -0.012905070192
 42      -0.077778334014
 43      -0.052036853222
 44      -0.011555216290
 45       0.123710812851
 46       0.024311479461
 47       0.001050196757
 48      -0.002194629176
 49       0.016305139432
 50      -0.072545183901
 51       0.154235355822
 52      -0.009821328253
 53      -0.003521058786
 54      -0.003245189023
 55       0.034981049386
 56       0.033814178558
 57       0.037018984707
 58      -0.015366162774
 59      -0.047406053464
 60       0.004240720615
 61       0.000571321914
 62       0.001189295393
 63      -0.006424967094
 64       0.000372560601
 65      -0.001438126381
 66      -1.392118380265
 67       1.706327498832
 68      -1.612137474760
 69       1.908416026360
 70      -1.926987842048
 71       0.024767343990
 72       0.001044964954
 73      -0.004371017830
 74      -0.093968237308
 75      -0.002310801926
 76       0.016041695280
 77       0.681878560782
 78       0.023923253901
 79      -0.118772095568
 80      -0.005299573664
 81      -0.003509607626
 82      -0.000049613269
 83       0.010047985973
 84       0.000877319879
 85       0.082867283154
 86       0.052611651704
 87       0.001438299302
 88      -0.152630610425
 89      -0.009050555770
 90      -0.002832356716
 91      -0.075232947363
 92      -0.005499101103
 93      -0.005374394153
 94      -0.008384341081
 95       0.013929901924
 96      -0.012942938065
 97       0.004914538959
 98       0.000115366491
 99       0.002758373261
100      -0.004568402819
101      -0.035590804887
102      -0.006355231875
103       0.006576281753
104      -0.002737988294
105      -0.004520305162
106      -0.035681590583
107      -0.005906441840
108       0.007509646878
109       0.000107618555
110       0.013914965523
111      -0.012897679159
112       0.003882660102
113      -0.001971565921
114      -0.003587841057
115      -0.002858714296
116      -0.075115839988
117      -0.002316061676
118       0.001023185608
119       0.011084721981
