3
Coordinates from ORCA-job WaterGasXTB2Opt E  -5.048383990050
  O       0.000000      0.000000      0.100000
  H       0.000000      0.700000     -0.400000
  H       0.000000     -0.700000     -0.400000
3
Coordinates from ORCA-job WaterGasXTB2Opt E  -5.070305085190
  O       0.000000     -0.000000      0.130590
  H       0.000000      0.778526     -0.415295
  H       0.000000     -0.778526     -0.415295
3
Coordinates from ORCA-job WaterGasXTB2Opt E  -5.070468230860
  O       0.000000     -0.000000      0.136731
  H       0.000000      0.778038     -0.418365
  H       0.000000     -0.778038     -0.418365
3
Coordinates from ORCA-job WaterGasXTB2Opt E  -5.070539599050
  O       0.000000      0.000000      0.144497
  H       0.000000      0.774767     -0.422248
  H       0.000000     -0.774767     -0.422248
3
Coordinates from ORCA-job WaterGasXTB2Opt E  -5.070543503510
  O       0.000000      0.000000      0.145685
  H       0.000000      0.773239     -0.422842
  H       0.000000     -0.773239     -0.422842
3
Coordinates from ORCA-job WaterGasXTB2Opt E  -5.070544439080
  O       0.000000      0.000000      0.146089
  H       0.000000      0.772211     -0.423044
  H       0.000000     -0.772211     -0.423044
3
Coordinates from ORCA-job WaterGasXTB2Opt E  -5.070544447730
  O       0.000000      0.000000      0.146039
  H       0.000000      0.772186     -0.423020
  H       0.000000     -0.772186     -0.423020
