149
Coordinates from ORCA-job Apixaban_10Ethanol_XTB E -3092.238774273054
  C          27.36355833917751    -23.75819816160746      1.89924793313387
  C          26.06264498218203    -23.02065029951149      2.20020964930297
  C          26.18868708049783    -21.51527261546191      2.32693174523710
  N          27.29209701767997    -20.91702007493104      1.80460182140163
  C          28.45013823379139    -21.62646525851124      1.22239836725673
  C          28.09637697814115    -23.03376239832344      0.77700075717829
  C          27.44602539164015    -19.49483829303442      1.91867346362114
  C          27.32547903001642    -18.71924281808480      0.76999982928570
  C          27.58380353983637    -17.35623259305120      0.82526739890017
  C          27.95005710130719    -16.78281643254175      2.03718063260366
  C          28.03796790489869    -17.54719971293711      3.19550429707485
  C          27.78900583841531    -18.91236228958300      3.13501684829261
  N          28.27542328534336    -15.38695681875559      2.08593944082920
  C          27.30880448766757    -14.45943691973677      2.71479442316326
  C          27.39104027279256    -13.05390961026132      2.11230862139033
  C          28.82370569502356    -12.64945279451127      2.04977415572467
  C          29.82291291386701    -13.60423969259645      2.05349400941131
  C          29.59321913196959    -15.04611624259906      1.92898488823525
  O          25.27782469725561    -20.86697862454063      2.85262973223658
  O          30.47465170962657    -15.85614213857581      1.63700257597667
  C          29.50508118049595    -11.43438649180606      1.85807846787726
  N          30.83465098995610    -11.63097759767507      1.78559525474054
  N          31.01391454568059    -12.94461121456150      1.90113919917217
  C          32.32697255344213    -13.49666629159377      1.91611785607330
  C          28.93315174243644    -10.08157646930799      1.70951065022320
  N          29.73761746753101     -9.18326632796166      1.09091428657986
  O          27.78584171042321     -9.82476516335754      2.08866885455236
  C          33.17948513504071    -13.26797438064528      0.83957030873098
  C          34.44112160791999    -13.83493318007189      0.84456334279447
  C          34.85282379451365    -14.62886732829948      1.92251650809681
  C          33.99913822306852    -14.83210652768098      3.01084094388034
  C          32.73389418593526    -14.25835858322494      2.99955084327038
  O          36.10374988504713    -15.15285955652003      1.81911454233316
  C          36.58258958458422    -15.94545981093815      2.90152165407209
  H          27.99832511223716    -23.78353532823309      2.79543188079429
  H          27.15187663954782    -24.79862814031029      1.62943455334309
  H          25.33447905623385    -23.19104276620485      1.39496774223415
  H          25.58583392988498    -23.37055491916163      3.12086488956026
  H          28.81877786067798    -21.02500072034967      0.38304073103612
  H          29.25640549729205    -21.65431433175831      1.97145222756293
  H          27.45988508560293    -22.99348009855028     -0.11719542595130
  H          29.02039204352585    -23.55143451456854      0.49774664272365
  H          27.05125349711581    -19.19230329203748     -0.16823699222112
  H          27.52308743082790    -16.74174159516636     -0.06792471651205
  H          28.32907850026989    -17.07605814581488      4.13128129315406
  H          27.87383451939797    -19.52450709614298      4.02813245639299
  H          26.31296189373267    -14.88806061677697      2.56874043743414
  H          27.50017598130674    -14.41129186951680      3.79900585340049
  H          26.95965671324691    -13.04400932777562      1.10087349717311
  H          26.80735739331743    -12.35307633017949      2.71629983166761
  H          30.61950830329673     -9.45567726655932      0.66660603420015
  H          29.39525266191054     -8.24282626188625      0.97477759103822
  H          32.83816842220457    -12.65453288532107      0.01063373285540
  H          35.12613298305561    -13.68534677724718      0.01673509814587
  H          34.30182702056448    -15.41859981118498      3.87006284606894
  H          32.06276362516066    -14.39835614287339      3.84177778119109
  H          36.64384170970865    -15.35924346606455      3.82776914870830
  H          35.94827915176347    -16.82632125772952      3.06620498248744
  H          37.58299650098529    -16.26999028986214      2.61197609704721
  C          22.03898603586273    -21.59139451046390      5.07996172221581
  C          21.34784117638529    -20.23402015598404      5.12205772681966
  O          22.21126481035161    -19.20013116179172      5.58629439815957
  H          22.99306252111039    -19.19320716032774      5.00490690669352
  H          20.94322693298085    -19.99121901594056      4.12351402347193
  H          20.49764940750195    -20.26237429053118      5.81532138498334
  H          22.41566112875725    -21.85642258264000      6.07309448547992
  H          22.88698230309499    -21.57209978088009      4.38357662019495
  H          21.34518503291790    -22.37391054162245      4.74894263505008
  C          24.41395258401110    -16.48240403120589      6.87924569156609
  C          25.82314987888417    -16.48059392515624      6.32521791382919
  O          26.76908208113897    -15.85561448862789      7.22457647497075
  H          26.46162945110684    -14.96150142839759      7.41116400608111
  H          26.18457275293498    -17.50209326911715      6.18410586522739
  H          25.85806229509527    -15.98380429131553      5.34279165687263
  H          24.38423249607927    -16.97372162174783      7.85631060984398
  H          23.74965441301909    -17.03056181627031      6.20395962404973
  H          24.02919511128476    -15.46058550091202      6.99053242796848
  C          32.71855965534181    -10.95676127989547     -3.14216865581880
  C          32.66681348002051     -9.97801730891269     -1.98101214392814
  O          31.51786626668570    -10.17396979202500     -1.15374343361032
  H          30.73586672220432    -10.29113863644562     -1.71881355749967
  H          33.53521044058174    -10.11088170173677     -1.32504573819669
  H          32.69577285305651     -8.94298535886563     -2.35933070067149
  H          32.68025552568921    -11.99163781455163     -2.78650959666083
  H          33.64019346943221    -10.81992505938896     -3.71845653694505
  H          31.87272136743681    -10.79942043773122     -3.82149675122152
  C          27.17218074183075     -8.91502779039981     -2.11722668924210
  C          27.55698172277266    -10.35880953796341     -2.38426526403835
  O          28.78082379869553    -10.72665862867241     -1.72879673043913
  H          28.73553752803518    -10.39686953055940     -0.82124288383342
  H          26.74928377421422    -11.03601120270074     -2.06755315983604
  H          27.73115175736845    -10.52765456283849     -3.45228201081725
  H          27.00200889268163     -8.74928288834665     -1.04615979952682
  H          26.24408837909650     -8.66185696030526     -2.64081794617198
  H          27.95703928165656     -8.23205145147082     -2.45804595916543
  C          29.47790336498855     -6.81184565516916      4.18527800684961
  C          29.02222354547380     -8.12562598898683      4.80976301674736
  O          27.62789407005882     -8.35846143444993      4.64448726044642
  H          27.49967615100923     -8.70656254298644      3.74908587954140
  H          29.61051042225278     -8.96293327346211      4.39771882105087
  H          29.20859659959298     -8.10477082977150      5.89074389408225
  H          28.97075826152905     -5.95869880219314      4.64992581866983
  H          29.25331163437702     -6.79729029832015      3.11230447277702
  H          30.55987259134514     -6.68052344882315      4.30695096614948
  C          32.80766526211043    -18.33307689471856      2.39902388210854
  C          32.76247438359141    -18.36372126148746      0.88187018497630
  O          31.42324161422798    -18.26931483197062      0.38122491793166
  H          31.05461716684102    -17.42340343224375      0.69071160508497
  H          33.38353769689158    -17.55154942014966      0.46905069965865
  H          33.15910275441550    -19.31068516779365      0.49704152820683
  H          32.44687419004773    -17.36795172413406      2.76564292401653
  H          33.83512574698181    -18.47587578578234      2.75555320202388
  H          32.17907436865998    -19.12319255977065      2.82192317349756
  C          25.96125832515385    -15.11453388218158    -11.39839803043041
  C          27.08490084996525    -14.09247703879391    -11.32136807277326
  O          27.46185483332900    -13.78245462672718     -9.97676888514148
  H          27.76503884586159    -14.59604603377619     -9.55928178411422
  H          27.95739557486144    -14.43728417539514    -11.90003387565191
  H          26.76203454418967    -13.14007909220008    -11.75555071847997
  H          26.27691452782347    -16.08273496125910    -10.99153926050388
  H          25.65908851541777    -15.27569039100899    -12.43962516821867
  H          25.08993967664209    -14.77053900371799    -10.83210552589340
  C          22.99866033791677    -18.04061960181970      2.32671840714484
  C          24.25658049759309    -17.59832326167053      3.05853587759714
  O          24.59908568764031    -18.48123033753485      4.12955427510918
  H          24.96258977561860    -19.29246097398214      3.72713975545234
  H          25.10196910182787    -17.51636401558669      2.35823049028236
  H          24.10412129554256    -16.61067502554332      3.51413022955562
  H          22.77181466753820    -17.35865748965328      1.49908305876872
  H          22.14645048601356    -18.05128222114283      3.01380301112038
  H          23.13303651538505    -19.04722274705068      1.91616585023295
  C          29.22910341289909    -18.51045891366974     -2.33322841417968
  C          30.30916078098191    -19.52854296715013     -2.67312982020452
  O          31.60991760893918    -19.03651383440168     -2.39129419661129
  H          31.59729935353776    -18.72326994998461     -1.46825791741088
  H          30.11570748875856    -20.47209090406484     -2.12902772102098
  H          30.29135204276520    -19.76542007942277     -3.74439322300366
  H          29.40862114424252    -17.57352020117226     -2.86982407132678
  H          29.24699677306645    -18.30290963672739     -1.25833507394962
  H          28.23112716258711    -18.88289270065038     -2.59797027519728
  C          31.56149650172597    -16.85485409829649      5.77992113027860
  C          30.43509822680148    -16.13148689914659      6.49090040402759
  O          29.21477733804407    -16.78951178957472      6.16482084635040
  H          28.48412901887559    -16.37816621388624      6.66062621109009
  H          30.60396404920417    -16.14393689565796      7.57983172515859
  H          30.40957489675786    -15.07431313650915      6.17417642582844
  H          31.62684256552419    -17.89234986199753      6.12145925557440
  H          32.52042674998881    -16.36235040019994      5.97665562056546
  H          31.38763154284190    -16.86338306863811      4.69870593822654
