      -----------------------------------------------------------      
     |                   =====================                   |     
     |                           x T B                           |     
     |                   =====================                   |     
     |                         S. Grimme                         |     
     |          Mulliken Center for Theoretical Chemistry        |     
     |                    University of Bonn                     |     
      -----------------------------------------------------------      

   * xtb version 6.7.1pre (5071a88) compiled by 'Marcel@Raven' on 2024-07-23

   xtb is free software: you can redistribute it and/or modify it under
   the terms of the GNU Lesser General Public License as published by
   the Free Software Foundation, either version 3 of the License, or
   (at your option) any later version.
   
   xtb is distributed in the hope that it will be useful,
   but WITHOUT ANY WARRANTY; without even the implied warranty of
   MERCHANTABILITY or FITNESS FOR A PARTICULAR PURPOSE.  See the
   GNU Lesser General Public License for more details.
   
   Cite this work as:
   * C. Bannwarth, E. Caldeweyher, S. Ehlert, A. Hansen, P. Pracht,
     J. Seibert, S. Spicher, S. Grimme, WIREs Comput. Mol. Sci., 2020, 11,
     e01493. DOI: 10.1002/wcms.1493
   
   for GFN2-xTB:
   * C. Bannwarth, S. Ehlert and S. Grimme., J. Chem. Theory Comput., 2019,
     15, 1652-1671. DOI: 10.1021/acs.jctc.8b01176
   for GFN1-xTB:
   * S. Grimme, C. Bannwarth, P. Shushkov, J. Chem. Theory Comput., 2017,
     13, 1989-2009. DOI: 10.1021/acs.jctc.7b00118
   for GFN0-xTB:
   * P. Pracht, E. Caldeweyher, S. Ehlert, S. Grimme, ChemRxiv, 2019, preprint.
     DOI: 10.26434/chemrxiv.8326202.v1
   for GFN-FF:
   * S. Spicher and S. Grimme, Angew. Chem. Int. Ed., 2020, 59, 15665-15673.
     DOI: 10.1002/anie.202004239
   
   for ALPB and GBSA implicit solvation:
   * S. Ehlert, M. Stahn, S. Spicher, S. Grimme, J. Chem. Theory Comput.,
     2021, 17, 4250-4261. DOI: 10.1021/acs.jctc.1c00471
   
   for ddCOSMO and CPCM-X implicit solvation:
   * M. Stahn, S. Ehlert, S. Grimme, J. Phys. Chem. A,
     2023, XX, XXXX-XXXX. DOI: 10.1021/acs.jpca.3c04382
   
   for DFT-D4:
   * E. Caldeweyher, C. Bannwarth and S. Grimme, J. Chem. Phys., 2017,
     147, 034112. DOI: 10.1063/1.4993215
   * E. Caldeweyher, S. Ehlert, A. Hansen, H. Neugebauer, S. Spicher,
     C. Bannwarth and S. Grimme, J. Chem. Phys., 2019, 150, 154122.
     DOI: 10.1063/1.5090222
   * E. Caldeweyher, J.-M. Mewes, S. Ehlert and S. Grimme, Phys. Chem. Chem. Phys.
     2020, 22, 8499-8512. DOI: 10.1039/D0CP00502A
   
   for sTDA-xTB:
   * S. Grimme and C. Bannwarth, J. Chem. Phys., 2016, 145, 054103.
     DOI: 10.1063/1.4959605
   
   in the mass-spec context:
   * V. Asgeirsson, C. Bauer and S. Grimme, Chem. Sci., 2017, 8, 4879.
     DOI: 10.1039/c7sc00601b
   * J. Koopman and S. Grimme, ACS Omega 2019, 4, 12, 15120-15133.
     DOI: 10.1021/acsomega.9b02011
   
   for metadynamics refer to:
   * S. Grimme, J. Chem. Theory Comput., 2019, 155, 2847-2862
     DOI: 10.1021/acs.jctc.9b00143
   
   for SPH calculations refer to:
   * S. Spicher and S. Grimme, J. Chem. Theory Comput., 2021, 17, 1701-1714
     DOI: 10.1021/acs.jctc.0c01306
   
   for ONIOM refer to:
   * C. Plett, A. Katbashev, S. Ehlert, S. Grimme, M. Bursch,
     Phys. Chem. Chem. Phys., 2023, 25, 17860-17868. DOI: 10.1039/D3CP02178E
   
   for DIPRO refer to:
   * J. Kohn, N. Gildemeister, S. Grimme, D. Fazzi, A. Hansen,
     J. Chem. Phys., 2023, just accepted.
   
   for PTB refer to:
   * S. Grimme, M. Mueller, A. Hansen, J. Chem. Phys., 2023, 158, 124111.
     DOI: 10.1063/5.0137838
   
   with help from (in alphabetical order)
   P. Atkinson, C. Bannwarth, F. Bohle, G. Brandenburg, E. Caldeweyher
   M. Checinski, S. Dohm, S. Ehlert, S. Ehrlich, I. Gerasimov, C. Hölzer
   A. Katbashev, J. Kohn, J. Koopman, C. Lavigne, S. Lehtola, F. März, M. Müller,
   F. Musil, H. Neugebauer, J. Pisarek, C. Plett, P. Pracht, F. Pultar,
   J. Seibert, P. Shushkov, S. Spicher, M. Stahn, M. Steiner, T. Strunk,
   J. Stückrath, T. Rose, and J. Unsleber
   
 * started run on 2026/10/03 at 19:14:30.563     
   ID    Z sym.   atoms
    1    6 C      1, 4, 7, 10, 13, 14, 16-18, 24, 26, 27, 29-32, 35-38, 40,
                  42, 43, 45, 47, 61, 63, 64, 66-69, 72-75, 77, 79, 80, 82,
                  84, 97, 100, 103, 106, 109, 110, 112-114
    2    1 H      2, 3, 5, 6, 8, 9, 11, 12, 15, 19, 20, 23, 25, 28, 33, 34,
                  39, 41, 44, 46, 48-52, 60, 62, 65, 70, 71, 76, 78, 81, 83,
                  85-89, 98, 99, 101, 102, 104, 105, 107, 108, 111, 115, 116
    3    7 N      21, 53-56, 90-93, 117
    4    8 O      22, 57-59, 94-96, 118

           -------------------------------------------------
          |                Calculation Setup                |
           -------------------------------------------------

          program call               : C:\ORCA_6.1.1\xTB_bigstack\xtb.exe d_D3a_D6b.xyz -c 0 -u 0 -P 1 --acc 1.0 --namespace d_D3a_D6b
          calculation namespace      : d_D3a_D6b
          coordinate file            : d_D3a_D6b.xyz
          omp threads                :                     1


molecular fragmentation (1/2 indicates fragments):
111111111111111111111111111111111111111111111111111111111112222222222222
2222222222222222222222222222222222222222222222
# atoms in fragment 1/2:    59    59
 fragment masses (1/2) :      459.50      459.50
CMA distance (Bohr)    :  22.298
constraining FC (au)   :  0.0500

           -------------------------------------------------
          |                 G F N 2 - x T B                 |
           -------------------------------------------------

        Reference                      10.1021/acs.jctc.8b01176
      * Hamiltonian:
        H0-scaling (s, p, d)           1.850000    2.230000    2.230000
        zeta-weighting                 0.500000
      * Dispersion:
        s8                             2.700000
        a1                             0.520000
        a2                             5.000000
        s9                             5.000000
      * Repulsion:
        kExp                           1.500000    1.000000
        rExp                           1.000000
      * Coulomb:
        alpha                          2.000000
        third order                    shell-resolved
        anisotropic                    true
        a3                             3.000000
        a5                             4.000000
        cn-shift                       1.200000
        cn-exp                         4.000000
        max-rad                        5.000000


          ...................................................
          :                      SETUP                      :
          :.................................................:
          :  # basis functions                 322          :
          :  # atomic orbitals                 322          :
          :  # shells                          186          :
          :  # electrons                       348          :
          :  max. iterations                   250          :
          :  Hamiltonian                  GFN2-xTB          :
          :  restarted?                      false          :
          :  GBSA solvation                  false          :
          :  PC potential                    false          :
          :  electronic temp.          300.0000000     K    :
          :  accuracy                    1.0000000          :
          :  -> integral cutoff          0.2500000E+02      :
          :  -> integral neglect         0.1000000E-07      :
          :  -> SCF convergence          0.1000000E-05 Eh   :
          :  -> wf. convergence          0.1000000E-03 e    :
          :  Broyden damping             0.4000000          :
          :  net charge                          0          :
          :  unpaired electrons                  0          :
          ...................................................

 iter      E             dE          RMSdq      gap      omega  full diag
   1   -197.4411664 -0.197441E+03  0.413E+00    2.90       0.0  T
   2   -197.9705321 -0.529366E+00  0.242E+00    2.67       1.0  T
   3   -198.0213018 -0.507698E-01  0.129E+00    3.15       1.0  T
   4   -198.0280698 -0.676800E-02  0.434E-01    2.90       1.0  T
   5   -198.0430281 -0.149582E-01  0.923E-02    2.95       1.0  T
   6   -198.0432405 -0.212457E-03  0.532E-02    2.97       1.0  T
   7   -198.0434071 -0.166562E-03  0.221E-02    3.00       1.0  T
   8   -198.0434140 -0.688079E-05  0.811E-03    3.00       1.1  T
   9   -198.0434163 -0.237450E-05  0.359E-03    3.00       2.6  T
  10   -198.0434165 -0.169011E-06  0.140E-03    3.00       6.6  T
  11   -198.0434166 -0.107903E-06  0.554E-04    3.00      16.6  T
  12   -198.0434166 -0.118771E-07  0.256E-04    3.00      36.0  T

   *** convergence criteria satisfied after 12 iterations ***

         #    Occupation            Energy/Eh            Energy/eV
      -------------------------------------------------------------
         1        2.0000           -0.7250056             -19.7284
       ...           ...                  ...                  ...
       168        2.0000           -0.3894195             -10.5966
       169        2.0000           -0.3845195             -10.4633
       170        2.0000           -0.3844509             -10.4614
       171        2.0000           -0.3834306             -10.4337
       172        2.0000           -0.3834137             -10.4332
       173        2.0000           -0.3805325             -10.3548
       174        2.0000           -0.3805324             -10.3548 (HOMO)
       175                         -0.2704474              -7.3592 (LUMO)
       176                         -0.2704136              -7.3583
       177                         -0.2421284              -6.5887
       178                         -0.2421232              -6.5885
       179                         -0.2356935              -6.4135
       ...                                ...                  ...
       322                          0.8660881              23.5675
      -------------------------------------------------------------
                  HL-Gap            0.1100849 Eh            2.9956 eV
             Fermi-level           -0.3254899 Eh           -8.8570 eV

 SCC (total)                   0 d,  0 h,  0 min,  0.393 sec
 SCC setup                      ...        0 min,  0.001 sec (  0.254%)
 Dispersion                     ...        0 min,  0.002 sec (  0.509%)
 classical contributions        ...        0 min,  0.001 sec (  0.254%)
 integral evaluation            ...        0 min,  0.031 sec (  7.888%)
 iterations                     ...        0 min,  0.197 sec ( 50.127%)
 molecular gradient             ...        0 min,  0.159 sec ( 40.458%)
 printout                       ...        0 min,  0.002 sec (  0.509%)

         :::::::::::::::::::::::::::::::::::::::::::::::::::::
         ::                     SUMMARY                     ::
         :::::::::::::::::::::::::::::::::::::::::::::::::::::
         :: total energy            -193.661001837218 Eh    ::
         :: gradient norm              1.318577092829 Eh/a0 ::
         :: HOMO-LUMO gap              2.995563858469 eV    ::
         ::.................................................::
         :: SCC energy              -198.043800673250 Eh    ::
         :: -> isotropic ES            0.296504441160 Eh    ::
         :: -> anisotropic ES          0.005980906696 Eh    ::
         :: -> anisotropic XC          0.036983723605 Eh    ::
         :: -> dispersion             -0.141645527280 Eh    ::
         :: repulsion energy           4.382798836032 Eh    ::
         :: add. restraining           0.000000000000 Eh    ::
         :: total charge              -0.000000000000 e     ::
         :::::::::::::::::::::::::::::::::::::::::::::::::::::

           -------------------------------------------------
          |                Property Printout                |
           -------------------------------------------------

    * Orbital Energies and Occupations

         #    Occupation            Energy/Eh            Energy/eV
      -------------------------------------------------------------
         1        2.0000           -0.7250056             -19.7284
       ...           ...                  ...                  ...
       162        2.0000           -0.4101314             -11.1602
       163        2.0000           -0.3998783             -10.8812
       164        2.0000           -0.3998528             -10.8805
       165        2.0000           -0.3912778             -10.6472
       166        2.0000           -0.3912760             -10.6472
       167        2.0000           -0.3894204             -10.5967
       168        2.0000           -0.3894195             -10.5966
       169        2.0000           -0.3845195             -10.4633
       170        2.0000           -0.3844509             -10.4614
       171        2.0000           -0.3834306             -10.4337
       172        2.0000           -0.3834137             -10.4332
       173        2.0000           -0.3805325             -10.3548
       174        2.0000           -0.3805324             -10.3548 (HOMO)
       175                         -0.2704474              -7.3592 (LUMO)
       176                         -0.2704136              -7.3583
       177                         -0.2421284              -6.5887
       178                         -0.2421232              -6.5885
       179                         -0.2356935              -6.4135
       180                         -0.2356832              -6.4133
       181                         -0.2346451              -6.3850
       182                         -0.2346450              -6.3850
       183                         -0.2307193              -6.2782
       184                         -0.2307070              -6.2779
       185                         -0.2175671              -5.9203
       ...                                ...                  ...
       322                          0.8660881              23.5675
      -------------------------------------------------------------
                  HL-Gap            0.1100849 Eh            2.9956 eV
             Fermi-level           -0.3254899 Eh           -8.8570 eV

     #   Z          covCN         q      C6AA      α(0)
     1   6 C        3.762    -0.011    20.812     6.503
     2   1 H        0.930     0.057     2.231     2.336
     3   1 H        0.930     0.060     2.196     2.317
     4   6 C        3.827    -0.083    22.057     6.683
     5   1 H        0.930     0.055     2.255     2.348
     6   1 H        0.930     0.057     2.230     2.335
     7   6 C        3.825    -0.080    21.997     6.674
     8   1 H        0.930     0.053     2.286     2.364
     9   1 H        0.930     0.051     2.311     2.377
    10   6 C        3.826    -0.107    22.518     6.752
    11   1 H        0.930     0.074     2.039     2.233
    12   1 H        0.930     0.076     2.015     2.220
    13   6 C        2.766     0.268    22.474     7.764
    14   6 C        2.935    -0.056    29.380     8.890
    15   1 H        0.930     0.066     2.133     2.284
    16   6 C        2.930     0.070    26.440     8.433
    17   6 C        2.938    -0.042    29.044     8.839
    18   6 C        2.935    -0.056    29.403     8.893
    19   1 H        0.930     0.069     2.092     2.262
    20   1 H        0.930     0.070     2.080     2.255
    21   7 N        2.739    -0.113    23.465     7.194
    22   8 O        0.859    -0.467    23.065     6.439
    23   1 H        0.930     0.075     2.026     2.226
    24   6 C        2.936    -0.044    29.086     8.845
    25   1 H        0.930     0.072     2.065     2.247
    26   6 C        2.928     0.070    26.441     8.433
    27   6 C        3.764    -0.013    20.843     6.507
    28   1 H        0.930     0.058     2.219     2.329
    29   6 C        2.767     0.268    22.470     7.763
    30   6 C        3.096    -0.009    28.123     8.691
    31   6 C        3.070    -0.015    28.321     8.726
    32   6 C        3.821    -0.083    22.062     6.684
    33   1 H        0.930     0.078     1.999     2.211
    34   1 H        0.930     0.084     1.933     2.174
    35   6 C        3.172     0.026    27.037     8.494
    36   6 C        2.748     0.278    22.301     7.733
    37   6 C        2.920     0.046    26.960     8.515
    38   6 C        2.934    -0.044    29.087     8.845
    39   1 H        0.930     0.069     2.098     2.265
    40   6 C        2.932    -0.081    30.015     8.985
    41   1 H        0.930     0.066     2.134     2.284
    42   6 C        2.878     0.145    24.852     8.172
    43   6 C        2.936    -0.066    29.645     8.930
    44   1 H        0.930     0.080     1.979     2.200
    45   6 C        2.932    -0.046    29.135     8.852
    46   1 H        0.930     0.081     1.971     2.195
    47   6 C        3.664     0.013    20.618     6.513
    48   1 H        0.930     0.073     2.051     2.239
    49   1 H        0.930     0.059     2.206     2.322
    50   1 H        0.930     0.056     2.248     2.345
    51   1 H        0.862     0.206     1.076     1.625
    52   1 H        0.863     0.211     1.049     1.604
    53   7 N        2.745    -0.119    23.597     7.215
    54   7 N        3.019     0.088    19.714     6.595
    55   7 N        1.991    -0.242    27.119     7.723
    56   7 N        2.645    -0.284    27.324     7.763
    57   8 O        0.858    -0.444    22.577     6.371
    58   8 O        0.860    -0.448    22.666     6.383
    59   8 O        1.705    -0.280    18.639     5.829
    60   1 H        0.930     0.075     2.026     2.226
    61   6 C        2.936    -0.044    29.086     8.845
    62   1 H        0.930     0.072     2.065     2.247
    63   6 C        2.928     0.070    26.441     8.433
    64   6 C        3.764    -0.013    20.843     6.507
    65   1 H        0.930     0.058     2.219     2.329
    66   6 C        2.767     0.268    22.470     7.763
    67   6 C        3.096    -0.009    28.123     8.691
    68   6 C        3.070    -0.015    28.321     8.726
    69   6 C        3.821    -0.083    22.062     6.684
    70   1 H        0.930     0.078     1.999     2.211
    71   1 H        0.930     0.084     1.933     2.174
    72   6 C        3.172     0.026    27.037     8.494
    73   6 C        2.748     0.278    22.301     7.733
    74   6 C        2.920     0.046    26.960     8.515
    75   6 C        2.934    -0.044    29.087     8.845
    76   1 H        0.930     0.069     2.098     2.265
    77   6 C        2.932    -0.081    30.015     8.985
    78   1 H        0.930     0.066     2.134     2.284
    79   6 C        2.878     0.145    24.852     8.172
    80   6 C        2.936    -0.066    29.645     8.930
    81   1 H        0.930     0.080     1.979     2.200
    82   6 C        2.932    -0.046    29.135     8.852
    83   1 H        0.930     0.081     1.971     2.195
    84   6 C        3.664     0.013    20.618     6.513
    85   1 H        0.930     0.073     2.051     2.239
    86   1 H        0.930     0.059     2.206     2.322
    87   1 H        0.930     0.056     2.248     2.345
    88   1 H        0.862     0.206     1.076     1.625
    89   1 H        0.863     0.211     1.049     1.604
    90   7 N        2.745    -0.119    23.597     7.215
    91   7 N        3.019     0.088    19.714     6.595
    92   7 N        1.991    -0.242    27.119     7.723
    93   7 N        2.645    -0.284    27.324     7.763
    94   8 O        0.858    -0.444    22.577     6.371
    95   8 O        0.860    -0.448    22.666     6.383
    96   8 O        1.705    -0.280    18.639     5.829
    97   6 C        3.762    -0.011    20.812     6.503
    98   1 H        0.930     0.057     2.231     2.336
    99   1 H        0.930     0.060     2.196     2.317
   100   6 C        3.827    -0.083    22.057     6.683
   101   1 H        0.930     0.055     2.255     2.348
   102   1 H        0.930     0.057     2.230     2.335
   103   6 C        3.825    -0.080    21.997     6.674
   104   1 H        0.930     0.053     2.286     2.364
   105   1 H        0.930     0.051     2.311     2.377
   106   6 C        3.826    -0.107    22.518     6.752
   107   1 H        0.930     0.074     2.039     2.233
   108   1 H        0.930     0.076     2.015     2.220
   109   6 C        2.766     0.268    22.474     7.764
   110   6 C        2.935    -0.056    29.380     8.890
   111   1 H        0.930     0.066     2.133     2.284
   112   6 C        2.930     0.070    26.440     8.433
   113   6 C        2.938    -0.042    29.044     8.839
   114   6 C        2.935    -0.056    29.403     8.893
   115   1 H        0.930     0.069     2.092     2.262
   116   1 H        0.930     0.070     2.080     2.255
   117   7 N        2.739    -0.113    23.465     7.194
   118   8 O        0.859    -0.467    23.065     6.439

 Mol. C6AA /au·bohr⁶  :     167554.929421
 Mol. C8AA /au·bohr⁸  :    4001348.922803
 Mol. α(0) /au        :        634.453128


Wiberg/Mayer (AO) data.
largest (>0.10) Wiberg bond orders for each atom

 ---------------------------------------------------------------------------
     #   Z sym  total        # sym  WBO       # sym  WBO       # sym  WBO
 ---------------------------------------------------------------------------
     1   6 C    3.971 --     4 C    1.007     3 H    0.974     2 H    0.972
                            21 N    0.960
     2   1 H    0.997 --     1 C    0.972
     3   1 H    0.996 --     1 C    0.974
     4   6 C    3.992 --     1 C    1.007     7 C    1.006     5 H    0.979
                             6 H    0.971
     5   1 H    0.997 --     4 C    0.979
     6   1 H    0.996 --     4 C    0.971
     7   6 C    3.994 --     4 C    1.006    10 C    1.002     9 H    0.981
                             8 H    0.977
     8   1 H    0.997 --     7 C    0.977
     9   1 H    0.997 --     7 C    0.981
    10   6 C    3.990 --     7 C    1.002    13 C    0.976    12 H    0.964
                            11 H    0.954
    11   1 H    0.994 --    10 C    0.954
    12   1 H    0.994 --    10 C    0.964
    13   6 C    3.951 --    22 O    1.658    21 N    1.237    10 C    0.976
    14   6 C    3.994 --    18 C    1.442    16 C    1.406    15 H    0.974
                            24 C    0.109
    15   1 H    0.995 --    14 C    0.974
    16   6 C    3.968 --    14 C    1.406    17 C    1.405    21 N    0.991
    17   6 C    3.993 --    24 C    1.441    16 C    1.405    23 H    0.973
                            18 C    0.110
    18   6 C    3.993 --    14 C    1.442    26 C    1.402    19 H    0.974
                            17 C    0.110
    19   1 H    0.995 --    18 C    0.974
    20   1 H    0.995 --    27 C    0.974
    21   7 N    3.480 --    13 C    1.237    16 C    0.991     1 C    0.960
                            22 O    0.189
    22   8 O    1.968 --    13 C    1.658    21 N    0.189
    23   1 H    0.994 --    17 C    0.973
    24   6 C    3.992 --    17 C    1.441    26 C    1.404    25 H    0.973
                            14 C    0.109
    25   1 H    0.995 --    24 C    0.973
    26   6 C    3.965 --    24 C    1.404    18 C    1.402    53 N    0.996
    27   6 C    3.967 --    32 C    0.998    28 H    0.974    20 H    0.974
                            53 N    0.961
    28   1 H    0.997 --    27 C    0.974
    29   6 C    3.957 --    57 O    1.655    53 N    1.202    30 C    1.011
    30   6 C    3.952 --    31 C    1.431    54 N    1.219    29 C    1.011
                            55 N    0.135
    31   6 C    3.981 --    30 C    1.431    35 C    1.322    32 C    1.012
    32   6 C    3.989 --    31 C    1.012    27 C    0.998    34 H    0.962
                            33 H    0.960
    33   1 H    0.994 --    32 C    0.960
    34   1 H    0.992 --    32 C    0.962
    35   6 C    3.968 --    55 N    1.427    31 C    1.322    36 C    1.000
    36   6 C    3.952 --    58 O    1.660    56 N    1.252    35 C    1.000
    37   6 C    3.956 --    38 C    1.402    45 C    1.371    54 N    1.006
    38   6 C    3.992 --    40 C    1.434    37 C    1.402    39 H    0.974
                            43 C    0.108
    39   1 H    0.995 --    38 C    0.974
    40   6 C    3.990 --    38 C    1.434    42 C    1.379    41 H    0.971
    41   1 H    0.995 --    40 C    0.971
    42   6 C    3.933 --    40 C    1.379    43 C    1.344    59 O    1.071
    43   6 C    3.991 --    45 C    1.477    42 C    1.344    44 H    0.972
                            38 C    0.108
    44   1 H    0.993 --    43 C    0.972
    45   6 C    3.990 --    43 C    1.477    37 C    1.371    46 H    0.972
    46   1 H    0.993 --    45 C    0.972
    47   6 C    3.936 --    49 H    0.981    50 H    0.980    48 H    0.979
                            59 O    0.967
    48   1 H    0.994 --    47 C    0.979
    49   1 H    0.996 --    47 C    0.981
    50   1 H    0.997 --    47 C    0.980
    51   1 H    0.957 --    56 N    0.941
    52   1 H    0.955 --    56 N    0.942
    53   7 N    3.472 --    29 C    1.202    26 C    0.996    27 C    0.961
                            57 O    0.189
    54   7 N    3.690 --    30 C    1.219    55 N    1.219    37 C    1.006
    55   7 N    2.965 --    35 C    1.427    54 N    1.219    30 C    0.135
    56   7 N    3.370 --    36 C    1.252    52 H    0.942    51 H    0.941
                            58 O    0.193
    57   8 O    2.001 --    29 C    1.655    53 N    0.189
    58   8 O    1.973 --    36 C    1.660    56 N    0.193
    59   8 O    2.208 --    42 C    1.071    47 C    0.967
    60   1 H    0.994 --   113 C    0.973
    61   6 C    3.992 --   113 C    1.441    63 C    1.404    62 H    0.973
                           110 C    0.109
    62   1 H    0.995 --    61 C    0.973
    63   6 C    3.965 --    61 C    1.404   114 C    1.402    90 N    0.996
    64   6 C    3.967 --    69 C    0.998    65 H    0.974   116 H    0.974
                            90 N    0.961
    65   1 H    0.997 --    64 C    0.974
    66   6 C    3.957 --    94 O    1.655    90 N    1.202    67 C    1.011
    67   6 C    3.952 --    68 C    1.431    91 N    1.219    66 C    1.011
                            92 N    0.135
    68   6 C    3.981 --    67 C    1.431    72 C    1.322    69 C    1.012
    69   6 C    3.989 --    68 C    1.012    64 C    0.998    71 H    0.962
                            70 H    0.960
    70   1 H    0.994 --    69 C    0.960
    71   1 H    0.992 --    69 C    0.962
    72   6 C    3.968 --    92 N    1.427    68 C    1.322    73 C    1.000
    73   6 C    3.952 --    95 O    1.660    93 N    1.252    72 C    1.000
    74   6 C    3.956 --    75 C    1.402    82 C    1.371    91 N    1.006
    75   6 C    3.992 --    77 C    1.434    74 C    1.402    76 H    0.974
                            80 C    0.108
    76   1 H    0.995 --    75 C    0.974
    77   6 C    3.990 --    75 C    1.434    79 C    1.379    78 H    0.971
    78   1 H    0.995 --    77 C    0.971
    79   6 C    3.933 --    77 C    1.379    80 C    1.344    96 O    1.071
    80   6 C    3.991 --    82 C    1.477    79 C    1.344    81 H    0.972
                            75 C    0.108
    81   1 H    0.993 --    80 C    0.972
    82   6 C    3.990 --    80 C    1.477    74 C    1.371    83 H    0.972
    83   1 H    0.993 --    82 C    0.972
    84   6 C    3.936 --    86 H    0.981    87 H    0.980    85 H    0.979
                            96 O    0.967
    85   1 H    0.994 --    84 C    0.979
    86   1 H    0.996 --    84 C    0.981
    87   1 H    0.997 --    84 C    0.980
    88   1 H    0.957 --    93 N    0.941
    89   1 H    0.955 --    93 N    0.942
    90   7 N    3.472 --    66 C    1.202    63 C    0.996    64 C    0.961
                            94 O    0.189
    91   7 N    3.690 --    67 C    1.219    92 N    1.219    74 C    1.006
    92   7 N    2.965 --    72 C    1.427    91 N    1.219    67 C    0.135
    93   7 N    3.370 --    73 C    1.252    89 H    0.942    88 H    0.941
                            95 O    0.193
    94   8 O    2.001 --    66 C    1.655    90 N    0.189
    95   8 O    1.973 --    73 C    1.660    93 N    0.193
    96   8 O    2.208 --    79 C    1.071    84 C    0.967
    97   6 C    3.971 --   100 C    1.007    99 H    0.974    98 H    0.972
                           117 N    0.960
    98   1 H    0.997 --    97 C    0.972
    99   1 H    0.996 --    97 C    0.974
   100   6 C    3.992 --    97 C    1.007   103 C    1.006   101 H    0.979
                           102 H    0.971
   101   1 H    0.997 --   100 C    0.979
   102   1 H    0.996 --   100 C    0.971
   103   6 C    3.994 --   100 C    1.006   106 C    1.002   105 H    0.981
                           104 H    0.977
   104   1 H    0.997 --   103 C    0.977
   105   1 H    0.997 --   103 C    0.981
   106   6 C    3.990 --   103 C    1.002   109 C    0.976   108 H    0.964
                           107 H    0.954
   107   1 H    0.994 --   106 C    0.954
   108   1 H    0.994 --   106 C    0.964
   109   6 C    3.951 --   118 O    1.658   117 N    1.237   106 C    0.976
   110   6 C    3.994 --   114 C    1.442   112 C    1.406   111 H    0.974
                            61 C    0.109
   111   1 H    0.995 --   110 C    0.974
   112   6 C    3.968 --   110 C    1.406   113 C    1.405   117 N    0.991
   113   6 C    3.993 --    61 C    1.441   112 C    1.405    60 H    0.973
                           114 C    0.110
   114   6 C    3.993 --   110 C    1.442    63 C    1.402   115 H    0.974
                           113 C    0.110
   115   1 H    0.995 --   114 C    0.974
   116   1 H    0.995 --    64 C    0.974
   117   7 N    3.480 --   109 C    1.237   112 C    0.991    97 C    0.960
                           118 O    0.189
   118   8 O    1.968 --   109 C    1.658   117 N    0.189
 ---------------------------------------------------------------------------

Topologies differ in total number of bonds
Writing topology from bond orders to xtbtopo.mol

molecular dipole:
                 x           y           z       tot (Debye)
 q only:       -0.000      -0.000       0.000
   full:       -0.000      -0.000       0.000       0.000
molecular quadrupole (traceless):
                xx          xy          yy          xz          yz          zz
 q only:      -53.144     -16.150      16.931      33.463    -104.349      36.214
  q+dip:      -62.039     -24.096      26.737      35.354    -115.141      35.302
   full:      -58.965     -23.740      22.800      40.353    -113.822      36.165


           -------------------------------------------------
          | TOTAL ENERGY             -193.661001837218 Eh   |
          | GRADIENT NORM               1.318577092829 Eh/α |
          | HOMO-LUMO GAP               2.995563858469 eV   |
           -------------------------------------------------

------------------------------------------------------------------------
 * finished run on 2026/10/03 at 19:14:31.041     
------------------------------------------------------------------------
 total:
 * wall-time:     0 d,  0 h,  0 min,  0.476 sec
 *  cpu-time:     0 d,  0 h,  0 min,  0.438 sec
 * ratio c/w:     0.919 speedup
 SCF:
 * wall-time:     0 d,  0 h,  0 min,  0.394 sec
 *  cpu-time:     0 d,  0 h,  0 min,  0.391 sec
 * ratio c/w:     0.991 speedup

normal termination of xtb
