59
Coordinates from ORCA-job Apixaban_SMD_acetone_Opt_Freq_KeepDens E -1542.154947409652
  C          23.82088573573177    -17.58369891819330     -0.04696569169419
  C          24.21728561852767    -18.52965365531577      1.08115802461163
  C          25.51278946882612    -19.29463706835570      0.88781046629231
  N          26.42281458461530    -18.80464524622979     -0.01834080762622
  C          26.10653639551396    -17.73467268296032     -0.99462657571890
  C          25.04365769667981    -16.78615670778073     -0.47480891374260
  C          27.68032811419761    -19.45807331652248     -0.17936636280870
  C          28.50922034001221    -19.68112664976388      0.92451853203955
  C          29.74336007094407    -20.29004355955874      0.76379185459603
  C          30.18152189679133    -20.67327769994284     -0.50800435580340
  C          29.36223233214502    -20.43976949173010     -1.61178395928015
  C          28.11605860883959    -19.84216428268042     -1.44662168609505
  N          31.43751052033415    -21.32420637501111     -0.66554653062657
  C          31.52916240153270    -22.41793573844552     -1.66536368928453
  C          32.52563003741687    -23.49557881133237     -1.24969334753844
  C          33.79802530872490    -22.82922467823862     -0.86064696042767
  C          33.78350509695650    -21.53757798803257     -0.36584211287558
  C          32.57700974283841    -20.72257582729830     -0.16392102857974
  O          25.74326822018703    -20.29480367807561      1.56941276228541
  O          32.57819905595851    -19.63730131649451      0.41370542962349
  C          35.15437220955010    -23.19429416398584     -0.86486190958294
  N          35.92118737163804    -22.18677775495225     -0.40789868101339
  N          35.08331690918743    -21.19176995803315     -0.09917389668688
  C          35.62106845222698    -19.97315086993736      0.42151595425604
  C          35.74349184225263    -24.48450913165338     -1.29381356706805
  N          37.09355564397158    -24.54031534640044     -1.29615697559471
  O          35.01867423937182    -25.42604780671071     -1.62643598745088
  C          35.28579236524977    -19.55254690558676      1.70741485105027
  C          35.84649620697598    -18.39396178759106      2.21230536369183
  C          36.75139134636314    -17.65142257738032      1.43904342798465
  C          37.09299821832403    -18.08445831770631      0.15391584616665
  C          36.52111092543459    -19.25064458408491     -0.34882137423478
  O          37.24311529292508    -16.53244062724237      2.02690679990655
  C          38.18371468526646    -15.74585005942106      1.28251615336784
  H          23.44182875254190    -18.15765852595910     -0.90327912353242
  H          23.01132602697512    -16.92472742123007      0.28633662703130
  H          24.35558575379963    -17.96042816290736      2.01214035825021
  H          23.44201501955737    -19.27450840466738      1.28668023620899
  H          27.03979883630568    -17.20016992249719     -1.20215612210873
  H          25.76355087663351    -18.18658949304821     -1.93672840777500
  H          25.43610880847619    -16.21225626099622      0.37555995955360
  H          24.80024625579328    -16.07479316731528     -1.27217099639950
  H          28.18059672437088    -19.38222920593793      1.91382432100137
  H          30.37311655604212    -20.47077338727976      1.62834984222659
  H          29.68768107560642    -20.72122127817456     -2.60859084754272
  H          27.48752616473316    -19.67915974124071     -2.31668616702051
  H          30.53082299095155    -22.84939622114138     -1.76715588778767
  H          31.82481432982552    -21.99943035457285     -2.63835461788586
  H          32.13326139514613    -24.08002851596320     -0.40581923479944
  H          32.67511014809353    -24.18792726881608     -2.08190928609433
  H          37.64939301612928    -23.75730318991020     -0.98659057500719
  H          37.55350522498374    -25.40383935792511     -1.54265436133594
  H          34.59151914889569    -20.13250851536783      2.30611188505444
  H          35.60072657571221    -18.05063803976926      3.21288771936772
  H          37.79056545604166    -17.53060535893595     -0.46339095746768
  H          36.77476907620548    -19.59276453943264     -1.34815109605919
  H          37.73364176780048    -15.35832189081198      0.36027970858916
  H          38.45192776024557    -14.91211952233966      1.93368185346306
  H          39.08327530362231    -16.32629067111125      1.04346813793086
