59
Coordinates from ORCA-job Apixaban_SMD_acetone_Opt_Freq_KeepDens E -1542.154941831206
  C      23.821044    -17.585907     -0.047241
  C      24.218688    -18.528277      1.082817
  C      25.513274    -19.294877      0.889986
  N      26.422507    -18.805437     -0.017818
  C      26.104522    -17.739219     -0.997385
  C      25.042673    -16.789428     -0.478904
  C      27.679655    -19.458427     -0.178919
  C      28.509780    -19.678851      0.924598
  C      29.743965    -20.287393      0.763855
  C      30.181099    -20.672760     -0.507646
  C      29.360729    -20.441732     -1.611088
  C      28.114451    -19.844468     -1.445839
  N      31.437039    -21.322836     -0.665041
  C      31.528566    -22.416521     -1.664673
  C      32.524780    -23.493563     -1.248401
  C      33.796910    -22.827207     -0.859722
  C      33.782687    -21.534857     -0.366674
  C      32.576496    -20.718933     -0.165748
  O      25.743763    -20.294635      1.571727
  O      32.577766    -19.631975      0.408413
  C      35.153171    -23.192685     -0.863804
  N      35.920104    -22.184835     -0.407978
  N      35.082386    -21.189329     -0.100450
  C      35.620483    -19.971729      0.421051
  C      35.741642    -24.484194     -1.290846
  N      37.092035    -24.534501     -1.305913
  O      35.016908    -25.429961     -1.610269
  C      35.284538    -19.552001      1.706902
  C      35.845753    -18.394364      2.213057
  C      36.751992    -17.651809      1.441178
  C      37.094401    -18.084398      0.156017
  C      36.521760    -19.249536     -0.348011
  O      37.244089    -16.533984      2.029670
  C      38.188974    -15.751187      1.285994
  H      23.441072    -18.162321     -0.901466
  H      23.011694    -16.926204      0.285016
  H      24.358694    -17.956069      2.011659
  H      23.442881    -19.271541      1.291820
  H      27.037237    -17.205254     -1.208620
  H      25.759886    -18.194094     -1.937395
  H      25.436130    -16.212980      0.369257
  H      24.797894    -16.080343     -1.277791
  H      28.182315    -19.377150      1.913398
  H      30.374435    -20.466801      1.628125
  H      29.685504    -20.724758     -2.607642
  H      27.485013    -19.683164     -2.315557
  H      30.530407    -22.848238     -1.766587
  H      31.824246    -21.998497     -2.637770
  H      32.132517    -24.077881     -0.404450
  H      32.674082    -24.186525     -2.080044
  H      37.647574    -23.748140     -1.004438
  H      37.554019    -25.398084     -1.547962
  H      34.590460    -20.132589      2.305159
  H      35.599540    -18.052424      3.213952
  H      37.792926    -17.531065     -0.460577
  H      36.775681    -19.590662     -1.347599
  H      37.742389    -15.362351      0.362723
  H      38.459713    -14.917571      1.936245
  H      39.087056    -16.334485      1.048654
59
Coordinates from ORCA-job Apixaban_SMD_acetone_Opt_Freq_KeepDens E -1542.154945341503
  C      23.821406    -17.584085     -0.045164
  C      24.219499    -18.527952      1.083826
  C      25.513847    -19.294553      0.889179
  N      26.422929    -18.804876     -0.018451
  C      26.104986    -17.737117     -0.996535
  C      25.043308    -16.787479     -0.476717
  C      27.680236    -19.458161     -0.179959
  C      28.509884    -19.680100      0.923622
  C      29.743927    -20.289049      0.762740
  C      30.181332    -20.673629     -0.508931
  C      29.361307    -20.441291     -1.612431
  C      28.115187    -19.843633     -1.447069
  N      31.437392    -21.324130     -0.666388
  C      31.529270    -22.417957     -1.666034
  C      32.525578    -23.495274     -1.249724
  C      33.797682    -22.828874     -0.860339
  C      33.783182    -21.536741     -0.366758
  C      32.576874    -20.721024     -0.166141
  O      25.745334    -20.293816      1.571444
  O      32.577914    -19.635030      0.409912
  C      35.153958    -23.194266     -0.863547
  N      35.920691    -22.186536     -0.406966
  N      35.082833    -21.190902     -0.100119
  C      35.620452    -19.972560      0.420894
  C      35.742804    -24.485459     -1.290599
  N      37.093090    -24.537383     -1.301803
  O      35.018123    -25.429715     -1.615008
  C      35.283076    -19.551369      1.705975
  C      35.843470    -18.392939      2.211473
  C      36.750275    -17.650969      1.439764
  C      37.093931    -18.084814      0.155311
  C      36.522167    -19.250758     -0.348074
  O      37.241243    -16.532099      2.028102
  C      38.185694    -15.747704      1.285919
  H      23.440701    -18.159491     -0.899790
  H      23.012462    -16.924442      0.288327
  H      24.360280    -17.956831      2.013286
  H      23.443770    -19.271451      1.292540
  H      27.037873    -17.203184     -1.207185
  H      25.760064    -18.190838     -1.937053
  H      25.437293    -16.211928      0.371837
  H      24.798421    -16.077553     -1.274914
  H      28.181978    -19.379735      1.912740
  H      30.374181    -20.469135      1.627075
  H      29.686215    -20.723603     -2.609149
  H      27.486045    -19.681573     -2.316857
  H      30.531068    -22.849605     -1.768125
  H      31.825137    -21.999748     -2.639078
  H      32.132980    -24.079736     -0.405959
  H      32.675278    -24.188024     -2.081600
  H      37.648656    -23.752092     -0.997543
  H      37.554514    -25.401010     -1.545204
  H      34.587827    -20.131039      2.303852
  H      35.595929    -18.049594      3.211609
  H      37.792846    -17.531875     -0.461169
  H      36.777279    -19.593039     -1.346975
  H      37.739373    -15.359460      0.362210
  H      38.454061    -14.913979      1.937048
  H      39.084888    -16.329796      1.049680
59
Coordinates from ORCA-job Apixaban_SMD_acetone_Opt_Freq_KeepDens E -1542.154946635365
  C      23.820768    -17.583943     -0.046455
  C      24.217687    -18.529356      1.081901
  C      25.513200    -19.294328      0.888467
  N      26.422989    -18.804205     -0.018028
  C      26.106018    -17.734913     -0.994847
  C      25.043193    -16.786292     -0.475104
  C      27.680429    -19.457722     -0.179396
  C      28.509561    -19.680727      0.924353
  C      29.743606    -20.289785      0.763484
  C      30.181473    -20.673432     -0.508311
  C      29.361940    -20.440018     -1.611963
  C      28.115860    -19.842233     -1.446651
  N      31.437484    -21.324397     -0.665819
  C      31.529249    -22.418234     -1.665548
  C      32.525683    -23.495819     -1.249629
  C      33.797994    -22.829434     -0.860446
  C      33.783504    -21.537584     -0.366154
  C      32.577067    -20.722339     -0.164643
  O      25.743423    -20.295206      1.568980
  O      32.578311    -19.636664      0.412127
  C      35.154316    -23.194597     -0.864291
  N      35.921149    -22.186962     -0.407608
  N      35.083296    -21.191650     -0.099696
  C      35.620990    -19.973009      0.421023
  C      35.743318    -24.485166     -1.292574
  N      37.093467    -24.539449     -1.298600
  O      35.018507    -25.428045     -1.621138
  C      35.284632    -19.551832      1.706445
  C      35.845151    -18.393190      2.211446
  C      36.750993    -17.651052      1.438864
  C      37.093625    -18.084722      0.154143
  C      36.521859    -19.250928     -0.348728
  O      37.242262    -16.531947      2.026940
  C      38.184673    -15.746106      1.284011
  H      23.441527    -18.158313     -0.902434
  H      23.011124    -16.925041      0.286831
  H      24.356329    -17.959665      2.012559
  H      23.442418    -19.274064      1.288104
  H      27.039082    -17.200408     -1.203254
  H      25.762610    -18.187412     -1.936532
  H      25.435828    -16.211894      0.374859
  H      24.799300    -16.075295     -1.272675
  H      28.181172    -19.381528      1.913663
  H      30.373531    -20.470461      1.627946
  H      29.687156    -20.721654     -2.608787
  H      27.487136    -19.679388     -2.316603
  H      30.530944    -22.849739     -1.767453
  H      31.824979    -21.999842     -2.638586
  H      32.133217    -24.080286     -0.405789
  H      32.675242    -24.188358     -2.081729
  H      37.649214    -23.755497     -0.991233
  H      37.553981    -25.403233     -1.543272
  H      34.589680    -20.131420      2.304747
  H      35.598398    -18.049580      3.211703
  H      37.791877    -17.531423     -0.462834
  H      36.776344    -19.593357     -1.347744
  H      37.736439    -15.358127      0.361070
  H      38.452620    -14.912519      1.935492
  H      39.084177    -16.327215      1.046399
59
Coordinates from ORCA-job Apixaban_SMD_acetone_Opt_Freq_KeepDens E -1542.154947409652
  C      23.820886    -17.583699     -0.046966
  C      24.217286    -18.529654      1.081158
  C      25.512789    -19.294637      0.887810
  N      26.422815    -18.804645     -0.018341
  C      26.106536    -17.734673     -0.994627
  C      25.043658    -16.786157     -0.474809
  C      27.680328    -19.458073     -0.179366
  C      28.509220    -19.681127      0.924519
  C      29.743360    -20.290044      0.763792
  C      30.181522    -20.673278     -0.508004
  C      29.362232    -20.439769     -1.611784
  C      28.116059    -19.842164     -1.446622
  N      31.437511    -21.324206     -0.665547
  C      31.529162    -22.417936     -1.665364
  C      32.525630    -23.495579     -1.249693
  C      33.798025    -22.829225     -0.860647
  C      33.783505    -21.537578     -0.365842
  C      32.577010    -20.722576     -0.163921
  O      25.743268    -20.294804      1.569413
  O      32.578199    -19.637301      0.413705
  C      35.154372    -23.194294     -0.864862
  N      35.921187    -22.186778     -0.407899
  N      35.083317    -21.191770     -0.099174
  C      35.621068    -19.973151      0.421516
  C      35.743492    -24.484509     -1.293814
  N      37.093556    -24.540315     -1.296157
  O      35.018674    -25.426048     -1.626436
  C      35.285792    -19.552547      1.707415
  C      35.846496    -18.393962      2.212305
  C      36.751391    -17.651423      1.439043
  C      37.092998    -18.084458      0.153916
  C      36.521111    -19.250645     -0.348821
  O      37.243115    -16.532441      2.026907
  C      38.183715    -15.745850      1.282516
  H      23.441829    -18.157659     -0.903279
  H      23.011326    -16.924727      0.286337
  H      24.355586    -17.960428      2.012140
  H      23.442015    -19.274508      1.286680
  H      27.039799    -17.200170     -1.202156
  H      25.763551    -18.186589     -1.936728
  H      25.436109    -16.212256      0.375560
  H      24.800246    -16.074793     -1.272171
  H      28.180597    -19.382229      1.913824
  H      30.373117    -20.470773      1.628350
  H      29.687681    -20.721221     -2.608591
  H      27.487526    -19.679160     -2.316686
  H      30.530823    -22.849396     -1.767156
  H      31.824814    -21.999430     -2.638355
  H      32.133261    -24.080029     -0.405819
  H      32.675110    -24.187927     -2.081909
  H      37.649393    -23.757303     -0.986591
  H      37.553505    -25.403839     -1.542654
  H      34.591519    -20.132509      2.306112
  H      35.600727    -18.050638      3.212888
  H      37.790565    -17.530605     -0.463391
  H      36.774769    -19.592765     -1.348151
  H      37.733642    -15.358322      0.360280
  H      38.451928    -14.912120      1.933682
  H      39.083275    -16.326291      1.043468
