      -----------------------------------------------------------      
     |                   =====================                   |     
     |                           x T B                           |     
     |                   =====================                   |     
     |                         S. Grimme                         |     
     |          Mulliken Center for Theoretical Chemistry        |     
     |                    University of Bonn                     |     
      -----------------------------------------------------------      

   * xtb version 6.7.1pre (5071a88) compiled by 'Marcel@Raven' on 2024-07-23

   xtb is free software: you can redistribute it and/or modify it under
   the terms of the GNU Lesser General Public License as published by
   the Free Software Foundation, either version 3 of the License, or
   (at your option) any later version.
   
   xtb is distributed in the hope that it will be useful,
   but WITHOUT ANY WARRANTY; without even the implied warranty of
   MERCHANTABILITY or FITNESS FOR A PARTICULAR PURPOSE.  See the
   GNU Lesser General Public License for more details.
   
   Cite this work as:
   * C. Bannwarth, E. Caldeweyher, S. Ehlert, A. Hansen, P. Pracht,
     J. Seibert, S. Spicher, S. Grimme, WIREs Comput. Mol. Sci., 2020, 11,
     e01493. DOI: 10.1002/wcms.1493
   
   for GFN2-xTB:
   * C. Bannwarth, S. Ehlert and S. Grimme., J. Chem. Theory Comput., 2019,
     15, 1652-1671. DOI: 10.1021/acs.jctc.8b01176
   for GFN1-xTB:
   * S. Grimme, C. Bannwarth, P. Shushkov, J. Chem. Theory Comput., 2017,
     13, 1989-2009. DOI: 10.1021/acs.jctc.7b00118
   for GFN0-xTB:
   * P. Pracht, E. Caldeweyher, S. Ehlert, S. Grimme, ChemRxiv, 2019, preprint.
     DOI: 10.26434/chemrxiv.8326202.v1
   for GFN-FF:
   * S. Spicher and S. Grimme, Angew. Chem. Int. Ed., 2020, 59, 15665-15673.
     DOI: 10.1002/anie.202004239
   
   for ALPB and GBSA implicit solvation:
   * S. Ehlert, M. Stahn, S. Spicher, S. Grimme, J. Chem. Theory Comput.,
     2021, 17, 4250-4261. DOI: 10.1021/acs.jctc.1c00471
   
   for ddCOSMO and CPCM-X implicit solvation:
   * M. Stahn, S. Ehlert, S. Grimme, J. Phys. Chem. A,
     2023, XX, XXXX-XXXX. DOI: 10.1021/acs.jpca.3c04382
   
   for DFT-D4:
   * E. Caldeweyher, C. Bannwarth and S. Grimme, J. Chem. Phys., 2017,
     147, 034112. DOI: 10.1063/1.4993215
   * E. Caldeweyher, S. Ehlert, A. Hansen, H. Neugebauer, S. Spicher,
     C. Bannwarth and S. Grimme, J. Chem. Phys., 2019, 150, 154122.
     DOI: 10.1063/1.5090222
   * E. Caldeweyher, J.-M. Mewes, S. Ehlert and S. Grimme, Phys. Chem. Chem. Phys.
     2020, 22, 8499-8512. DOI: 10.1039/D0CP00502A
   
   for sTDA-xTB:
   * S. Grimme and C. Bannwarth, J. Chem. Phys., 2016, 145, 054103.
     DOI: 10.1063/1.4959605
   
   in the mass-spec context:
   * V. Asgeirsson, C. Bauer and S. Grimme, Chem. Sci., 2017, 8, 4879.
     DOI: 10.1039/c7sc00601b
   * J. Koopman and S. Grimme, ACS Omega 2019, 4, 12, 15120-15133.
     DOI: 10.1021/acsomega.9b02011
   
   for metadynamics refer to:
   * S. Grimme, J. Chem. Theory Comput., 2019, 155, 2847-2862
     DOI: 10.1021/acs.jctc.9b00143
   
   for SPH calculations refer to:
   * S. Spicher and S. Grimme, J. Chem. Theory Comput., 2021, 17, 1701-1714
     DOI: 10.1021/acs.jctc.0c01306
   
   for ONIOM refer to:
   * C. Plett, A. Katbashev, S. Ehlert, S. Grimme, M. Bursch,
     Phys. Chem. Chem. Phys., 2023, 25, 17860-17868. DOI: 10.1039/D3CP02178E
   
   for DIPRO refer to:
   * J. Kohn, N. Gildemeister, S. Grimme, D. Fazzi, A. Hansen,
     J. Chem. Phys., 2023, just accepted.
   
   for PTB refer to:
   * S. Grimme, M. Mueller, A. Hansen, J. Chem. Phys., 2023, 158, 124111.
     DOI: 10.1063/5.0137838
   
   with help from (in alphabetical order)
   P. Atkinson, C. Bannwarth, F. Bohle, G. Brandenburg, E. Caldeweyher
   M. Checinski, S. Dohm, S. Ehlert, S. Ehrlich, I. Gerasimov, C. Hölzer
   A. Katbashev, J. Kohn, J. Koopman, C. Lavigne, S. Lehtola, F. März, M. Müller,
   F. Musil, H. Neugebauer, J. Pisarek, C. Plett, P. Pracht, F. Pultar,
   J. Seibert, P. Shushkov, S. Spicher, M. Stahn, M. Steiner, T. Strunk,
   J. Stückrath, T. Rose, and J. Unsleber
   
 * started run on 2026/10/03 at 19:14:13.103     
   ID    Z sym.   atoms
    1    1 H      1, 3, 6, 11, 12, 17, 19, 22, 24, 26-30, 39, 40, 42, 43, 45,
                  46, 48, 49, 52, 56, 57, 61, 62, 64, 65, 67, 68, 70, 71, 74,
                  78, 79, 82, 84, 87, 92, 93, 98, 100, 103, 105, 107-111,
                  120, 121, 125, 127-129, 132, 134, 135, 140, 141, 146,
                  149-151, 159, 160, 162, 163, 165, 166, 169, 172, 174, 176
    2    6 C      2, 4, 5, 7-10, 13-16, 18, 20, 21, 23, 25, 38, 41, 44, 47,
                  50, 51, 53-55, 60, 63, 66, 69, 72, 73, 75-77, 83, 85, 86,
                  88-91, 94-97, 99, 101, 102, 104, 106, 119, 123, 124, 126,
                  131, 133, 136-139, 142-145, 147, 148, 158, 161, 164, 167,
                  168, 170, 171, 173, 175
    3    7 N      31-34, 58, 80, 112-115, 152-155, 177
    4    8 O      35-37, 59, 81, 116-118, 122, 130, 156, 157

           -------------------------------------------------
          |                Calculation Setup                |
           -------------------------------------------------

          program call               : C:\ORCA_6.1.1\xTB_bigstack\xtb.exe t_A_D3a_D1a.xyz -c 0 -u 0 -P 1 --acc 1.0 --namespace t_A_D3a_D1a
          calculation namespace      : t_A_D3a_D1a
          coordinate file            : t_A_D3a_D1a.xyz
          omp threads                :                     1


molecular fragmentation (1/2 indicates fragments):
111111111111111111111111111111111111111111111111111111111112222222222222
222222222222222222222222222222222222222222222222222222222222222222222222
222222222222222222222222222222222
# atoms in fragment 1/2:    59   118
 fragment masses (1/2) :      459.50      919.00
CMA distance (Bohr)    :   8.259
constraining FC (au)   :  0.0500

           -------------------------------------------------
          |                 G F N 2 - x T B                 |
           -------------------------------------------------

        Reference                      10.1021/acs.jctc.8b01176
      * Hamiltonian:
        H0-scaling (s, p, d)           1.850000    2.230000    2.230000
        zeta-weighting                 0.500000
      * Dispersion:
        s8                             2.700000
        a1                             0.520000
        a2                             5.000000
        s9                             5.000000
      * Repulsion:
        kExp                           1.500000    1.000000
        rExp                           1.000000
      * Coulomb:
        alpha                          2.000000
        third order                    shell-resolved
        anisotropic                    true
        a3                             3.000000
        a5                             4.000000
        cn-shift                       1.200000
        cn-exp                         4.000000
        max-rad                        5.000000


          ...................................................
          :                      SETUP                      :
          :.................................................:
          :  # basis functions                 483          :
          :  # atomic orbitals                 483          :
          :  # shells                          279          :
          :  # electrons                       522          :
          :  max. iterations                   250          :
          :  Hamiltonian                  GFN2-xTB          :
          :  restarted?                      false          :
          :  GBSA solvation                  false          :
          :  PC potential                    false          :
          :  electronic temp.          300.0000000     K    :
          :  accuracy                    1.0000000          :
          :  -> integral cutoff          0.2500000E+02      :
          :  -> integral neglect         0.1000000E-07      :
          :  -> SCF convergence          0.1000000E-05 Eh   :
          :  -> wf. convergence          0.1000000E-03 e    :
          :  Broyden damping             0.4000000          :
          :  net charge                          0          :
          :  unpaired electrons                  0          :
          ...................................................

 iter      E             dE          RMSdq      gap      omega  full diag
   1   -296.2306009 -0.296231E+03  0.412E+00    2.83       0.0  T
   2   -297.0092277 -0.778627E+00  0.243E+00    2.28       1.0  T
   3   -297.0854487 -0.762210E-01  0.130E+00    2.82       1.0  T
   4   -297.0974934 -0.120447E-01  0.435E-01    2.58       1.0  T
   5   -297.1197302 -0.222368E-01  0.925E-02    2.64       1.0  T
   6   -297.1200450 -0.314779E-03  0.526E-02    2.64       1.0  T
   7   -297.1202754 -0.230416E-03  0.222E-02    2.65       1.0  T
   8   -297.1202865 -0.111384E-04  0.854E-03    2.64       1.0  T
   9   -297.1202916 -0.507422E-05  0.381E-03    2.65       2.0  T
  10   -297.1202920 -0.449093E-06  0.160E-03    2.65       4.7  T
  11   -297.1202923 -0.231926E-06  0.544E-04    2.65      13.8  T
  12   -297.1202923 -0.136056E-07  0.260E-04    2.65      28.9  T

   *** convergence criteria satisfied after 12 iterations ***

         #    Occupation            Energy/Eh            Energy/eV
      -------------------------------------------------------------
         1        2.0000           -0.7225376             -19.6612
       ...           ...                  ...                  ...
       255        2.0000           -0.3806652             -10.3584
       256        2.0000           -0.3798723             -10.3369
       257        2.0000           -0.3734854             -10.1631
       258        2.0000           -0.3730894             -10.1523
       259        2.0000           -0.3724329             -10.1344
       260        2.0000           -0.3713390             -10.1046
       261        2.0000           -0.3671023              -9.9894 (HOMO)
       262                         -0.2698938              -7.3442 (LUMO)
       263                         -0.2584531              -7.0329
       264                         -0.2543443              -6.9211
       265                         -0.2451419              -6.6706
       266                         -0.2423706              -6.5952
       ...                                ...                  ...
       483                          0.8867191              24.1289
      -------------------------------------------------------------
                  HL-Gap            0.0972085 Eh            2.6452 eV
             Fermi-level           -0.3184981 Eh           -8.6668 eV

 SCC (total)                   0 d,  0 h,  0 min,  0.966 sec
 SCC setup                      ...        0 min,  0.003 sec (  0.311%)
 Dispersion                     ...        0 min,  0.006 sec (  0.621%)
 classical contributions        ...        0 min,  0.001 sec (  0.104%)
 integral evaluation            ...        0 min,  0.067 sec (  6.936%)
 iterations                     ...        0 min,  0.539 sec ( 55.797%)
 molecular gradient             ...        0 min,  0.345 sec ( 35.714%)
 printout                       ...        0 min,  0.005 sec (  0.518%)

         :::::::::::::::::::::::::::::::::::::::::::::::::::::
         ::                     SUMMARY                     ::
         :::::::::::::::::::::::::::::::::::::::::::::::::::::
         :: total energy            -290.539152331431 Eh    ::
         :: gradient norm              1.615263609323 Eh/a0 ::
         :: HOMO-LUMO gap              2.645178883597 eV    ::
         ::.................................................::
         :: SCC energy              -297.113367343043 Eh    ::
         :: -> isotropic ES            0.444435416250 Eh    ::
         :: -> anisotropic ES         -0.000974154081 Eh    ::
         :: -> anisotropic XC          0.055328817202 Eh    ::
         :: -> dispersion             -0.245609160382 Eh    ::
         :: repulsion energy           6.574215011611 Eh    ::
         :: add. restraining           0.000000000000 Eh    ::
         :: total charge               0.000000000000 e     ::
         :::::::::::::::::::::::::::::::::::::::::::::::::::::

           -------------------------------------------------
          |                Property Printout                |
           -------------------------------------------------

    * Orbital Energies and Occupations

         #    Occupation            Energy/Eh            Energy/eV
      -------------------------------------------------------------
         1        2.0000           -0.7225376             -19.6612
       ...           ...                  ...                  ...
       249        2.0000           -0.3876891             -10.5496
       250        2.0000           -0.3865606             -10.5189
       251        2.0000           -0.3857617             -10.4971
       252        2.0000           -0.3854782             -10.4894
       253        2.0000           -0.3846925             -10.4680
       254        2.0000           -0.3820710             -10.3967
       255        2.0000           -0.3806652             -10.3584
       256        2.0000           -0.3798723             -10.3369
       257        2.0000           -0.3734854             -10.1631
       258        2.0000           -0.3730894             -10.1523
       259        2.0000           -0.3724329             -10.1344
       260        2.0000           -0.3713390             -10.1046
       261        2.0000           -0.3671023              -9.9894 (HOMO)
       262                         -0.2698938              -7.3442 (LUMO)
       263                         -0.2584531              -7.0329
       264                         -0.2543443              -6.9211
       265                         -0.2451419              -6.6706
       266                         -0.2423706              -6.5952
       267                         -0.2342944              -6.3755
       268                         -0.2327095              -6.3323
       269                         -0.2324712              -6.3259
       270                         -0.2289172              -6.2292
       271                         -0.2250616              -6.1242
       272                         -0.2239791              -6.0948
       ...                                ...                  ...
       483                          0.8867191              24.1289
      -------------------------------------------------------------
                  HL-Gap            0.0972085 Eh            2.6452 eV
             Fermi-level           -0.3184981 Eh           -8.6668 eV

     #   Z          covCN         q      C6AA      α(0)
     1   1 H        0.930     0.070     2.089     2.260
     2   6 C        2.936    -0.040    29.003     8.832
     3   1 H        0.930     0.095     1.834     2.118
     4   6 C        2.928     0.074    26.354     8.419
     5   6 C        3.764    -0.010    20.794     6.500
     6   1 H        0.930     0.057     2.228     2.334
     7   6 C        2.767     0.277    22.322     7.738
     8   6 C        3.096    -0.002    27.961     8.666
     9   6 C        3.070    -0.019    28.418     8.741
    10   6 C        3.821    -0.082    22.052     6.683
    11   1 H        0.930     0.075     2.032     2.229
    12   1 H        0.930     0.080     1.979     2.200
    13   6 C        3.172     0.023    27.108     8.505
    14   6 C        2.748     0.275    22.347     7.741
    15   6 C        2.920     0.040    27.093     8.536
    16   6 C        2.934    -0.045    29.113     8.849
    17   1 H        0.930     0.092     1.860     2.132
    18   6 C        2.932    -0.072    29.794     8.952
    19   1 H        0.930     0.077     2.009     2.216
    20   6 C        2.878     0.147    24.814     8.166
    21   6 C        2.936    -0.073    29.808     8.954
    22   1 H        0.930     0.072     2.067     2.248
    23   6 C        2.932    -0.053    29.327     8.881
    24   1 H        0.930     0.074     2.042     2.235
    25   6 C        3.664     0.011    20.658     6.519
    26   1 H        0.930     0.065     2.143     2.289
    27   1 H        0.930     0.057     2.230     2.335
    28   1 H        0.930     0.071     2.077     2.254
    29   1 H        0.862     0.227     0.978     1.549
    30   1 H        0.863     0.203     1.089     1.634
    31   7 N        2.745    -0.115    23.511     7.202
    32   7 N        3.019     0.088    19.707     6.593
    33   7 N        1.991    -0.256    27.455     7.771
    34   7 N        2.645    -0.287    27.412     7.776
    35   8 O        0.858    -0.437    22.442     6.351
    36   8 O        0.860    -0.454    22.791     6.401
    37   8 O        1.705    -0.285    18.736     5.844
    38   6 C        3.762    -0.011    20.817     6.504
    39   1 H        0.930     0.058     2.218     2.329
    40   1 H        0.930     0.062     2.173     2.305
    41   6 C        3.827    -0.083    22.064     6.684
    42   1 H        0.930     0.055     2.252     2.347
    43   1 H        0.930     0.058     2.223     2.331
    44   6 C        3.825    -0.079    21.990     6.673
    45   1 H        0.930     0.053     2.286     2.364
    46   1 H        0.930     0.051     2.311     2.377
    47   6 C        3.826    -0.103    22.450     6.742
    48   1 H        0.930     0.069     2.091     2.261
    49   1 H        0.930     0.073     2.051     2.239
    50   6 C        2.766     0.267    22.491     7.767
    51   6 C        2.935    -0.059    29.463     8.902
    52   1 H        0.930     0.062     2.176     2.306
    53   6 C        2.930     0.065    26.546     8.450
    54   6 C        2.938    -0.044    29.091     8.846
    55   6 C        2.935    -0.058    29.451     8.900
    56   1 H        0.930     0.068     2.111     2.272
    57   1 H        0.930     0.065     2.142     2.288
    58   7 N        2.739    -0.111    23.428     7.189
    59   8 O        0.859    -0.482    23.392     6.485
    60   6 C        3.762    -0.011    20.823     6.505
    61   1 H        0.930     0.060     2.203     2.321
    62   1 H        0.930     0.062     2.178     2.308
    63   6 C        3.827    -0.083    22.057     6.683
    64   1 H        0.930     0.055     2.263     2.352
    65   1 H        0.930     0.058     2.225     2.332
    66   6 C        3.825    -0.078    21.962     6.669
    67   1 H        0.930     0.048     2.344     2.394
    68   1 H        0.930     0.052     2.296     2.370
    69   6 C        3.826    -0.104    22.458     6.743
    70   1 H        0.930     0.068     2.103     2.268
    71   1 H        0.930     0.074     2.047     2.237
    72   6 C        2.766     0.268    22.479     7.765
    73   6 C        2.935    -0.058    29.440     8.899
    74   1 H        0.930     0.064     2.153     2.294
    75   6 C        2.930     0.065    26.534     8.448
    76   6 C        2.938    -0.044    29.097     8.847
    77   6 C        2.935    -0.058    29.441     8.899
    78   1 H        0.930     0.068     2.107     2.270
    79   1 H        0.930     0.067     2.123     2.279
    80   7 N        2.739    -0.111    23.418     7.187
    81   8 O        0.859    -0.479    23.323     6.475
    82   1 H        0.930     0.069     2.091     2.261
    83   6 C        2.936    -0.041    29.008     8.833
    84   1 H        0.930     0.094     1.844     2.123
    85   6 C        2.928     0.073    26.362     8.420
    86   6 C        3.764    -0.010    20.798     6.500
    87   1 H        0.930     0.058     2.216     2.328
    88   6 C        2.767     0.277    22.321     7.737
    89   6 C        3.096    -0.001    27.942     8.663
    90   6 C        3.070    -0.018    28.392     8.737
    91   6 C        3.821    -0.082    22.055     6.683
    92   1 H        0.930     0.075     2.028     2.227
    93   1 H        0.930     0.080     1.973     2.197
    94   6 C        3.172     0.023    27.117     8.506
    95   6 C        2.748     0.277    22.318     7.736
    96   6 C        2.920     0.045    26.995     8.520
    97   6 C        2.934    -0.043    29.067     8.842
    98   1 H        0.930     0.091     1.864     2.135
    99   6 C        2.932    -0.079    29.962     8.977
   100   1 H        0.930     0.069     2.098     2.265
   101   6 C        2.878     0.143    24.892     8.179
   102   6 C        2.936    -0.069    29.723     8.941
   103   1 H        0.930     0.075     2.026     2.226
   104   6 C        2.932    -0.048    29.201     8.862
   105   1 H        0.930     0.077     2.009     2.216
   106   6 C        3.664     0.013    20.617     6.513
   107   1 H        0.930     0.071     2.076     2.253
   108   1 H        0.930     0.059     2.207     2.323
   109   1 H        0.930     0.056     2.251     2.346
   110   1 H        0.862     0.204     1.086     1.632
   111   1 H        0.863     0.211     1.053     1.607
   112   7 N        2.745    -0.114    23.493     7.199
   113   7 N        3.019     0.091    19.657     6.585
   114   7 N        1.991    -0.248    27.265     7.744
   115   7 N        2.645    -0.286    27.379     7.771
   116   8 O        0.858    -0.438    22.454     6.353
   117   8 O        0.860    -0.452    22.747     6.394
   118   8 O        1.705    -0.284    18.716     5.841
   119   6 C        3.826    -0.107    22.523     6.753
   120   1 H        0.930     0.076     2.019     2.222
   121   1 H        0.930     0.081     1.963     2.191
   122   8 O        0.859    -0.473    23.193     6.457
   123   6 C        2.878     0.145    24.852     8.173
   124   6 C        2.936    -0.067    29.662     8.932
   125   1 H        0.930     0.079     1.994     2.208
   126   6 C        3.664     0.013    20.629     6.514
   127   1 H        0.930     0.073     2.054     2.241
   128   1 H        0.930     0.059     2.208     2.323
   129   1 H        0.930     0.057     2.235     2.338
   130   8 O        1.705    -0.281    18.659     5.832
   131   6 C        2.928     0.069    26.451     8.434
   132   1 H        0.930     0.067     2.118     2.276
   133   6 C        3.764    -0.017    20.918     6.519
   134   1 H        0.930     0.066     2.131     2.282
   135   1 H        0.930     0.073     2.055     2.242
   136   6 C        2.767     0.268    22.468     7.763
   137   6 C        3.096    -0.009    28.127     8.692
   138   6 C        3.070    -0.015    28.314     8.725
   139   6 C        3.821    -0.083    22.074     6.686
   140   1 H        0.930     0.075     2.033     2.230
   141   1 H        0.930     0.085     1.929     2.172
   142   6 C        3.172     0.027    27.025     8.492
   143   6 C        2.748     0.281    22.242     7.722
   144   6 C        2.920     0.046    26.970     8.516
   145   6 C        2.934    -0.042    29.039     8.838
   146   1 H        0.930     0.071     2.078     2.254
   147   6 C        2.932    -0.079    29.963     8.977
   148   6 C        2.932    -0.046    29.153     8.855
   149   1 H        0.930     0.080     1.982     2.202
   150   1 H        0.862     0.206     1.075     1.624
   151   1 H        0.863     0.213     1.043     1.600
   152   7 N        2.745    -0.120    23.606     7.216
   153   7 N        3.019     0.089    19.693     6.591
   154   7 N        1.991    -0.240    27.070     7.716
   155   7 N        2.645    -0.281    27.261     7.754
   156   8 O        0.858    -0.444    22.583     6.371
   157   8 O        0.860    -0.456    22.826     6.406
   158   6 C        3.762    -0.011    20.815     6.503
   159   1 H        0.930     0.058     2.220     2.330
   160   1 H        0.930     0.061     2.189     2.314
   161   6 C        3.827    -0.083    22.067     6.684
   162   1 H        0.930     0.056     2.250     2.345
   163   1 H        0.930     0.058     2.219     2.329
   164   6 C        3.825    -0.080    22.012     6.676
   165   1 H        0.930     0.054     2.268     2.355
   166   1 H        0.930     0.053     2.285     2.364
   167   6 C        2.766     0.270    22.443     7.759
   168   6 C        2.935    -0.058    29.447     8.900
   169   1 H        0.930     0.067     2.124     2.279
   170   6 C        2.930     0.066    26.513     8.444
   171   6 C        2.938    -0.044    29.097     8.847
   172   1 H        0.930     0.076     2.016     2.220
   173   6 C        2.936    -0.045    29.110     8.849
   174   1 H        0.930     0.075     2.035     2.231
   175   6 C        2.935    -0.059    29.467     8.903
   176   1 H        0.930     0.069     2.098     2.265
   177   7 N        2.739    -0.112    23.454     7.193

 Mol. C6AA /au·bohr⁶  :     376916.137741
 Mol. C8AA /au·bohr⁸  :    9002751.635378
 Mol. α(0) /au        :        951.555237


Wiberg/Mayer (AO) data.
largest (>0.10) Wiberg bond orders for each atom

 ---------------------------------------------------------------------------
     #   Z sym  total        # sym  WBO       # sym  WBO       # sym  WBO
 ---------------------------------------------------------------------------
     1   1 H    0.995 --    54 C    0.974
     2   6 C    3.988 --    54 C    1.440     4 C    1.403     3 H    0.968
                            51 C    0.110
     3   1 H    0.991 --     2 C    0.968
     4   6 C    3.967 --     2 C    1.403    55 C    1.402    31 N    1.000
     5   6 C    3.970 --    10 C    0.998    57 H    0.975     6 H    0.974
                            31 N    0.962
     6   1 H    0.997 --     5 C    0.974
     7   6 C    3.956 --    35 O    1.664    31 N    1.197     8 C    1.008
     8   6 C    3.955 --     9 C    1.431    32 N    1.225     7 C    1.008
                            33 N    0.134
     9   6 C    3.980 --     8 C    1.431    13 C    1.325    10 C    1.011
    10   6 C    3.990 --     9 C    1.011     5 C    0.998    12 H    0.964
                            11 H    0.962
    11   1 H    0.994 --    10 C    0.962
    12   1 H    0.993 --    10 C    0.964
    13   6 C    3.967 --    33 N    1.424     9 C    1.325    14 C    0.997
    14   6 C    3.953 --    36 O    1.651    34 N    1.266    13 C    0.997
    15   6 C    3.954 --    16 C    1.399    23 C    1.372    32 N    1.004
    16   6 C    3.988 --    18 C    1.438    15 C    1.399    17 H    0.967
                            21 C    0.106
    17   1 H    0.992 --    16 C    0.967
    18   6 C    3.991 --    16 C    1.438    20 C    1.379    19 H    0.969
                            23 C    0.101
    19   1 H    0.994 --    18 C    0.969
    20   6 C    3.932 --    18 C    1.379    21 C    1.345    37 O    1.070
    21   6 C    3.991 --    23 C    1.474    20 C    1.345    22 H    0.973
                            16 C    0.106
    22   1 H    0.994 --    21 C    0.973
    23   6 C    3.991 --    21 C    1.474    15 C    1.372    24 H    0.973
                            18 C    0.101
    24   1 H    0.994 --    23 C    0.973
    25   6 C    3.934 --    27 H    0.981    26 H    0.981    28 H    0.977
                            37 O    0.966
    26   1 H    0.995 --    25 C    0.981
    27   1 H    0.997 --    25 C    0.981
    28   1 H    0.995 --    25 C    0.977
    29   1 H    0.948 --    34 N    0.921
    30   1 H    0.959 --    34 N    0.944
    31   7 N    3.469 --     7 C    1.197     4 C    1.000     5 C    0.962
                            35 O    0.186
    32   7 N    3.690 --     8 C    1.225    33 N    1.215    15 C    1.004
    33   7 N    2.959 --    13 C    1.424    32 N    1.215     8 C    0.134
    34   7 N    3.380 --    14 C    1.266    30 H    0.944    29 H    0.921
                            36 O    0.198
    35   8 O    2.006 --     7 C    1.664    31 N    0.186
    36   8 O    1.968 --    14 C    1.651    34 N    0.198
    37   8 O    2.204 --    20 C    1.070    25 C    0.966
    38   6 C    3.970 --    41 C    1.007    40 H    0.973    39 H    0.972
                            58 N    0.961
    39   1 H    0.997 --    38 C    0.972
    40   1 H    0.996 --    38 C    0.973
    41   6 C    3.992 --    38 C    1.007    44 C    1.006    42 H    0.979
                            43 H    0.971
    42   1 H    0.997 --    41 C    0.979
    43   1 H    0.996 --    41 C    0.971
    44   6 C    3.994 --    41 C    1.006    47 C    1.002    46 H    0.981
                            45 H    0.977
    45   1 H    0.997 --    44 C    0.977
    46   1 H    0.997 --    44 C    0.981
    47   6 C    3.991 --    44 C    1.002    50 C    0.977    49 H    0.963
                            48 H    0.955
    48   1 H    0.995 --    47 C    0.955
    49   1 H    0.995 --    47 C    0.963
    50   6 C    3.951 --    59 O    1.639    58 N    1.253    47 C    0.977
    51   6 C    3.994 --    55 C    1.441    53 C    1.405    52 H    0.975
                             2 C    0.110
    52   1 H    0.996 --    51 C    0.975
    53   6 C    3.965 --    54 C    1.406    51 C    1.405    58 N    0.986
    54   6 C    3.994 --     2 C    1.440    53 C    1.406     1 H    0.974
                            55 C    0.109
    55   6 C    3.993 --    51 C    1.441     4 C    1.402    56 H    0.974
                            54 C    0.109
    56   1 H    0.995 --    55 C    0.974
    57   1 H    0.996 --     5 C    0.975
    58   7 N    3.490 --    50 C    1.253    53 C    0.986    38 C    0.961
                            59 O    0.191
    59   8 O    1.955 --    50 C    1.639    58 N    0.191
    60   6 C    3.970 --    63 C    1.007    62 H    0.974    61 H    0.972
                            80 N    0.961
    61   1 H    0.996 --    60 C    0.972
    62   1 H    0.996 --    60 C    0.974
    63   6 C    3.992 --    60 C    1.007    66 C    1.006    64 H    0.980
                            65 H    0.971
    64   1 H    0.997 --    63 C    0.980
    65   1 H    0.996 --    63 C    0.971
    66   6 C    3.994 --    63 C    1.006    69 C    1.002    68 H    0.981
                            67 H    0.976
    67   1 H    0.998 --    66 C    0.976
    68   1 H    0.997 --    66 C    0.981
    69   6 C    3.991 --    66 C    1.002    72 C    0.976    71 H    0.963
                            70 H    0.955
    70   1 H    0.995 --    69 C    0.955
    71   1 H    0.995 --    69 C    0.963
    72   6 C    3.951 --    81 O    1.642    80 N    1.252    69 C    0.976
    73   6 C    3.994 --    77 C    1.441    75 C    1.406    74 H    0.975
                            83 C    0.110
    74   1 H    0.996 --    73 C    0.975
    75   6 C    3.965 --    76 C    1.406    73 C    1.406    80 N    0.986
    76   6 C    3.994 --    83 C    1.440    75 C    1.406    82 H    0.974
                            77 C    0.109
    77   6 C    3.993 --    73 C    1.441    85 C    1.402    78 H    0.974
                            76 C    0.109
    78   1 H    0.995 --    77 C    0.974
    79   1 H    0.995 --    86 C    0.975
    80   7 N    3.490 --    72 C    1.252    75 C    0.986    60 C    0.961
                            81 O    0.191
    81   8 O    1.958 --    72 C    1.642    80 N    0.191
    82   1 H    0.995 --    76 C    0.974
    83   6 C    3.988 --    76 C    1.440    85 C    1.403    84 H    0.968
                            73 C    0.110
    84   1 H    0.991 --    83 C    0.968
    85   6 C    3.966 --    83 C    1.403    77 C    1.402   112 N    0.999
    86   6 C    3.969 --    91 C    0.998    79 H    0.975    87 H    0.974
                           112 N    0.962
    87   1 H    0.997 --    86 C    0.974
    88   6 C    3.957 --   116 O    1.663   112 N    1.199    89 C    1.008
    89   6 C    3.955 --    90 C    1.432   113 N    1.225    88 C    1.008
                           114 N    0.134
    90   6 C    3.980 --    89 C    1.432    94 C    1.322    91 C    1.012
    91   6 C    3.990 --    90 C    1.012    86 C    0.998    93 H    0.964
                            92 H    0.961
    92   1 H    0.994 --    91 C    0.961
    93   1 H    0.993 --    91 C    0.964
    94   6 C    3.967 --   114 N    1.422    90 C    1.322    95 C    1.002
    95   6 C    3.951 --   117 O    1.658   115 N    1.249    94 C    1.002
    96   6 C    3.955 --    97 C    1.401   104 C    1.373   113 N    1.004
    97   6 C    3.987 --    99 C    1.435    96 C    1.401    98 H    0.967
                           102 C    0.108
    98   1 H    0.992 --    97 C    0.967
    99   6 C    3.991 --    97 C    1.435   101 C    1.381   100 H    0.971
                           104 C    0.100
   100   1 H    0.995 --    99 C    0.971
   101   6 C    3.931 --    99 C    1.381   102 C    1.345   118 O    1.066
   102   6 C    3.991 --   104 C    1.475   101 C    1.345   103 H    0.973
                            97 C    0.108
   103   1 H    0.994 --   102 C    0.973
   104   6 C    3.990 --   102 C    1.475    96 C    1.373   105 H    0.972
                            99 C    0.100
   105   1 H    0.994 --   104 C    0.972
   106   6 C    3.937 --   109 H    0.981   108 H    0.981   107 H    0.980
                           118 O    0.968
   107   1 H    0.995 --   106 C    0.980
   108   1 H    0.996 --   106 C    0.981
   109   1 H    0.997 --   106 C    0.981
   110   1 H    0.958 --   115 N    0.942
   111   1 H    0.956 --   115 N    0.942
   112   7 N    3.471 --    88 C    1.199    85 C    0.999    86 C    0.962
                           116 O    0.187
   113   7 N    3.694 --    89 C    1.225   114 N    1.219    96 C    1.004
   114   7 N    2.962 --    94 C    1.422   113 N    1.219    89 C    0.134
   115   7 N    3.366 --    95 C    1.249   111 H    0.942   110 H    0.942
                           117 O    0.191
   116   8 O    2.005 --    88 C    1.663   112 N    0.187
   117   8 O    1.970 --    95 C    1.658   115 N    0.191
   118   8 O    2.202 --   101 C    1.066   106 C    0.968
   119   6 C    3.990 --   164 C    1.002   167 C    0.979   121 H    0.962
                           120 H    0.953
   120   1 H    0.994 --   119 C    0.953
   121   1 H    0.993 --   119 C    0.962
   122   8 O    1.966 --   167 C    1.646   177 N    0.187
   123   6 C    3.933 --   147 C    1.380   124 C    1.344   130 O    1.071
   124   6 C    3.991 --   148 C    1.476   123 C    1.344   125 H    0.972
                           145 C    0.108
   125   1 H    0.993 --   124 C    0.972
   126   6 C    3.936 --   128 H    0.981   129 H    0.981   127 H    0.979
                           130 O    0.967
   127   1 H    0.994 --   126 C    0.979
   128   1 H    0.996 --   126 C    0.981
   129   1 H    0.997 --   126 C    0.981
   130   8 O    2.207 --   123 C    1.071   126 C    0.967
   131   6 C    3.967 --   173 C    1.402   175 C    1.400   152 N    1.000
   132   1 H    0.995 --   175 C    0.973
   133   6 C    3.965 --   139 C    0.998   134 H    0.973   135 H    0.972
                           152 N    0.960
   134   1 H    0.996 --   133 C    0.973
   135   1 H    0.994 --   133 C    0.972
   136   6 C    3.957 --   156 O    1.656   152 N    1.199   137 C    1.012
   137   6 C    3.952 --   138 C    1.430   153 N    1.219   136 C    1.012
                           154 N    0.134
   138   6 C    3.981 --   137 C    1.430   142 C    1.322   139 C    1.012
   139   6 C    3.989 --   138 C    1.012   133 C    0.998   140 H    0.961
                           141 H    0.960
   140   1 H    0.994 --   139 C    0.961
   141   1 H    0.992 --   139 C    0.960
   142   6 C    3.968 --   154 N    1.426   138 C    1.322   143 C    1.000
   143   6 C    3.951 --   157 O    1.653   155 N    1.257   142 C    1.000
   144   6 C    3.956 --   145 C    1.402   148 C    1.371   153 N    1.005
   145   6 C    3.991 --   147 C    1.435   144 C    1.402   146 H    0.973
                           124 C    0.108
   146   1 H    0.995 --   145 C    0.973
   147   6 C    3.991 --   145 C    1.435   123 C    1.380   176 H    0.971
   148   6 C    3.990 --   124 C    1.476   144 C    1.371   149 H    0.972
   149   1 H    0.993 --   148 C    0.972
   150   1 H    0.957 --   155 N    0.941
   151   1 H    0.955 --   155 N    0.941
   152   7 N    3.470 --   136 C    1.199   131 C    1.000   133 C    0.960
                           156 O    0.187
   153   7 N    3.692 --   154 N    1.220   137 C    1.219   144 C    1.005
   154   7 N    2.966 --   142 C    1.426   153 N    1.220   137 C    0.134
   155   7 N    3.373 --   143 C    1.257   151 H    0.941   150 H    0.941
                           157 O    0.192
   156   8 O    2.000 --   136 C    1.656   152 N    0.187
   157   8 O    1.966 --   143 C    1.653   155 N    0.192
   158   6 C    3.970 --   161 C    1.007   160 H    0.974   159 H    0.972
                           177 N    0.959
   159   1 H    0.997 --   158 C    0.972
   160   1 H    0.996 --   158 C    0.974
   161   6 C    3.991 --   158 C    1.007   164 C    1.006   162 H    0.979
                           163 H    0.971
   162   1 H    0.997 --   161 C    0.979
   163   1 H    0.996 --   161 C    0.971
   164   6 C    3.994 --   161 C    1.006   119 C    1.002   166 H    0.981
                           165 H    0.976
   165   1 H    0.997 --   164 C    0.976
   166   1 H    0.997 --   164 C    0.981
   167   6 C    3.949 --   122 O    1.646   177 N    1.242   119 C    0.979
   168   6 C    3.994 --   175 C    1.442   170 C    1.405   169 H    0.974
                           173 C    0.109
   169   1 H    0.995 --   168 C    0.974
   170   6 C    3.969 --   171 C    1.405   168 C    1.405   177 N    0.991
   171   6 C    3.993 --   173 C    1.441   170 C    1.405   172 H    0.973
                           175 C    0.110
   172   1 H    0.994 --   171 C    0.973
   173   6 C    3.992 --   171 C    1.441   131 C    1.402   174 H    0.973
                           168 C    0.109
   174   1 H    0.994 --   173 C    0.973
   175   6 C    3.993 --   168 C    1.442   131 C    1.400   132 H    0.973
                           171 C    0.110
   176   1 H    0.995 --   147 C    0.971
   177   7 N    3.483 --   167 C    1.242   170 C    0.991   158 C    0.959
                           122 O    0.187
 ---------------------------------------------------------------------------

Topologies differ in total number of bonds
Writing topology from bond orders to xtbtopo.mol

molecular dipole:
                 x           y           z       tot (Debye)
 q only:       -0.285      -0.567       1.689
   full:       -0.492      -0.298       1.838       4.895
molecular quadrupole (traceless):
                xx          xy          yy          xz          yz          zz
 q only:     -225.489     -76.931    -161.153     102.659      76.618     386.642
  q+dip:     -273.896     -90.526    -139.659      85.491     125.302     413.556
   full:     -269.297     -90.366    -145.577      92.995     125.956     414.874


           -------------------------------------------------
          | TOTAL ENERGY             -290.539152331431 Eh   |
          | GRADIENT NORM               1.615263609323 Eh/α |
          | HOMO-LUMO GAP               2.645178883597 eV   |
           -------------------------------------------------

------------------------------------------------------------------------
 * finished run on 2026/10/03 at 19:14:14.191     
------------------------------------------------------------------------
 total:
 * wall-time:     0 d,  0 h,  0 min,  1.086 sec
 *  cpu-time:     0 d,  0 h,  0 min,  1.062 sec
 * ratio c/w:     0.978 speedup
 SCF:
 * wall-time:     0 d,  0 h,  0 min,  0.969 sec
 *  cpu-time:     0 d,  0 h,  0 min,  0.969 sec
 * ratio c/w:     1.000 speedup

normal termination of xtb
