59
Coordinates from ORCA-job Apixaban_COSMORS_DMSO_Opt_KeepDens.solute_vac E -1543.016521804233
  C          23.65727440376166    -17.68096361717205     -0.01542453724316
  C          24.18829532804877    -18.40171509085895      1.22406985639980
  C          25.50219559269737    -19.16640620610903      1.06615202346298
  N          26.32927408370997    -18.82679774412523     -0.00263438871170
  C          25.87207839277640    -17.97516822404674     -1.12206449143698
  C          24.81331994443419    -16.96281105568757     -0.70480803563201
  C          27.60239564989249    -19.45837108764371     -0.15957238944209
  C          28.46267981655276    -19.64650406311628      0.93606337751746
  C          29.71499696776562    -20.22461300084224      0.76543441213495
  C          30.15304451051342    -20.63133518365044     -0.50586788009942
  C          29.30110726989729    -20.43633724401773     -1.60022487240137
  C          28.03969167121229    -19.86256691145121     -1.42806678342373
  N          31.42173028015735    -21.26345959801747     -0.67889283125814
  C          31.52990688431381    -22.32610626876041     -1.70707030961178
  C          32.52607433977516    -23.41995731772746     -1.31744353523362
  C          33.79996828067033    -22.76297441106940     -0.90546861023625
  C          33.78610509376956    -21.48937168059236     -0.34844968126526
  C          32.56301640145183    -20.69699637507109     -0.10033331803811
  O          25.81698532285722    -20.01053903238642      1.90179197959059
  O          32.53612978196328    -19.66421433875110      0.56936186681411
  C          35.15996456702943    -23.12890724757383     -0.94607318603407
  N          35.93656332511816    -22.14224315771358     -0.45203814829139
  N          35.10045773020564    -21.15214608002532     -0.08065874103577
  C          35.67184358437984    -19.94819474337528      0.44863937088249
  C          35.74980035013520    -24.39815873469756     -1.44828785536641
  N          37.10983572738978    -24.46713072404572     -1.36164496770335
  O          35.04883141129501    -25.30235479542164     -1.91000731110537
  C          35.23626863190314    -19.41430229535910      1.66786508782952
  C          35.84595922731492    -18.27624938628142      2.17786921312231
  C          36.90118196426834    -17.66091097633567      1.48277656317599
  C          37.34227455737943    -18.20300208913070      0.26674295243869
  C          36.72312377947037    -19.34664061589619     -0.24353915772521
  O          37.43166555569221    -16.54633932503778      2.07075785915280
  C          38.50841963011862    -15.88891959056723      1.40218561852795
  H          23.20851904925641    -18.40708472098138     -0.71433386439816
  H          22.85819348621112    -16.97797579296654      0.26455987967339
  H          24.37494754669652    -17.67148243275926      2.03094711476229
  H          23.46620930249794    -19.12212933796584      1.63150722059455
  H          26.75881923588408    -17.46542670693449     -1.52490050363668
  H          25.46415371937804    -18.60757114858369     -1.93268365220791
  H          25.25617189753447    -16.21666530261087     -0.02404375927324
  H          24.47624349491078    -16.42308914749432     -1.60291079333890
  H          28.13999259370542    -19.35077804371109      1.93109330151809
  H          30.36507137080482    -20.35797751713187      1.62729736208356
  H          29.61527872367411    -20.72603601150481     -2.60325942921002
  H          27.39832434031815    -19.73719630916156     -2.30026753491174
  H          30.52711591529001    -22.75096954703917     -1.83580132892635
  H          31.83528994239799    -21.88218219911490     -2.67213719006704
  H          32.12487019252598    -24.02882984207811     -0.48889978219414
  H          32.68977702936360    -24.10337599090759     -2.16069684363617
  H          37.63317565009095    -23.71247363419906     -0.92957799403285
  H          37.57448299268859    -25.32082926944049     -1.64762050299767
  H          34.41620690638422    -19.88334163857514      2.20632301437280
  H          35.51950532125565    -17.84528398492605      3.12449036798739
  H          38.15694042887300    -17.74558823554057     -0.29203474943954
  H          37.05986213692252    -19.77848323701998     -1.18577746858070
  H          38.20018189997983    -15.51995354247272      0.41000108300564
  H          38.77933802996262    -15.03897930142347      2.03804922885435
  H          39.37960973547093    -16.55547189289825      1.29118367424455
