59
Coordinates from ORCA-job Apixaban_COSMORS_DMSO_Opt_KeepDens.solute_cpcm E -1543.054710747414
  C      23.763855    -17.629723     -0.033246
  C      24.212361    -18.480799      1.149444
  C      25.514478    -19.249394      0.976344
  N      26.389670    -18.823694     -0.008450
  C      26.012066    -17.853157     -1.054375
  C      24.964850    -16.865439     -0.572305
  C      27.650985    -19.470009     -0.165128
  C      28.478078    -19.697659      0.938888
  C      29.716351    -20.292717      0.777195
  C      30.163986    -20.666057     -0.492992
  C      29.347040    -20.428520     -1.596100
  C      28.096429    -19.842825     -1.431825
  N      31.424052    -21.308998     -0.652795
  C      31.530940    -22.372194     -1.676775
  C      32.530016    -23.455863     -1.281705
  C      33.795389    -22.785770     -0.879340
  C      33.775655    -21.512857     -0.340876
  C      32.557914    -20.722939     -0.101772
  O      25.780696    -20.170407      1.734370
  O      32.533095    -19.680470      0.540358
  C      35.151924    -23.140900     -0.915120
  N      35.919128    -22.147396     -0.435699
  N      35.081038    -21.167453     -0.079047
  C      35.630213    -19.952939      0.435246
  C      35.735121    -24.412602     -1.398595
  N      37.091924    -24.482143     -1.346023
  O      35.022728    -25.317655     -1.821758
  C      35.200067    -19.435921      1.655850
  C      35.779766    -18.283247      2.149397
  C      36.798514    -17.642402      1.435078
  C      37.237546    -18.170910      0.219361
  C      36.646158    -19.329474     -0.274854
  O      37.298630    -16.515072      2.010912
  C      38.342809    -15.829917      1.326470
  H      23.355427    -18.270203     -0.826972
  H      22.961101    -16.949289      0.271816
  H      24.371850    -17.842550      2.030097
  H      23.460688    -19.219387      1.441862
  H      26.926696    -17.333555     -1.362039
  H      25.621436    -18.381635     -1.939330
  H      25.388854    -16.226154      0.213722
  H      24.686415    -16.216279     -1.410559
  H      28.139206    -19.419799      1.928999
  H      30.348554    -20.464950      1.639973
  H      29.679552    -20.694212     -2.594622
  H      27.472081    -19.682897     -2.304774
  H      30.533316    -22.802053     -1.800867
  H      31.836836    -21.933639     -2.640184
  H      32.138710    -24.055505     -0.448262
  H      32.698138    -24.140304     -2.117229
  H      37.624162    -23.739202     -0.922722
  H      37.537203    -25.347440     -1.600608
  H      34.410277    -19.930622      2.207218
  H      35.460395    -17.860026      3.095908
  H      38.025028    -17.696010     -0.353192
  H      36.976438    -19.752502     -1.217954
  H      38.010214    -15.476074      0.341407
  H      38.595678    -14.972319      1.951801
  H      39.229014    -16.467755      1.208024
59
Coordinates from ORCA-job Apixaban_COSMORS_DMSO_Opt_KeepDens.solute_cpcm E -1543.058208906858
  C      23.715584    -17.614825     -0.072400
  C      24.127408    -18.513200      1.092331
  C      25.435254    -19.281530      0.933251
  N      26.342564    -18.831081     -0.011513
  C      25.996260    -17.819842     -1.037806
  C      24.937038    -16.839959     -0.555413
  C      27.610600    -19.478231     -0.159540
  C      28.436118    -19.713877      0.952180
  C      29.684347    -20.304858      0.793784
  C      30.147743    -20.665005     -0.481673
  C      29.330650    -20.422243     -1.591507
  C      28.073194    -19.836686     -1.430991
  N      31.416007    -21.304808     -0.640991
  C      31.519412    -22.383725     -1.653722
  C      32.522273    -23.463784     -1.249463
  C      33.796136    -22.792553     -0.859754
  C      33.779602    -21.507833     -0.329033
  C      32.554886    -20.712591     -0.100049
  O      25.663716    -20.257299      1.656414
  O      32.532728    -19.637735      0.506684
  C      35.158714    -23.150291     -0.904428
  N      35.930268    -22.144527     -0.442205
  N      35.093587    -21.158240     -0.078248
  C      35.659458    -19.945242      0.439295
  C      35.752082    -24.429332     -1.376989
  N      37.109203    -24.482690     -1.350711
  O      35.040327    -25.363741     -1.771585
  C      35.306397    -19.471570      1.708372
  C      35.912763    -18.326858      2.206157
  C      36.883059    -17.648008      1.447707
  C      37.246290    -18.133487      0.183914
  C      36.631325    -19.285448     -0.312320
  O      37.417712    -16.533894      2.028374
  C      38.419151    -15.811466      1.301560
  H      23.321439    -18.226146     -0.900830
  H      22.906875    -16.937746      0.238686
  H      24.261705    -17.906116      2.004692
  H      23.359482    -19.261103      1.334262
  H      26.924135    -17.294320     -1.301120
  H      25.632515    -18.322530     -1.950612
  H      25.342229    -16.222409      0.262989
  H      24.684680    -16.164648     -1.385781
  H      28.093665    -19.435832      1.946601
  H      30.309080    -20.489427      1.665996
  H      29.670335    -20.681703     -2.594248
  H      27.454440    -19.665792     -2.311669
  H      30.519366    -22.816593     -1.767783
  H      31.817931    -21.953485     -2.624939
  H      32.132371    -24.057739     -0.405181
  H      32.679249    -24.156833     -2.084348
  H      37.647490    -23.716556     -0.957110
  H      37.570004    -25.352669     -1.602053
  H      34.565398    -20.002132      2.301989
  H      35.655009    -17.943161      3.194078
  H      37.995682    -17.629240     -0.423300
  H      36.905130    -19.671503     -1.294258
  H      38.021549    -15.424556      0.350372
  H      38.708766    -14.972142      1.942830
  H      39.300360    -16.441046      1.102699
59
Coordinates from ORCA-job Apixaban_COSMORS_DMSO_Opt_KeepDens.solute_cpcm E -1543.058713817170
  C      23.722970    -17.597102     -0.043881
  C      24.139675    -18.521853      1.099846
  C      25.437230    -19.298815      0.909312
  N      26.344056    -18.833201     -0.022118
  C      26.000503    -17.796885     -1.029059
  C      24.945571    -16.821000     -0.526226
  C      27.614698    -19.475294     -0.176529
  C      28.447295    -19.707946      0.932549
  C      29.697393    -20.299111      0.769034
  C      30.156141    -20.660222     -0.509863
  C      29.331974    -20.419326     -1.617706
  C      28.072387    -19.836078     -1.451492
  N      31.424994    -21.299552     -0.674116
  C      31.521615    -22.396109     -1.671849
  C      32.521291    -23.475051     -1.252823
  C      33.798907    -22.806994     -0.863021
  C      33.785050    -21.513053     -0.350291
  C      32.566221    -20.702282     -0.150110
  O      25.679049    -20.279015      1.633873
  O      32.547650    -19.621526      0.455992
  C      35.162940    -23.171722     -0.888992
  N      35.935125    -22.165040     -0.422448
  N      35.097323    -21.166050     -0.089884
  C      35.658700    -19.951524      0.431244
  C      35.764011    -24.458661     -1.333299
  N      37.117906    -24.507181     -1.308563
  O      35.053890    -25.411060     -1.705483
  C      35.310952    -19.493682      1.709563
  C      35.908435    -18.344661      2.214234
  C      36.865032    -17.645586      1.452295
  C      37.219340    -18.113040      0.176705
  C      36.612215    -19.267922     -0.326756
  O      37.394256    -16.530487      2.037188
  C      38.384454    -15.791073      1.303222
  H      23.313547    -18.189924     -0.879257
  H      22.923125    -16.919959      0.291534
  H      24.289947    -17.932434      2.022807
  H      23.365554    -19.266775      1.335220
  H      26.931524    -17.270848     -1.281446
  H      25.635872    -18.284904     -1.949215
  H      25.358050    -16.213526      0.297064
  H      24.690175    -16.135273     -1.347984
  H      28.111398    -19.425180      1.929684
  H      30.324290    -20.486212      1.640922
  H      29.666044    -20.682562     -2.622311
  H      27.448388    -19.666486     -2.329797
  H      30.519247    -22.826922     -1.777192
  H      31.818127    -21.978153     -2.649139
  H      32.125116    -24.060223     -0.404190
  H      32.673790    -24.174967     -2.084076
  H      37.657425    -23.726957     -0.942481
  H      37.587034    -25.378244     -1.543861
  H      34.582991    -20.041884      2.307258
  H      35.654779    -17.976064      3.210058
  H      37.955626    -17.590632     -0.432888
  H      36.877756    -19.636102     -1.318904
  H      37.971710    -15.402297      0.359021
  H      38.671913    -14.954123      1.949353
  H      39.268065    -16.413127      1.090916
59
Coordinates from ORCA-job Apixaban_COSMORS_DMSO_Opt_KeepDens.solute_cpcm E -1543.058967024191
  C      23.738463    -17.585159     -0.051354
  C      24.135909    -18.546307      1.069805
  C      25.439756    -19.309757      0.880887
  N      26.358319    -18.822989     -0.021294
  C      26.033931    -17.752904     -1.002350
  C      24.968408    -16.794210     -0.489541
  C      27.628155    -19.465780     -0.177524
  C      28.458566    -19.703962      0.931705
  C      29.707568    -20.298642      0.767641
  C      30.166188    -20.656219     -0.512289
  C      29.344750    -20.407722     -1.621029
  C      28.085958    -19.822962     -1.453855
  N      31.431904    -21.300880     -0.676496
  C      31.521329    -22.409738     -1.663878
  C      32.517743    -23.489122     -1.236652
  C      33.799005    -22.824198     -0.852980
  C      33.788435    -21.525632     -0.352218
  C      32.574457    -20.709182     -0.157391
  O      25.659520    -20.330604      1.561314
  O      32.567683    -19.612332      0.424099
  C      35.162716    -23.192211     -0.870984
  N      35.937691    -22.180876     -0.416220
  N      35.099452    -21.176784     -0.098055
  C      35.656658    -19.960901      0.423410
  C      35.767915    -24.482352     -1.297148
  N      37.119065    -24.522289     -1.295116
  O      35.057134    -25.449410     -1.638637
  C      35.335580    -19.529510      1.717930
  C      35.925006    -18.376896      2.225167
  C      36.847514    -17.648246      1.448095
  C      37.173556    -18.088714      0.154573
  C      36.573661    -19.246502     -0.351252
  O      37.373518    -16.533417      2.035122
  C      38.333153    -15.767361      1.282985
  H      23.341917    -18.151166     -0.910861
  H      22.934036    -16.919023      0.294190
  H      24.265441    -17.987241      2.014165
  H      23.359099    -19.299901      1.264417
  H      26.970222    -17.220453     -1.217411
  H      25.690048    -18.215579     -1.942780
  H      25.364919    -16.208794      0.356848
  H      24.726517    -16.086877     -1.296762
  H      28.123566    -19.422559      1.929569
  H      30.331068    -20.493141      1.640244
  H      29.678866    -20.669796     -2.625725
  H      27.462898    -19.647540     -2.331497
  H      30.516896    -22.836933     -1.761698
  H      31.815436    -22.000213     -2.645009
  H      32.120002    -24.066342     -0.383748
  H      32.662442    -24.194080     -2.065233
  H      37.661829    -23.728954     -0.965229
  H      37.594226    -25.390473     -1.524923
  H      34.634438    -20.100978      2.326504
  H      35.690641    -18.030126      3.233101
  H      37.882423    -17.541921     -0.465434
  H      36.816604    -19.591338     -1.357351
  H      37.886401    -15.373461      0.357170
  H      38.624223    -14.936515      1.934511
  H      39.217915    -16.374709      1.038116
59
Coordinates from ORCA-job Apixaban_COSMORS_DMSO_Opt_KeepDens.solute_cpcm E -1543.059103602022
  C      23.756390    -17.571021     -0.049721
  C      24.140023    -18.562334      1.050096
  C      25.440205    -19.326529      0.850001
  N      26.367320    -18.822467     -0.030088
  C      26.060207    -17.722927     -0.985000
  C      24.992887    -16.774907     -0.458105
  C      27.636841    -19.465143     -0.187536
  C      28.465270    -19.702648      0.921743
  C      29.713461    -20.297990      0.758735
  C      30.171000    -20.656345     -0.520267
  C      29.351216    -20.408490     -1.629459
  C      28.093314    -19.823219     -1.463152
  N      31.435689    -21.302050     -0.683001
  C      31.522198    -22.421107     -1.659731
  C      32.516260    -23.498794     -1.223206
  C      33.798380    -22.834336     -0.843692
  C      33.789487    -21.531527     -0.355361
  C      32.578176    -20.710713     -0.168752
  O      25.653362    -20.360962      1.512374
  O      32.575764    -19.608968      0.403025
  C      35.160475    -23.204058     -0.855465
  N      35.936756    -22.189227     -0.411003
  N      35.098728    -21.183231     -0.099666
  C      35.653303    -19.966446      0.422038
  C      35.766233    -24.495835     -1.271086
  N      37.116367    -24.532775     -1.283019
  O      35.053829    -25.469801     -1.588360
  C      35.359299    -19.557019      1.729159
  C      35.944164    -18.403047      2.236940
  C      36.835036    -17.651075      1.446515
  C      37.134954    -18.070713      0.140181
  C      36.540173    -19.230635     -0.365340
  O      37.358541    -16.536410      2.034707
  C      38.287677    -15.746004      1.268528
  H      23.363481    -18.113091     -0.925577
  H      22.953403    -16.909863      0.307285
  H      24.265492    -18.027775      2.008543
  H      23.357533    -19.315246      1.219490
  H      27.001789    -17.189731     -1.171865
  H      25.727239    -18.159673     -1.941284
  H      25.383611    -16.211039      0.404814
  H      24.760350    -16.047932     -1.250136
  H      28.129756    -19.420975      1.918982
  H      30.336506    -20.491738      1.631230
  H      29.686138    -20.671824     -2.633157
  H      27.469522    -19.648400     -2.340014
  H      30.516771    -22.846496     -1.752212
  H      31.816052    -22.020049     -2.644076
  H      32.116837    -24.068742     -0.366952
  H      32.658040    -24.209310     -2.047271
  H      37.661974    -23.731293     -0.979564
  H      37.593805    -25.400107     -1.509488
  H      34.680991    -20.145520      2.346278
  H      35.728629    -18.073029      3.254101
  H      37.820384    -17.505887     -0.488984
  H      36.763669    -19.559103     -1.381029
  H      37.810129    -15.346813      0.361084
  H      38.582503    -14.921165      1.925234
  H      39.173154    -16.338327      0.993182
59
Coordinates from ORCA-job Apixaban_COSMORS_DMSO_Opt_KeepDens.solute_cpcm E -1543.059203412008
  C      23.787346    -17.545282     -0.052718
  C      24.137649    -18.594029      1.004872
  C      25.436489    -19.356229      0.795031
  N      26.383076    -18.819237     -0.040500
  C      26.112350    -17.664914     -0.941211
  C      25.037835    -16.739270     -0.391632
  C      27.651409    -19.465083     -0.199835
  C      28.473044    -19.708450      0.911155
  C      29.719823    -20.306107      0.750569
  C      30.178854    -20.660175     -0.527810
  C      29.364672    -20.407531     -1.638951
  C      28.108374    -19.819752     -1.474836
  N      31.442831    -21.307123     -0.688477
  C      31.527457    -22.434907     -1.656000
  C      32.516211    -23.513456     -1.209553
  C      33.799167    -22.852308     -0.829125
  C      33.792710    -21.545530     -0.352849
  C      32.585043    -20.718234     -0.175510
  O      25.630232    -20.421097      1.412970
  O      32.586390    -19.618585      0.398909
  C      35.158573    -23.226632     -0.828676
  N      35.935979    -22.211286     -0.387256
  N      35.099726    -21.198991     -0.093839
  C      35.650581    -19.977994      0.423302
  C      35.762405    -24.521850     -1.232172
  N      37.112137    -24.558981     -1.256657
  O      35.046607    -25.498379     -1.529791
  C      35.393524    -19.592209      1.744203
  C      35.969406    -18.432373      2.246991
  C      36.813544    -17.650495      1.435846
  C      37.077289    -18.047600      0.115371
  C      36.492469    -19.214640     -0.384113
  O      37.327969    -16.529740      2.019183
  C      38.206432    -15.703939      1.230343
  H      23.411030    -18.039716     -0.962957
  H      22.981731    -16.895978      0.319101
  H      24.244378    -18.108793      1.990963
  H      23.345530    -19.346850      1.117699
  H      27.063468    -17.131498     -1.069386
  H      25.805172    -18.046897     -1.928902
  H      25.411424    -16.222115      0.507019
  H      24.827835    -15.971577     -1.150725
  H      28.133073    -19.430908      1.908032
  H      30.340393    -20.503338      1.623705
  H      29.703961    -20.668336     -2.641618
  H      27.485756    -19.640672     -2.351621
  H      30.520409    -22.856523     -1.746538
  H      31.824812    -22.041241     -2.642070
  H      32.111411    -24.077332     -0.352321
  H      32.656286    -24.228413     -2.029939
  H      37.661972    -23.750041     -0.982424
  H      37.590514    -25.425278     -1.484625
  H      34.747015    -20.201851      2.374568
  H      35.779433    -18.119598      3.274313
  H      37.727472    -17.459181     -0.528873
  H      36.689148    -19.525828     -1.410576
  H      37.683191    -15.307238      0.347733
  H      38.501839    -14.880914      1.888647
  H      39.095891    -16.269357      0.915207
59
Coordinates from ORCA-job Apixaban_COSMORS_DMSO_Opt_KeepDens.solute_cpcm E -1543.059267337097
  C      23.806221    -17.527358     -0.061355
  C      24.131627    -18.611242      0.968995
  C      25.431324    -19.372429      0.758153
  N      26.391515    -18.815139     -0.047150
  C      26.147732    -17.626890     -0.910133
  C      25.065893    -16.716163     -0.350072
  C      27.658779    -19.465378     -0.205892
  C      28.474541    -19.712675      0.907784
  C      29.719932    -20.314514      0.750872
  C      30.181788    -20.666163     -0.526979
  C      29.372572    -20.409951     -1.640887
  C      28.116837    -19.819821     -1.479929
  N      31.445820    -21.314545     -0.684925
  C      31.531262    -22.443511     -1.651351
  C      32.517519    -23.523603     -1.202390
  C      33.801019    -22.864028     -0.821112
  C      33.795112    -21.556075     -0.348339
  C      32.587460    -20.728952     -0.166766
  O      25.615850    -20.451307      1.353304
  O      32.590763    -19.630766      0.409662
  C      35.159781    -23.240232     -0.815654
  N      35.937455    -22.223750     -0.376736
  N      35.101474    -21.209984     -0.088242
  C      35.650009    -19.985498      0.425489
  C      35.761429    -24.538067     -1.215222
  N      37.111725    -24.577201     -1.241475
  O      35.043778    -25.515083     -1.503604
  C      35.423728    -19.617044      1.756777
  C      35.994703    -18.452991      2.255249
  C      36.802523    -17.649346      1.428470
  C      37.035445    -18.029207      0.097377
  C      36.455949    -19.201062     -0.397500
  O      37.314228    -16.525682      2.008520
  C      38.154062    -15.675816      1.203547
  H      23.445720    -17.990980     -0.994040
  H      22.996211    -16.886223      0.315286
  H      24.221586    -18.157765      1.971775
  H      23.333895    -19.363103      1.042351
  H      27.104559    -17.094772     -0.996471
  H      25.861956    -17.970440     -1.918316
  H      25.424680    -16.231421      0.572502
  H      24.872647    -15.921926     -1.086099
  H      28.129777    -19.436735      1.903875
  H      30.337588    -20.515388      1.625361
  H      29.716031    -20.669997     -2.642426
  H      27.496061    -19.637131     -2.357507
  H      30.523563    -22.863301     -1.743734
  H      31.831823    -22.051138     -2.637020
  H      32.110331    -24.086432     -0.345450
  H      32.657236    -24.239658     -2.022000
  H      37.663693    -23.765090     -0.981234
  H      37.589253    -25.443610     -1.471139
  H      34.803218    -20.242929      2.397798
  H      35.828196    -18.153161      3.290597
  H      37.658005    -17.423796     -0.558578
  H      36.629818    -19.499636     -1.431925
  H      37.598176    -15.282254      0.339616
  H      38.451446    -14.852796      1.861122
  H      39.045419    -16.220729      0.858819
59
Coordinates from ORCA-job Apixaban_COSMORS_DMSO_Opt_KeepDens.solute_cpcm E -1543.059376552643
  C      23.835485    -17.505317     -0.088916
  C      24.114379    -18.646661      0.892625
  C      25.424091    -19.396341      0.695970
  N      26.407518    -18.802087     -0.051752
  C      26.212320    -17.556590     -0.840985
  C      25.105844    -16.680174     -0.273279
  C      27.673318    -19.460448     -0.211088
  C      28.485713    -19.704915      0.904806
  C      29.728360    -20.315009      0.751862
  C      30.188022    -20.671860     -0.525595
  C      29.380425    -20.418787     -1.641889
  C      28.125758    -19.824331     -1.483556
  N      31.452042    -21.322567     -0.681977
  C      31.536819    -22.453494     -1.646186
  C      32.517702    -23.537167     -1.192712
  C      33.803233    -22.881574     -0.809795
  C      33.800540    -21.570270     -0.346191
  C      32.594228    -20.740596     -0.159345
  O      25.591879    -20.502651      1.242666
  O      32.599064    -19.651312      0.432822
  C      35.160820    -23.263966     -0.792971
  N      35.940079    -22.247534     -0.355698
  N      35.106056    -21.229819     -0.076598
  C      35.652546    -19.999524      0.430547
  C      35.755224    -24.569544     -1.182742
  N      37.106607    -24.616457     -1.205575
  O      35.032680    -25.543324     -1.465036
  C      35.494465    -19.666190      1.781020
  C      36.059474    -18.495519      2.271362
  C      36.791972    -17.649958      1.415889
  C      36.956081    -17.994398      0.065140
  C      36.383337    -19.173848     -0.421303
  O      37.304140    -16.523304      1.990147
  C      38.064001    -15.628147      1.155968
  H      23.518821    -17.915206     -1.062145
  H      23.008287    -16.884706      0.285301
  H      24.157412    -18.250943      1.922683
  H      23.314373    -19.400159      0.885418
  H      27.174212    -17.025501     -0.841704
  H      25.979012    -17.826987     -1.884672
  H      25.424561    -16.255433      0.692958
  H      24.943370    -15.840064     -0.964722
  H      28.137487    -19.423617      1.898968
  H      30.345864    -20.516837      1.626530
  H      29.725434    -20.685827     -2.641260
  H      27.502055    -19.643119     -2.359861
  H      30.527522    -22.869165     -1.741383
  H      31.843318    -22.064770     -2.631642
  H      32.105602    -24.097636     -0.336144
  H      32.656739    -24.255813     -2.010450
  H      37.663410    -23.800941     -0.967085
  H      37.579681    -25.483936     -1.441185
  H      34.929531    -20.324232      2.441974
  H      35.946244    -18.221900      3.321381
  H      37.520752    -17.356406     -0.612511
  H      36.505727    -19.446507     -1.470446
  H      37.444337    -15.241197      0.333116
  H      38.368731    -14.805518      1.811074
  H      38.954033    -16.131780      0.749818
59
Coordinates from ORCA-job Apixaban_COSMORS_DMSO_Opt_KeepDens.solute_cpcm E -1543.059480081816
  C      23.848809    -17.502779     -0.133568
  C      24.087486    -18.690082      0.803027
  C      25.411295    -19.421193      0.631021
  N      26.417061    -18.788107     -0.050099
  C      26.262132    -17.495246     -0.766074
  C      25.118707    -16.659110     -0.208984
  C      27.685557    -19.446833     -0.206097
  C      28.495313    -19.687001      0.912408
  C      29.737195    -20.301579      0.763798
  C      30.196195    -20.664047     -0.512972
  C      29.390238    -20.414118     -1.631962
  C      28.136213    -19.816439     -1.477044
  N      31.457862    -21.320660     -0.667836
  C      31.538961    -22.449044     -1.635252
  C      32.512521    -23.540133     -1.182928
  C      33.801899    -22.892352     -0.798524
  C      33.805402    -21.579994     -0.337909
  C      32.602447    -20.747577     -0.139392
  O      25.567699    -20.551525      1.131427
  O      32.613992    -19.662560      0.460944
  C      35.158027    -23.283210     -0.773656
  N      35.941290    -22.270073     -0.335324
  N      35.111882    -21.246212     -0.065612
  C      35.661027    -20.012250      0.432970
  C      35.743595    -24.595762     -1.156973
  N      37.094870    -24.654267     -1.168503
  O      35.015214    -25.564560     -1.441435
  C      35.584597    -19.715853      1.799426
  C      36.151365    -18.542120      2.281360
  C      36.803408    -17.656716      1.400586
  C      36.883978    -17.963094      0.032920
  C      36.310253    -19.146262     -0.444885
  O      37.326749    -16.531927      1.968940
  C      38.003331    -15.594812      1.109668
  H      23.587932    -17.865605     -1.141633
  H      22.996668    -16.907984      0.226526
  H      24.074294    -18.348143      1.853037
  H      23.295180    -19.447217      0.715951
  H      27.219428    -16.963006     -0.675876
  H      26.093991    -17.697500     -1.837459
  H      25.383792    -16.286360      0.794469
  H      24.982583    -15.782816     -0.860004
  H      28.142937    -19.401607      1.904349
  H      30.352616    -20.505889      1.639332
  H      29.736481    -20.687941     -2.629123
  H      27.510387    -19.637568     -2.352617
  H      30.527491    -22.858410     -1.734694
  H      31.851008    -22.060136     -2.618926
  H      32.096333    -24.100170     -0.327843
  H      32.647820    -24.258341     -2.001864
  H      37.657267    -23.839301     -0.941446
  H      37.561494    -25.523574     -1.410547
  H      35.082109    -20.405675      2.478768
  H      36.102653    -18.296456      3.343323
  H      37.385943    -17.294035     -0.664048
  H      36.369273    -19.390652     -1.506530
  H      37.320041    -15.207623      0.338757
  H      38.327127    -14.778096      1.763202
  H      38.879326    -16.060283      0.633074
59
Coordinates from ORCA-job Apixaban_COSMORS_DMSO_Opt_KeepDens.solute_cpcm E -1543.059646614121
  C      23.880490    -17.487916     -0.220602
  C      24.040373    -18.761408      0.613782
  C      25.383173    -19.466951      0.492293
  N      26.430805    -18.769591     -0.041931
  C      26.347077    -17.397981     -0.600429
  C      25.137692    -16.632423     -0.078952
  C      27.704613    -19.427286     -0.190626
  C      28.509188    -19.664503      0.931816
  C      29.751527    -20.282246      0.788734
  C      30.210847    -20.649810     -0.487476
  C      29.408394    -20.400652     -1.610530
  C      28.156069    -19.797685     -1.460290
  N      31.468053    -21.315504     -0.641719
  C      31.542222    -22.439625     -1.614460
  C      32.502372    -23.543474     -1.163178
  C      33.798407    -22.909759     -0.776624
  C      33.813357    -21.595013     -0.323390
  C      32.617642    -20.756897     -0.107521
  O      25.513009    -20.643224      0.887702
  O      32.641071    -19.679694      0.507724
  C      35.151295    -23.315954     -0.735691
  N      35.942094    -22.307309     -0.300265
  N      35.121198    -21.272785     -0.046773
  C      35.676364    -20.032539      0.432921
  C      35.722567    -24.640273     -1.103710
  N      37.072349    -24.720267     -1.087903
  O      34.984941    -25.600449     -1.396169
  C      35.762254    -19.799364      1.811429
  C      36.334744    -18.620361      2.274907
  C      36.829418    -17.667011      1.362197
  C      36.743176    -17.907877     -0.018708
  C      36.165388    -19.097246     -0.477690
  O      37.379201    -16.546432      1.914123
  C      37.896336    -15.539927      1.023461
  H      23.731188    -17.749788     -1.281492
  H      22.985880    -16.937121      0.104825
  H      23.917939    -18.529947      1.686585
  H      23.270668    -19.508730      0.371337
  H      27.282144    -16.884696     -0.334166
  H      26.309110    -17.463609     -1.701196
  H      25.292883    -16.367055      0.980345
  H      25.052684    -15.692568     -0.643958
  H      28.149170    -19.376676      1.920796
  H      30.362610    -20.493011      1.665557
  H      29.757769    -20.679291     -2.605182
  H      27.529375    -19.615925     -2.334935
  H      30.527234    -22.838180     -1.720853
  H      31.863460    -22.050760     -2.595159
  H      32.079143    -24.101482     -0.310105
  H      32.630662    -24.261229     -1.983820
  H      37.644011    -23.907841     -0.875441
  H      37.527867    -25.593316     -1.337698
  H      35.382193    -20.543278      2.513487
  H      36.413512    -18.422133      3.344996
  H      37.122280    -17.185631     -0.740003
  H      36.097696    -19.292881     -1.548978
  H      37.103776    -15.152183      0.365544
  H      38.266774    -14.736962      1.669322
  H      38.723005    -15.938155      0.415385
59
Coordinates from ORCA-job Apixaban_COSMORS_DMSO_Opt_KeepDens.solute_cpcm E -1543.059819183670
  C      23.911869    -17.463229     -0.260060
  C      24.027962    -18.783728      0.504766
  C      25.374344    -19.483737      0.403390
  N      26.443686    -18.759295     -0.038817
  C      26.397506    -17.349209     -0.492710
  C      25.156399    -16.617778      0.004494
  C      27.718782    -19.417922     -0.185903
  C      28.526099    -19.650551      0.935133
  C      29.767349    -20.270874      0.791140
  C      30.220936    -20.647178     -0.484721
  C      29.414818    -20.402272     -1.606915
  C      28.164892    -19.795061     -1.455559
  N      31.475541    -21.316393     -0.640360
  C      31.547452    -22.440258     -1.613339
  C      32.499406    -23.549606     -1.157593
  C      33.797972    -22.923245     -0.767134
  C      33.818954    -21.605806     -0.322196
  C      32.627259    -20.763497     -0.105414
  O      25.487286    -20.684896      0.727282
  O      32.654809    -19.687821      0.513260
  C      35.148008    -23.338968     -0.710020
  N      35.941934    -22.333403     -0.273711
  N      35.126399    -21.291168     -0.035795
  C      35.685707    -20.048591      0.432733
  C      35.713503    -24.669420     -1.063708
  N      37.060902    -24.763807     -1.016625
  O      34.972984    -25.623059     -1.373376
  C      35.885533    -19.855671      1.805741
  C      36.458353    -18.671920      2.257408
  C      36.839823    -17.674392      1.337742
  C      36.639903    -17.875085     -0.038143
  C      36.063027    -19.069322     -0.485112
  O      37.398639    -16.552056      1.876878
  C      37.796830    -15.499688      0.978461
  H      23.823604    -17.661250     -1.341440
  H      22.998400    -16.932703      0.045748
  H      23.849506    -18.618591      1.581752
  H      23.272307    -19.513198      0.177825
  H      27.312715    -16.861356     -0.127076
  H      26.434064    -17.331849     -1.595374
  H      25.248872    -16.418536      1.085255
  H      25.100531    -15.644912     -0.505151
  H      28.168489    -19.356534      1.923169
  H      30.380424    -20.480217      1.666670
  H      29.760425    -20.686067     -2.601270
  H      27.534649    -19.613958     -2.327834
  H      30.531118    -22.833804     -1.724297
  H      31.874912    -22.053577     -2.592742
  H      32.070260    -24.104431     -0.305543
  H      32.626189    -24.268493     -1.977460
  H      37.636402    -23.955152     -0.800211
  H      37.511399    -25.639268     -1.266879
  H      35.590592    -20.632953      2.512332
  H      36.622617    -18.502173      3.322559
  H      36.931399    -17.118610     -0.764933
  H      35.906934    -19.233988     -1.552245
  H      36.935543    -15.120912      0.407551
  H      38.196598    -14.703555      1.615151
  H      38.577925    -15.846890      0.284877
59
Coordinates from ORCA-job Apixaban_COSMORS_DMSO_Opt_KeepDens.solute_cpcm E -1543.060085576973
  C      23.975961    -17.406015     -0.311794
  C      24.023026    -18.795528      0.327933
  C      25.370428    -19.496128      0.257633
  N      26.467105    -18.744717     -0.040832
  C      26.474738    -17.290964     -0.320685
  C      25.194678    -16.602494      0.140128
  C      27.741862    -19.409240     -0.186164
  C      28.547068    -19.638885      0.935806
  C      29.786009    -20.265565      0.794373
  C      30.235387    -20.650199     -0.480597
  C      29.428936    -20.409086     -1.604172
  C      28.182250    -19.794821     -1.454631
  N      31.487332    -21.324279     -0.635551
  C      31.556386    -22.451132     -1.605332
  C      32.497697    -23.566590     -1.141136
  C      33.799834    -22.948635     -0.748541
  C      33.828401    -21.626102     -0.319859
  C      32.641497    -20.778907     -0.098475
  O      25.460294    -20.724714      0.471423
  O      32.675861    -19.707481      0.527596
  C      35.145562    -23.376247     -0.667710
  N      35.943693    -22.371613     -0.236596
  N      35.134780    -21.319087     -0.024029
  C      35.696119    -20.069230      0.424148
  C      35.701761    -24.717077     -0.996810
  N      37.046249    -24.828457     -0.917742
  O      34.956027    -25.665145     -1.311685
  C      36.068267    -19.926579      1.767071
  C      36.638522    -18.734017      2.199292
  C      36.842357    -17.677134      1.289455
  C      36.468977    -17.827486     -0.056705
  C      35.897849    -19.031512     -0.484609
  O      37.412272    -16.550196      1.807223
  C      37.627258    -15.435253      0.922082
  H      23.980444    -17.497733     -1.410939
  H      23.040752    -16.897801     -0.035233
  H      23.758801    -18.735778      1.398077
  H      23.292889    -19.479988     -0.129218
  H      27.352427    -16.865984      0.188533
  H      26.622236    -17.143170     -1.404401
  H      25.194058    -16.515169      1.239531
  H      25.182740    -15.582265     -0.269969
  H      28.187784    -19.339054      1.921908
  H      30.398652    -20.476132      1.669754
  H      29.773468    -20.700093     -2.596796
  H      27.548867    -19.612925     -2.324673
  H      30.537952    -22.837754     -1.720885
  H      31.892391    -22.070113     -2.583980
  H      32.060921    -24.114975     -0.288783
  H      32.621457    -24.289585     -1.957974
  H      37.628198    -24.020969     -0.714770
  H      37.490184    -25.707716     -1.166470
  H      35.906843    -20.749392      2.465538
  H      36.934816    -18.601257      3.240879
  H      36.623424    -17.025062     -0.776152
  H      35.608924    -19.157824     -1.529086
  H      36.677560    -15.083943      0.490837
  H      38.065136    -14.645901      1.541953
  H      38.325371    -15.700785      0.113460
59
Coordinates from ORCA-job Apixaban_COSMORS_DMSO_Opt_KeepDens.solute_cpcm E -1543.060416490446
  C      24.027928    -17.343760     -0.317713
  C      24.031191    -18.771813      0.231489
  C      25.368385    -19.489006      0.154772
  N      26.486416    -18.740002     -0.052380
  C      26.528250    -17.269523     -0.218357
  C      25.238845    -16.592496      0.233796
  C      27.754271    -19.415349     -0.197462
  C      28.557049    -19.652489      0.923698
  C      29.793622    -20.282122      0.780854
  C      30.242338    -20.667223     -0.493453
  C      29.435996    -20.422891     -1.616261
  C      28.193842    -19.801164     -1.466291
  N      31.494093    -21.339615     -0.647992
  C      31.567858    -22.468640     -1.614553
  C      32.504207    -23.583799     -1.139310
  C      33.804908    -22.967186     -0.741037
  C      33.834474    -21.640995     -0.324656
  C      32.647537    -20.793471     -0.110421
  O      25.432634    -20.730578      0.288395
  O      32.679280    -19.723706      0.518055
  C      35.146296    -23.400675     -0.636487
  N      35.944549    -22.394576     -0.209570
  N      35.138806    -21.335617     -0.018569
  C      35.700259    -20.082923      0.414681
  C      35.702556    -24.745586     -0.941959
  N      37.042900    -24.867474     -0.819749
  O      34.959160    -25.690023     -1.272830
  C      36.197393    -19.968716      1.718818
  C      36.764127    -18.769140      2.135722
  C      36.834630    -17.675427      1.251278
  C      36.337408    -17.797954     -0.057282
  C      35.774745    -19.009526     -0.471418
  O      37.405893    -16.542378      1.754250
  C      37.486375    -15.388119      0.898135
  H      24.073740    -17.364211     -1.419322
  H      23.090028    -16.838927     -0.044298
  H      23.733729    -18.776272      1.294216
  H      23.305284    -19.412560     -0.290803
  H      27.386410    -16.899330      0.362274
  H      26.730577    -17.045506     -1.280221
  H      25.193009    -16.577397      1.335310
  H      25.259022    -15.547527     -0.107996
  H      28.199855    -19.353759      1.910703
  H      30.405658    -20.493604      1.656237
  H      29.778981    -20.711509     -2.610106
  H      27.563254    -19.611144     -2.336286
  H      30.550022    -22.855000     -1.735918
  H      31.910726    -22.090364     -2.591753
  H      32.061191    -24.127026     -0.287089
  H      32.631678    -24.310483     -1.952171
  H      37.624054    -24.063330     -0.601861
  H      37.486993    -25.751047     -1.052190
  H      36.135991    -20.818779      2.399818
  H      37.156220    -18.657994      3.147586
  H      36.389321    -16.967619     -0.759013
  H      35.390097    -19.113836     -1.486946
  H      36.484860    -15.063277      0.577622
  H      37.952646    -14.603724      1.503257
  H      38.109174    -15.593697      0.014405
59
Coordinates from ORCA-job Apixaban_COSMORS_DMSO_Opt_KeepDens.solute_cpcm E -1543.060746176259
  C      24.064174    -17.273133     -0.262077
  C      24.042290    -18.726509      0.213801
  C      25.357075    -19.472800      0.075186
  N      26.500449    -18.747574     -0.087472
  C      26.567188    -17.269077     -0.186423
  C      25.300285    -16.584100      0.310842
  C      27.753023    -19.438442     -0.237968
  C      28.557139    -19.687227      0.878905
  C      29.791091    -20.316085      0.730134
  C      30.242000    -20.696126     -0.542690
  C      29.432771    -20.448513     -1.661078
  C      28.194164    -19.824046     -1.507609
  N      31.497159    -21.357617     -0.695691
  C      31.584996    -22.494044     -1.651363
  C      32.518822    -23.599542     -1.150540
  C      33.812156    -22.975993     -0.742478
  C      33.838539    -21.642826     -0.348515
  C      32.645675    -20.798354     -0.161250
  O      25.381528    -20.719636      0.140810
  O      32.662015    -19.726448      0.461751
  C      35.146076    -23.413456     -0.604532
  N      35.940904    -22.404606     -0.179199
  N      35.138437    -21.337857     -0.018421
  C      35.701414    -20.090192      0.406424
  C      35.710657    -24.759162     -0.873504
  N      37.043147    -24.887491     -0.685265
  O      34.979907    -25.698913     -1.241535
  C      36.309926    -19.999926      1.663047
  C      36.874935    -18.796449      2.068761
  C      36.828861    -17.672880      1.225011
  C      36.224338    -17.772170     -0.039286
  C      35.667724    -18.986578     -0.444267
  O      37.400268    -16.536493      1.719451
  C      37.368301    -15.351805      0.903936
  H      24.092384    -17.237173     -1.363416
  H      23.143720    -16.760752      0.052984
  H      23.771683    -18.772137      1.282490
  H      23.287324    -19.324001     -0.317094
  H      27.438399    -16.941024      0.399735
  H      26.759463    -17.004908     -1.241128
  H      25.264492    -16.621053      1.411501
  H      25.347592    -15.524901      0.018785
  H      28.209007    -19.395695      1.870824
  H      30.404334    -20.522341      1.605975
  H      29.770451    -20.729818     -2.658947
  H      27.569902    -19.626618     -2.379845
  H      30.570400    -22.886615     -1.780459
  H      31.936853    -22.121863     -2.627542
  H      32.066547    -24.131938     -0.296742
  H      32.659233    -24.335737     -1.952291
  H      37.611029    -24.090485     -0.413002
  H      37.493170    -25.777968     -0.875201
  H      36.336085    -20.869996      2.319234
  H      37.351041    -18.705811      3.045771
  H      36.187699    -16.919424     -0.714695
  H      35.202640    -19.071878     -1.427007
  H      36.331847    -15.047764      0.692817
  H      37.868931    -14.576810      1.493167
  H      37.909086    -15.509105     -0.041165
59
Coordinates from ORCA-job Apixaban_COSMORS_DMSO_Opt_KeepDens.solute_cpcm E -1543.060844325564
  C      24.100319    -17.239999     -0.311697
  C      24.033222    -18.730445      0.026418
  C      25.354862    -19.471505     -0.073133
  N      26.503936    -18.740544     -0.087720
  C      26.587483    -17.262937     -0.016842
  C      25.281254    -16.617181      0.429725
  C      27.763514    -19.424943     -0.235771
  C      28.567184    -19.664513      0.883369
  C      29.802687    -20.293888      0.738750
  C      30.252147    -20.680880     -0.533116
  C      29.442854    -20.440033     -1.653894
  C      28.203395    -19.815815     -1.503691
  N      31.505741    -21.346084     -0.685650
  C      31.589816    -22.483896     -1.639887
  C      32.510520    -23.596551     -1.130600
  C      33.808168    -22.982468     -0.721005
  C      33.845670    -21.643917     -0.345444
  C      32.656639    -20.795119     -0.147230
  O      25.378131    -20.720210     -0.119756
  O      32.678053    -19.731355      0.489970
  C      35.135498    -23.434409     -0.559098
  N      35.937780    -22.428047     -0.141731
  N      35.146578    -21.349190     -0.008813
  C      35.720930    -20.097016      0.388989
  C      35.684733    -24.792664     -0.800969
  N      37.009816    -24.939861     -0.577414
  O      34.948219    -25.725746     -1.175117
  C      36.503178    -20.039104      1.548208
  C      37.081152    -18.832993      1.928749
  C      36.876837    -17.675668      1.156211
  C      36.096866    -17.741848     -0.010806
  C      35.527046    -18.958256     -0.392041
  O      37.477353    -16.540212      1.616892
  C      37.285502    -15.325075      0.871097
  H      24.227667    -17.105245     -1.398494
  H      23.156296    -16.748672     -0.035168
  H      23.672828    -18.871012      1.059804
  H      23.324657    -19.269042     -0.619488
  H      27.400504    -17.012414      0.681004
  H      26.882940    -16.890899     -1.013407
  H      25.148126    -16.756860      1.514917
  H      25.353468    -15.535698      0.244572
  H      28.214601    -19.369905      1.873332
  H      30.414921    -20.499699      1.615383
  H      29.781560    -20.728265     -2.649392
  H      27.575737    -19.622875     -2.374973
  H      30.572749    -22.867622     -1.775442
  H      31.952291    -22.117189     -2.614252
  H      32.049833    -24.121613     -0.276585
  H      32.647022    -24.337614     -1.928760
  H      37.585539    -24.145993     -0.312363
  H      37.451249    -25.836358     -0.759047
  H      36.649752    -20.935783      2.151095
  H      37.689202    -18.766369      2.831810
  H      35.936513    -16.862037     -0.631518
  H      34.929537    -19.018178     -1.302432
  H      36.219271    -15.056335      0.823605
  H      37.837508    -14.554065      1.418351
  H      37.689894    -15.419764     -0.147859
59
Coordinates from ORCA-job Apixaban_COSMORS_DMSO_Opt_KeepDens.solute_cpcm E -1543.060977371593
  C      24.004561    -17.329584     -0.309625
  C      23.985119    -18.819324      0.040295
  C      25.328635    -19.525162     -0.053239
  N      26.456491    -18.759019     -0.080209
  C      26.491946    -17.277456     -0.052626
  C      25.176200    -16.665339      0.410185
  C      27.736704    -19.405432     -0.231275
  C      28.534570    -19.651987      0.892755
  C      29.780130    -20.264961      0.750767
  C      30.246050    -20.625413     -0.524141
  C      29.447307    -20.369366     -1.649449
  C      28.197099    -19.764534     -1.501224
  N      31.501472    -21.289600     -0.677984
  C      31.585381    -22.413393     -1.648515
  C      32.492488    -23.538926     -1.145526
  C      33.791380    -22.937945     -0.719947
  C      33.838627    -21.602609     -0.331137
  C      32.649702    -20.752058     -0.119593
  O      25.385927    -20.772623     -0.088834
  O      32.667467    -19.702358      0.540887
  C      35.113678    -23.405867     -0.556596
  N      35.924557    -22.410493     -0.129509
  N      35.144549    -21.323505      0.008211
  C      35.741762    -20.081592      0.409137
  C      35.647300    -24.771006     -0.807803
  N      36.970351    -24.933697     -0.582505
  O      34.900926    -25.694445     -1.186422
  C      36.481114    -20.029289      1.598077
  C      37.091661    -18.839038      1.978540
  C      36.973733    -17.692665      1.169927
  C      36.239670    -17.753139     -0.026781
  C      35.629949    -18.952608     -0.403853
  O      37.603388    -16.571766      1.626646
  C      37.502684    -15.376771      0.830763
  H      24.115392    -17.199460     -1.399207
  H      23.049604    -16.864448     -0.025194
  H      23.637486    -18.959295      1.078719
  H      23.288996    -19.384698     -0.595976
  H      27.314834    -16.981831      0.614545
  H      26.746394    -16.922039     -1.065746
  H      25.064565    -16.795888      1.499699
  H      25.213291    -15.584371      0.212244
  H      28.166887    -19.383377      1.884902
  H      30.383218    -20.484302      1.630728
  H      29.798921    -20.639119     -2.645605
  H      27.575174    -19.569764     -2.376850
  H      30.566379    -22.785957     -1.799355
  H      31.961197    -22.036616     -2.614123
  H      32.020910    -24.070716     -0.301288
  H      32.630454    -24.272568     -1.950458
  H      37.551721    -24.150794     -0.297464
  H      37.400942    -25.837503     -0.753444
  H      36.561915    -20.916095      2.227751
  H      37.662065    -18.777802      2.906507
  H      36.146869    -16.882379     -0.673645
  H      35.073805    -19.008437     -1.339997
  H      36.453224    -15.064290      0.720430
  H      38.061796    -14.610440      1.377698
  H      37.952127    -15.526725     -0.162623
59
Coordinates from ORCA-job Apixaban_COSMORS_DMSO_Opt_KeepDens.solute_cpcm E -1543.061047690176
  C      24.005772    -17.317810     -0.283738
  C      23.985168    -18.813508      0.038257
  C      25.324513    -19.523158     -0.079442
  N      26.458020    -18.763078     -0.092863
  C      26.495279    -17.280624     -0.048307
  C      25.186506    -16.671787      0.437113
  C      27.734571    -19.411445     -0.246772
  C      28.529794    -19.667073      0.876724
  C      29.776290    -20.276162      0.733124
  C      30.246026    -20.628421     -0.542005
  C      29.449680    -20.365426     -1.666891
  C      28.199894    -19.760876     -1.517902
  N      31.503102    -21.288865     -0.695723
  C      31.590186    -22.418556     -1.658990
  C      32.494590    -23.541018     -1.144003
  C      33.791320    -22.937924     -0.715885
  C      33.839497    -21.599311     -0.338840
  C      32.649289    -20.748627     -0.136743
  O      25.373091    -20.769731     -0.133924
  O      32.664942    -19.693456      0.514449
  C      35.111276    -23.406919     -0.543322
  N      35.921649    -22.411142     -0.116843
  N      35.143003    -21.321866      0.011170
  C      35.740471    -20.082134      0.408652
  C      35.644892    -24.773495     -0.780428
  N      36.967251    -24.934985     -0.550282
  O      34.901315    -25.696060     -1.166092
  C      36.490377    -20.029359      1.590633
  C      37.104005    -18.839462      1.965585
  C      36.973170    -17.691165      1.162805
  C      36.226212    -17.751630     -0.026035
  C      35.617177    -18.951620     -0.399992
  O      37.605090    -16.570148      1.617362
  C      37.497069    -15.370333      0.829139
  H      24.106293    -17.167557     -1.371492
  H      23.055155    -16.855469      0.019222
  H      23.648360    -18.970238      1.077816
  H      23.280342    -19.365024     -0.600267
  H      27.326351    -16.994428      0.612618
  H      26.737354    -16.913689     -1.060702
  H      25.084224    -16.821028      1.524741
  H      25.226644    -15.587435      0.257837
  H      28.162393    -19.405109      1.870400
  H      30.378022    -20.497209      1.613500
  H      29.804081    -20.625813     -2.664633
  H      27.583186    -19.558142     -2.394898
  H      30.571627    -22.791407     -1.811975
  H      31.970308    -22.047415     -2.625011
  H      32.018681    -24.067200     -0.298755
  H      32.636812    -24.279855     -1.943373
  H      37.545349    -24.152952     -0.256311
  H      37.398247    -25.840940     -0.708501
  H      36.581662    -20.916950      2.217267
  H      37.685460    -18.780388      2.886683
  H      36.122846    -16.879899     -0.669621
  H      35.051661    -19.006130     -1.330661
  H      36.446654    -15.056483      0.733006
  H      38.063354    -14.608322      1.374553
  H      37.935188    -15.515627     -0.169786
59
Coordinates from ORCA-job Apixaban_COSMORS_DMSO_Opt_KeepDens.solute_cpcm E -1543.061067374395
  C      24.008454    -17.312997     -0.274812
  C      23.984658    -18.815947      0.011113
  C      25.324549    -19.524164     -0.110207
  N      26.459006    -18.765062     -0.095348
  C      26.495581    -17.283310     -0.022643
  C      25.184496    -16.684982      0.469267
  C      27.735900    -19.411239     -0.251979
  C      28.529405    -19.672276      0.871361
  C      29.776966    -20.278836      0.726614
  C      30.248792    -20.623493     -0.549623
  C      29.454683    -20.354383     -1.674499
  C      28.204024    -19.751986     -1.524411
  N      31.506806    -21.281957     -0.705449
  C      31.593663    -22.414633     -1.665311
  C      32.493595    -23.538072     -1.144090
  C      33.789858    -22.936693     -0.712303
  C      33.841234    -21.596094     -0.342590
  C      32.651864    -20.743196     -0.144308
  O      25.372069    -20.769149     -0.192514
  O      32.667603    -19.688152      0.507204
  C      35.107363    -23.409394     -0.530843
  N      35.918998    -22.414680     -0.104369
  N      35.143238    -21.322185      0.014828
  C      35.742294    -20.082604      0.406640
  C      35.636736    -24.779199     -0.757839
  N      36.957333    -24.944352     -0.520547
  O      34.889489    -25.703039     -1.133225
  C      36.509582    -20.031133      1.577620
  C      37.126341    -18.841184      1.946602
  C      36.978738    -17.690162      1.150746
  C      36.212107    -17.748677     -0.025603
  C      35.601517    -18.949252     -0.394948
  O      37.615716    -16.569403      1.599122
  C      37.492919    -15.366024      0.817986
  H      24.117187    -17.137136     -1.357844
  H      23.055764    -16.857624      0.032248
  H      23.638575    -18.997234      1.043633
  H      23.285336    -19.351320     -0.646930
  H      27.324438    -17.010183      0.646468
  H      26.740889    -16.896893     -1.027104
  H      25.075519    -16.860007      1.552272
  H      25.225933    -15.596581      0.316087
  H      28.160586    -19.415527      1.865830
  H      30.377959    -20.503158      1.606723
  H      29.812406    -20.607759     -2.672936
  H      27.589665    -19.543325     -2.401552
  H      30.574456    -22.784549     -1.821019
  H      31.978493    -22.047089     -2.630796
  H      32.013192    -24.061849     -0.299878
  H      32.637835    -24.278940     -1.941289
  H      37.537290    -24.163116     -0.228048
  H      37.384551    -25.854796     -0.662791
  H      36.613950    -20.920801      2.199171
  H      37.722835    -18.784637      2.858191
  H      36.094825    -16.874559     -0.663658
  H      35.021072    -19.001060     -1.316634
  H      36.440536    -15.053562      0.741007
  H      38.067208    -14.605843      1.357493
  H      37.914664    -15.506427     -0.188639
59
Coordinates from ORCA-job Apixaban_COSMORS_DMSO_Opt_KeepDens.solute_cpcm E -1543.061076683428
  C      24.009459    -17.312060     -0.270867
  C      23.984630    -18.818818     -0.005497
  C      25.325679    -19.525446     -0.125599
  N      26.459615    -18.766067     -0.093932
  C      26.494691    -17.284901     -0.010756
  C      25.182461    -16.693163      0.485832
  C      27.737376    -19.410743     -0.251849
  C      28.528779    -19.676335      0.871925
  C      29.776978    -20.281859      0.726971
  C      30.250886    -20.619475     -0.550317
  C      29.459607    -20.344495     -1.675724
  C      28.207912    -19.744133     -1.525264
  N      31.509683    -21.276669     -0.708188
  C      31.596013    -22.410093     -1.667372
  C      32.492676    -23.535561     -1.144340
  C      33.788584    -22.936162     -0.708677
  C      33.842017    -21.595166     -0.340689
  C      32.653400    -20.740766     -0.143276
  O      25.374410    -20.769523     -0.219477
  O      32.669552    -19.686788      0.510328
  C      35.104629    -23.411598     -0.521286
  N      35.917439    -22.417558     -0.095483
  N      35.143251    -21.323380      0.019865
  C      35.742871    -20.082824      0.407526
  C      35.629852    -24.784115     -0.742719
  N      36.952477    -24.949247     -0.517208
  O      34.879050    -25.708163     -1.110509
  C      36.512228    -20.028901      1.577309
  C      37.129408    -18.838282      1.943162
  C      36.979739    -17.688554      1.145556
  C      36.209869    -17.749113     -0.028422
  C      35.598978    -18.950630     -0.395015
  O      37.618527    -16.567341      1.590005
  C      37.493624    -15.365098      0.807160
  H      24.123047    -17.121704     -1.350950
  H      23.055126    -16.861383      0.038050
  H      23.630637    -19.014979      1.021621
  H      23.290762    -19.344973     -0.676712
  H      27.323880    -17.016439      0.659773
  H      26.738914    -16.890282     -1.012321
  H      25.070785    -16.882943      1.566072
  H      25.223187    -15.602775      0.347271
  H      28.157621    -19.423574      1.866566
  H      30.376936    -20.510110      1.606842
  H      29.821209    -20.592222     -2.674216
  H      27.595511    -19.530289     -2.402536
  H      30.576165    -22.776945     -1.825886
  H      31.984566    -22.043744     -2.631800
  H      32.009228    -24.059975     -0.302259
  H      32.638512    -24.275904     -1.941813
  H      37.535926    -24.168037     -0.231700
  H      37.377167    -25.861614     -0.654830
  H      36.618161    -20.917792      2.199732
  H      37.727864    -18.780569      2.853411
  H      36.090119    -16.875560     -0.666959
  H      35.015841    -19.002971     -1.315001
  H      36.441091    -15.052555      0.732865
  H      38.069724    -14.604248      1.343765
  H      37.912408    -15.507270     -0.200511
59
Coordinates from ORCA-job Apixaban_COSMORS_DMSO_Opt_KeepDens.solute_cpcm E -1543.061081452788
  C      24.006849    -17.315307     -0.265651
  C      23.984834    -18.822145     -0.000480
  C      25.326646    -19.527192     -0.121544
  N      26.459885    -18.766638     -0.092165
  C      26.492493    -17.285190     -0.017050
  C      25.182299    -16.694568      0.485902
  C      27.738077    -19.410466     -0.251209
  C      28.530010    -19.677041      0.871963
  C      29.778529    -20.281574      0.725868
  C      30.252184    -20.616648     -0.552061
  C      29.460628    -20.340503     -1.676954
  C      28.208419    -19.741544     -1.525402
  N      31.511318    -21.273065     -0.711553
  C      31.597206    -22.406754     -1.670370
  C      32.492536    -23.533252     -1.147068
  C      33.788137    -22.934918     -0.709234
  C      33.842559    -21.594113     -0.340890
  C      32.654641    -20.738258     -0.145534
  O      25.376866    -20.771331     -0.212859
  O      32.670915    -19.684627      0.508855
  C      35.103655    -23.411458     -0.520328
  N      35.916765    -22.418516     -0.092874
  N      35.143427    -21.323556      0.021476
  C      35.743118    -20.082792      0.409012
  C      35.626857    -24.784686     -0.741636
  N      36.950372    -24.950466     -0.522090
  O      34.873269    -25.709139     -1.102629
  C      36.503963    -20.026027      1.584253
  C      37.119731    -18.834961      1.950974
  C      36.978093    -17.687909      1.148047
  C      36.217161    -17.751394     -0.031436
  C      35.607080    -18.953250     -0.398499
  O      37.615430    -16.566278      1.593264
  C      37.497819    -15.366646      0.805527
  H      24.115879    -17.124466     -1.346150
  H      23.053074    -16.866029      0.046957
  H      23.631732    -19.019844      1.026581
  H      23.291358    -19.349099     -0.671521
  H      27.326042    -17.011789      0.645996
  H      26.728440    -16.894656     -1.022224
  H      25.076143    -16.884659      1.566657
  H      25.220734    -15.604237      0.346763
  H      28.158549    -19.425826      1.866865
  H      30.379079    -20.510887      1.605051
  H      29.822857    -20.586789     -2.675574
  H      27.595610    -19.526795     -2.402161
  H      30.577070    -22.772205     -1.830025
  H      31.987206    -22.040885     -2.634413
  H      32.007948    -24.058717     -0.306346
  H      32.639437    -24.272720     -1.945167
  H      37.535458    -24.170099     -0.237756
  H      37.372657    -25.864630     -0.654922
  H      36.603677    -20.913046      2.210346
  H      37.710982    -18.774868      2.865747
  H      36.103418    -16.879789     -0.673731
  H      35.030557    -19.007468     -1.322473
  H      36.446396    -15.052449      0.722888
  H      38.071484    -14.604887      1.343447
  H      37.923182    -15.512831     -0.198816
59
Coordinates from ORCA-job Apixaban_COSMORS_DMSO_Opt_KeepDens.solute_cpcm E -1543.061083280107
  C      24.006358    -17.315583     -0.264525
  C      23.984616    -18.822411      0.000585
  C      25.326538    -19.527253     -0.119738
  N      26.459775    -18.766778     -0.090743
  C      26.492071    -17.285408     -0.018683
  C      25.182578    -16.694496      0.485676
  C      27.738033    -19.410753     -0.249869
  C      28.530207    -19.677907      0.872948
  C      29.778805    -20.282058      0.726196
  C      30.252130    -20.616656     -0.551954
  C      29.459994    -20.340527     -1.676522
  C      28.207955    -19.741503     -1.524403
  N      31.511377    -21.272672     -0.711994
  C      31.597818    -22.405618     -1.671480
  C      32.492892    -23.532517     -1.148611
  C      33.788279    -22.934485     -0.709810
  C      33.842577    -21.593955     -0.340637
  C      32.654618    -20.738194     -0.145379
  O      25.377084    -20.771512     -0.209917
  O      32.670477    -19.685033      0.509845
  C      35.103700    -23.411142     -0.520376
  N      35.916687    -22.418517     -0.092312
  N      35.143501    -21.323442      0.021893
  C      35.743235    -20.082480      0.409641
  C      35.626374    -24.784453     -0.741935
  N      36.950294    -24.950459     -0.525047
  O      34.871922    -25.708987     -1.100957
  C      36.500804    -20.024714      1.586875
  C      37.115940    -18.833393      1.953967
  C      36.977733    -17.687518      1.148798
  C      36.220962    -17.752254     -0.033270
  C      35.611059    -18.954199     -0.400297
  O      37.613854    -16.565456      1.594614
  C      37.498761    -15.367104      0.804963
  H      24.114183    -17.124507     -1.345111
  H      23.052823    -16.866332      0.048855
  H      23.630397    -19.020943      1.027055
  H      23.291902    -19.349547     -0.671140
  H      27.326762    -17.010180      0.642171
  H      26.725923    -16.896436     -1.024985
  H      25.077679    -16.884678      1.566563
  H      25.220760    -15.604264      0.346084
  H      28.158488    -19.427391      1.867938
  H      30.379644    -20.511902      1.605010
  H      29.821958    -20.586866     -2.675205
  H      27.594505    -19.526806     -2.400737
  H      30.577816    -22.770993     -1.832076
  H      31.988392    -22.039188     -2.635096
  H      32.008199    -24.058983     -0.308611
  H      32.640342    -24.271137     -1.947394
  H      37.535674    -24.170802     -0.239426
  H      37.371124    -25.865634     -0.655415
  H      36.597761    -20.910949      2.214530
  H      37.704016    -18.771930      2.870677
  H      36.110118    -16.881693     -0.677435
  H      35.037669    -19.009575     -1.326123
  H      36.447703    -15.052645      0.718470
  H      38.070818    -14.604505      1.343432
  H      37.927079    -15.514560     -0.197927
59
Coordinates from ORCA-job Apixaban_COSMORS_DMSO_Opt_KeepDens.solute_cpcm E -1543.061083356790
  C      24.006829    -17.314637     -0.264181
  C      23.984750    -18.821668     -0.000351
  C      25.326579    -19.526644     -0.120301
  N      26.460016    -18.766568     -0.090755
  C      26.492614    -17.285296     -0.018378
  C      25.183285    -16.694287      0.486314
  C      27.738190    -19.410796     -0.249752
  C      28.530830    -19.677113      0.872864
  C      29.779319    -20.281414      0.725945
  C      30.252124    -20.617078     -0.552117
  C      29.459296    -20.342019     -1.676533
  C      28.207427    -19.742810     -1.524269
  N      31.511287    -21.273097     -0.712062
  C      31.598013    -22.406024     -1.671462
  C      32.493054    -23.532840     -1.148407
  C      33.788475    -22.934775     -0.709743
  C      33.842708    -21.594119     -0.341025
  C      32.654741    -20.738455     -0.145772
  O      25.376918    -20.770978     -0.210667
  O      32.670650    -19.685079      0.509112
  C      35.103916    -23.411302     -0.520206
  N      35.916844    -22.418558     -0.092437
  N      35.143661    -21.323483      0.021534
  C      35.743307    -20.082464      0.409506
  C      35.626574    -24.784618     -0.741437
  N      36.950777    -24.950523     -0.526183
  O      34.871833    -25.709323     -1.099512
  C      36.501751    -20.025028      1.586117
  C      37.116822    -18.833640      1.953183
  C      36.977579    -17.687492      1.148620
  C      36.220138    -17.751972     -0.033081
  C      35.610379    -18.953976     -0.400054
  O      37.613350    -16.565261      1.594623
  C      37.497030    -15.366628      0.805799
  H      24.114395    -17.122598     -1.344620
  H      23.053447    -16.865344      0.049646
  H      23.629395    -19.021362      1.025490
  H      23.292531    -19.348228     -0.673072
  H      27.327327    -17.010120      0.642476
  H      26.726496    -16.896023     -1.024572
  H      25.078360    -16.885267      1.567066
  H      25.221754    -15.604006      0.347267
  H      28.159287    -19.426012      1.867788
  H      30.380527    -20.510707      1.604647
  H      29.820638    -20.589455     -2.675175
  H      27.593247    -19.529049     -2.400326
  H      30.578112    -22.771625     -1.832254
  H      31.988679    -22.039655     -2.635067
  H      32.008507    -24.059369     -0.308374
  H      32.640483    -24.271406     -1.947273
  H      37.536096    -24.171280     -0.239323
  H      37.370736    -25.866377     -0.654571
  H      36.599387    -20.911524      2.213322
  H      37.705591    -18.772097      2.869443
  H      36.108730    -16.881335     -0.677013
  H      35.036553    -19.009441     -1.325613
  H      36.445722    -15.052785      0.719852
  H      38.068725    -14.603815      1.344386
  H      37.924948    -15.513041     -0.197419
59
Coordinates from ORCA-job Apixaban_COSMORS_DMSO_Opt_KeepDens.solute_cpcm E -1543.061083884660
  C      24.007642    -17.313019     -0.263160
  C      23.985034    -18.820431     -0.001614
  C      25.326630    -19.525809     -0.121467
  N      26.460415    -18.766313     -0.091477
  C      26.493577    -17.285112     -0.017853
  C      25.184584    -16.694125      0.487758
  C      27.738365    -19.410949     -0.250373
  C      28.531562    -19.675859      0.872120
  C      29.779884    -20.280498      0.725234
  C      30.252052    -20.617908     -0.552621
  C      29.458489    -20.344341     -1.676954
  C      28.206800    -19.744856     -1.524718
  N      31.511116    -21.273957     -0.712222
  C      31.598201    -22.407014     -1.671407
  C      32.493351    -23.533567     -1.148040
  C      33.788801    -22.935295     -0.709687
  C      33.842839    -21.594404     -0.341712
  C      32.654798    -20.738909     -0.146461
  O      25.376371    -20.770205     -0.212196
  O      32.670793    -19.685162      0.507773
  C      35.104293    -23.411550     -0.520021
  N      35.917094    -22.418461     -0.092788
  N      35.143820    -21.323448      0.020686
  C      35.743266    -20.082425      0.408952
  C      35.627141    -24.784882     -0.740507
  N      36.951757    -24.950317     -0.527378
  O      34.872150    -25.710056     -1.096930
  C      36.502708    -20.025471      1.584875
  C      37.117707    -18.834054      1.952001
  C      36.977010    -17.687438      1.148403
  C      36.218646    -17.751468     -0.032791
  C      35.609165    -18.953543     -0.399901
  O      37.612447    -16.565077      1.594689
  C      37.494438    -15.365930      0.807058
  H      24.114690    -17.119356     -1.343358
  H      23.054603    -16.863709      0.051730
  H      23.628591    -19.021737      1.023544
  H      23.293133    -19.345855     -0.675575
  H      27.328424    -17.010588      0.643100
  H      26.727428    -16.894961     -1.023721
  H      25.079838    -16.886488      1.568281
  H      25.223502    -15.603700      0.349931
  H      28.160450    -19.423478      1.866893
  H      30.381551    -20.508696      1.603915
  H      29.819133    -20.593170     -2.675510
  H      27.591895    -19.532267     -2.400554
  H      30.578435    -22.773022     -1.832249
  H      31.988831    -22.040778     -2.635072
  H      32.008990    -24.059990     -0.307837
  H      32.640675    -24.272228     -1.946864
  H      37.536807    -24.171484     -0.238861
  H      37.370775    -25.867069     -0.652418
  H      36.601283    -20.912328      2.211428
  H      37.707490    -18.772605      2.867622
  H      36.106369    -16.880581     -0.676224
  H      35.034670    -19.009005     -1.325062
  H      36.442778    -15.052924      0.722193
  H      38.065871    -14.602983      1.345744
  H      37.921587    -15.511031     -0.196703
59
Coordinates from ORCA-job Apixaban_COSMORS_DMSO_Opt_KeepDens.solute_cpcm E -1543.061085383933
  C      24.007003    -17.313261     -0.262659
  C      23.984619    -18.820935     -0.002610
  C      25.326349    -19.526113     -0.122373
  N      26.460033    -18.766463     -0.092025
  C      26.492946    -17.285276     -0.017285
  C      25.183855    -16.694921      0.488816
  C      27.738100    -19.410828     -0.250848
  C      28.531291    -19.675330      0.871770
  C      29.779698    -20.279870      0.725090
  C      30.251966    -20.617608     -0.552673
  C      29.458434    -20.344324     -1.677112
  C      28.206668    -19.744938     -1.525069
  N      31.510996    -21.273721     -0.712024
  C      31.598179    -22.406710     -1.671302
  C      32.493253    -23.533299     -1.147898
  C      33.788715    -22.935090     -0.709467
  C      33.842748    -21.594153     -0.341589
  C      32.654741    -20.738605     -0.146330
  O      25.376154    -20.770476     -0.213464
  O      32.670838    -19.684774      0.507720
  C      35.104202    -23.411352     -0.519861
  N      35.917016    -22.418201     -0.092676
  N      35.143752    -21.323196      0.020737
  C      35.743277    -20.082258      0.409054
  C      35.627073    -24.784710     -0.740236
  N      36.951912    -24.949869     -0.528274
  O      34.871965    -25.710051     -1.095990
  C      36.502270    -20.025284      1.585278
  C      37.117579    -18.833992      1.952291
  C      36.977557    -17.687520      1.148360
  C      36.219478    -17.751523     -0.033033
  C      35.609712    -18.953487     -0.400055
  O      37.613429    -16.565317      1.594497
  C      37.496343    -15.366316      0.806459
  H      24.113935    -17.118514     -1.342676
  H      23.053941    -16.864379      0.052779
  H      23.627748    -19.023254      1.022213
  H      23.293059    -19.345820     -0.677344
  H      27.327726    -17.011126      0.643900
  H      26.726741    -16.894316     -1.022843
  H      25.079151    -16.888224      1.569173
  H      25.222618    -15.604359      0.351959
  H      28.160158    -19.422696      1.866464
  H      30.381302    -20.507813      1.603880
  H      29.819123    -20.593250     -2.675628
  H      27.591786    -19.532546     -2.400966
  H      30.578441    -22.772764     -1.832227
  H      31.988867    -22.040412     -2.634916
  H      32.008789    -24.059680     -0.307726
  H      32.640520    -24.271964     -1.946735
  H      37.536763    -24.171337     -0.238542
  H      37.370515    -25.867065     -0.651465
  H      36.600386    -20.912021      2.212064
  H      37.707212    -18.772511      2.868012
  H      36.107719    -16.880751     -0.676719
  H      35.035472    -19.009057     -1.325375
  H      36.444842    -15.052955      0.720943
  H      38.067781    -14.603440      1.345236
  H      37.923993    -15.511860     -0.197030
59
Coordinates from ORCA-job Apixaban_COSMORS_DMSO_Opt_KeepDens.solute_cpcm E -1543.061086215570
  C      24.007415    -17.311915     -0.262526
  C      23.984162    -18.820400     -0.007313
  C      25.325873    -19.525852     -0.126245
  N      26.459726    -18.766542     -0.093345
  C      26.493082    -17.285581     -0.013479
  C      25.183408    -16.696415      0.492531
  C      27.737798    -19.410923     -0.251845
  C      28.531282    -19.673784      0.871025
  C      29.779715    -20.278453      0.724920
  C      30.251731    -20.617969     -0.552521
  C      29.457968    -20.346137     -1.677150
  C      28.206167    -19.746622     -1.525653
  N      31.510709    -21.274235     -0.711291
  C      31.598033    -22.407246     -1.670582
  C      32.493303    -23.533675     -1.147165
  C      33.788747    -22.935292     -0.708911
  C      33.842587    -21.594241     -0.341309
  C      32.654544    -20.738723     -0.145976
  O      25.375216    -20.770045     -0.219336
  O      32.670712    -19.684784      0.507790
  C      35.104309    -23.411333     -0.519474
  N      35.917051    -22.417889     -0.092589
  N      35.143615    -21.323036      0.020741
  C      35.743130    -20.082093      0.408834
  C      35.627390    -24.784703     -0.739402
  N      36.952737    -24.948955     -0.529872
  O      34.872180    -25.710625     -1.093397
  C      36.503459    -20.025388      1.584256
  C      37.119056    -18.834128      1.950874
  C      36.977993    -17.687434      1.147429
  C      36.218192    -17.751054     -0.032874
  C      35.608163    -18.952989     -0.399586
  O      37.614760    -16.565457      1.592951
  C      37.497205    -15.366120      0.805335
  H      24.115801    -17.113751     -1.341779
  H      23.054150    -16.863700      0.053236
  H      23.625122    -19.025728      1.016170
  H      23.293788    -19.342891     -0.685125
  H      27.326851    -17.014137      0.650091
  H      26.728782    -16.891385     -1.017305
  H      25.077132    -16.892957      1.572145
  H      25.222704    -15.605420      0.359231
  H      28.160549    -19.419637      1.865471
  H      30.381474    -20.505123      1.603929
  H      29.818447    -20.596030     -2.675494
  H      27.591200    -19.535114     -2.401701
  H      30.578363    -22.773561     -1.831328
  H      31.988532    -22.040900     -2.634248
  H      32.008844    -24.059880     -0.306869
  H      32.640434    -24.272490     -1.945888
  H      37.536975    -24.170907     -0.237620
  H      37.370637    -25.867071     -0.648627
  H      36.602556    -20.912289      2.210634
  H      37.709974    -18.772859      2.865784
  H      36.105470    -16.880028     -0.676066
  H      35.032626    -19.008417     -1.324101
  H      36.445620    -15.052879      0.720519
  H      38.068867    -14.603438      1.344133
  H      37.924424    -15.511249     -0.198390
59
Coordinates from ORCA-job Apixaban_COSMORS_DMSO_Opt_KeepDens.solute_cpcm E -1543.061086337109
  C      24.007878    -17.311695     -0.263063
  C      23.984395    -18.819991     -0.006733
  C      25.326011    -19.525640     -0.125483
  N      26.459947    -18.766432     -0.092948
  C      26.493481    -17.285447     -0.013720
  C      25.183826    -16.695836      0.491787
  C      27.737935    -19.411011     -0.251403
  C      28.531418    -19.674068      0.871428
  C      29.779794    -20.278824      0.725281
  C      30.251757    -20.618257     -0.552190
  C      29.458008    -20.346311     -1.676777
  C      28.206259    -19.746679     -1.525242
  N      31.510741    -21.274567     -0.711080
  C      31.597878    -22.407667     -1.670291
  C      32.493380    -23.534009     -1.147050
  C      33.788831    -22.935494     -0.709035
  C      33.842615    -21.594525     -0.341200
  C      32.654558    -20.739042     -0.145844
  O      25.375265    -20.769866     -0.218114
  O      32.670746    -19.685030      0.507845
  C      35.104509    -23.411394     -0.519976
  N      35.917217    -22.417970     -0.093036
  N      35.143651    -21.323223      0.020671
  C      35.743038    -20.082193      0.408775
  C      35.627710    -24.784653     -0.740290
  N      36.953063    -24.948770     -0.530736
  O      34.872599    -25.710612     -1.094390
  C      36.502588    -20.025179      1.584693
  C      37.117872    -18.833819      1.951499
  C      36.977343    -17.687314      1.147682
  C      36.218448    -17.751275     -0.033159
  C      35.608678    -18.953298     -0.400025
  O      37.613610    -16.565188      1.593435
  C      37.496195    -15.366028      0.805519
  H      24.116550    -17.114321     -1.342433
  H      23.054585    -16.863176      0.052171
  H      23.625531    -19.024527      1.016956
  H      23.293875    -19.342845     -0.684112
  H      27.327226    -17.013863      0.649827
  H      26.729366    -16.891776     -1.017711
  H      25.077373    -16.891685      1.571513
  H      25.223272    -15.604928      0.357852
  H      28.160747    -19.419989      1.865918
  H      30.381548    -20.505604      1.604261
  H      29.818457    -20.596190     -2.675134
  H      27.591366    -19.535090     -2.401322
  H      30.578172    -22.774000     -1.830738
  H      31.988109    -22.041352     -2.634080
  H      32.009122    -24.060229     -0.306648
  H      32.640475    -24.272847     -1.945750
  H      37.537285    -24.170545     -0.238916
  H      37.371321    -25.866618     -0.650284
  H      36.601239    -20.911925      2.211369
  H      37.708001    -18.772362      2.866903
  H      36.106121    -16.880363     -0.676579
  H      35.033736    -19.008851     -1.324901
  H      36.444622    -15.052881      0.720297
  H      38.067628    -14.603215      1.344375
  H      37.923771    -15.511393     -0.198019
59
Coordinates from ORCA-job Apixaban_COSMORS_DMSO_Opt_KeepDens.solute_cpcm E -1543.061086205481
  C      24.008145    -17.311550     -0.263616
  C      23.984308    -18.819973     -0.008059
  C      25.325963    -19.525603     -0.126490
  N      26.459920    -18.766455     -0.092679
  C      26.493466    -17.285541     -0.012086
  C      25.183433    -16.696233      0.492720
  C      27.737968    -19.410925     -0.251085
  C      28.531508    -19.674038      0.871700
  C      29.779900    -20.278733      0.725536
  C      30.251826    -20.618115     -0.551947
  C      29.458057    -20.346175     -1.676491
  C      28.206305    -19.746536     -1.524942
  N      31.510817    -21.274494     -0.710940
  C      31.597707    -22.407750     -1.669996
  C      32.493311    -23.534037     -1.146789
  C      33.788779    -22.935468     -0.708960
  C      33.842637    -21.594562     -0.340994
  C      32.654610    -20.739005     -0.145740
  O      25.375264    -20.769749     -0.220026
  O      32.670812    -19.684958      0.507936
  C      35.104470    -23.411405     -0.520018
  N      35.917249    -22.418065     -0.093103
  N      35.143699    -21.323283      0.020757
  C      35.743150    -20.082199      0.408644
  C      35.627587    -24.784691     -0.740374
  N      36.952969    -24.948739     -0.530988
  O      34.872452    -25.710668     -1.094356
  C      36.502397    -20.024933      1.584757
  C      37.117620    -18.833535      1.951527
  C      36.977437    -17.687198      1.147395
  C      36.218984    -17.751451     -0.033689
  C      35.609207    -18.953497     -0.400478
  O      37.613539    -16.565006      1.593110
  C      37.496126    -15.365997      0.804934
  H      24.117962    -17.113604     -1.342766
  H      23.054545    -16.863183      0.050892
  H      23.624855    -19.025014      1.015304
  H      23.294210    -19.342377     -0.686211
  H      27.326695    -17.014644      0.652392
  H      26.730235    -16.891075     -1.015559
  H      25.076001    -16.892787      1.572225
  H      25.223067    -15.605235      0.359608
  H      28.160876    -19.420119      1.866250
  H      30.381645    -20.505556      1.604505
  H      29.818465    -20.596071     -2.674855
  H      27.591482    -19.535008     -2.401083
  H      30.577934    -22.774010     -1.830153
  H      31.987748    -22.041565     -2.633915
  H      32.009135    -24.060147     -0.306271
  H      32.640378    -24.272994     -1.945373
  H      37.537112    -24.170503     -0.239032
  H      37.371358    -25.866550     -0.650345
  H      36.600766    -20.911531      2.211693
  H      37.707305    -18.771991      2.867208
  H      36.106913    -16.880650     -0.677301
  H      35.034547    -19.009094     -1.325523
  H      36.444579    -15.052773      0.719756
  H      38.067686    -14.603156      1.343617
  H      37.923621    -15.511681     -0.198585
