10
Coordinates from ORCA-job Apixaban_COSMORS_DMSO_Opt_KeepDens.solvent_cpcm E -553.356219335001
  C          -1.36144484115760     -0.01735647725883     -0.23274980162960
  S          -0.01226607879699      0.74702634272118      0.70947238043036
  O          -0.02001403873155      0.10158050033168      2.09177744068618
  C           1.36563801423868      0.00405615888586     -0.20786731793581
  H          -2.29917540137004      0.30022362499683      0.23931398725678
  H          -1.31546777043252      0.35375810438910     -1.26538395404554
  H          -1.25279626592588     -1.10957690371842     -0.19854676933969
  H           1.27296564542153     -1.08974493657257     -0.17610192490349
  H           1.33271462478753      0.37481022227464     -1.24111671921536
  H           2.28984511196685      0.33522336395052      0.28120167869617
