12
Coordinates from ORCA-job Explicit4H2O_SMD_water_Opt_KeepDens_restart E -305.739312945762
  O          31.01106691604624    -21.17370447851367      1.81307290331034
  H          30.67388572300871    -21.24396923047609      0.91162876565419
  H          31.95730976477056    -21.39914522391922      1.72302305279595
  O          32.60793797360618    -20.76936500627260     -1.18885580970344
  H          32.54679076609334    -20.29168746397263     -0.35252145071138
  H          32.35649258899056    -21.68209754663601     -0.94787616452930
  O          31.90372037607814    -23.48522644053510     -0.48903768697065
  H          32.69983574888143    -23.97158121181903     -0.73934464918118
  H          31.96345270878651    -23.43546409313189      0.47488372207057
  O          33.80161796798694    -21.83757342913245      1.70583751260620
  H          34.01897134794355    -21.94058392569888      0.76928079238939
  H          33.80049811780707    -22.74389194989179      2.04068901226929
