12
Coordinates from ORCA-job Explicit4H2O_SMD_water_Opt_KeepDens E -305.739302808104
  O          31.00995778324086    -21.17371121988876      1.81399474176333
  H          30.67292032061789    -21.24404892106534      0.91359254287829
  H          31.95826581409872    -21.39959721424432      1.72272116079735
  O          32.60921575008295    -20.76968597365050     -1.18862768693119
  H          32.54788594546555    -20.29189046959954     -0.35203480984034
  H          32.35766470704027    -21.68181795441196     -0.94803612040519
  O          31.90399526220143    -23.48534909792329     -0.48806797654997
  H          32.70049298546502    -23.97207532835336     -0.73930563003115
  H          31.96387679033513    -23.43514708952406      0.47506687553771
  O          33.80013083399540    -21.83750925946267      1.70428450656267
  H          34.01844944849743    -21.94081291126866      0.76830983215975
  H          33.79872435895861    -22.74264456060695      2.03888256405871
