      -----------------------------------------------------------      
     |                   =====================                   |     
     |                           x T B                           |     
     |                   =====================                   |     
     |                         S. Grimme                         |     
     |          Mulliken Center for Theoretical Chemistry        |     
     |                    University of Bonn                     |     
      -----------------------------------------------------------      

   * xtb version 6.7.1pre (5071a88) compiled by 'Marcel@Raven' on 2024-07-23

   xtb is free software: you can redistribute it and/or modify it under
   the terms of the GNU Lesser General Public License as published by
   the Free Software Foundation, either version 3 of the License, or
   (at your option) any later version.
   
   xtb is distributed in the hope that it will be useful,
   but WITHOUT ANY WARRANTY; without even the implied warranty of
   MERCHANTABILITY or FITNESS FOR A PARTICULAR PURPOSE.  See the
   GNU Lesser General Public License for more details.
   
   Cite this work as:
   * C. Bannwarth, E. Caldeweyher, S. Ehlert, A. Hansen, P. Pracht,
     J. Seibert, S. Spicher, S. Grimme, WIREs Comput. Mol. Sci., 2020, 11,
     e01493. DOI: 10.1002/wcms.1493
   
   for GFN2-xTB:
   * C. Bannwarth, S. Ehlert and S. Grimme., J. Chem. Theory Comput., 2019,
     15, 1652-1671. DOI: 10.1021/acs.jctc.8b01176
   for GFN1-xTB:
   * S. Grimme, C. Bannwarth, P. Shushkov, J. Chem. Theory Comput., 2017,
     13, 1989-2009. DOI: 10.1021/acs.jctc.7b00118
   for GFN0-xTB:
   * P. Pracht, E. Caldeweyher, S. Ehlert, S. Grimme, ChemRxiv, 2019, preprint.
     DOI: 10.26434/chemrxiv.8326202.v1
   for GFN-FF:
   * S. Spicher and S. Grimme, Angew. Chem. Int. Ed., 2020, 59, 15665-15673.
     DOI: 10.1002/anie.202004239
   
   for ALPB and GBSA implicit solvation:
   * S. Ehlert, M. Stahn, S. Spicher, S. Grimme, J. Chem. Theory Comput.,
     2021, 17, 4250-4261. DOI: 10.1021/acs.jctc.1c00471
   
   for ddCOSMO and CPCM-X implicit solvation:
   * M. Stahn, S. Ehlert, S. Grimme, J. Phys. Chem. A,
     2023, XX, XXXX-XXXX. DOI: 10.1021/acs.jpca.3c04382
   
   for DFT-D4:
   * E. Caldeweyher, C. Bannwarth and S. Grimme, J. Chem. Phys., 2017,
     147, 034112. DOI: 10.1063/1.4993215
   * E. Caldeweyher, S. Ehlert, A. Hansen, H. Neugebauer, S. Spicher,
     C. Bannwarth and S. Grimme, J. Chem. Phys., 2019, 150, 154122.
     DOI: 10.1063/1.5090222
   * E. Caldeweyher, J.-M. Mewes, S. Ehlert and S. Grimme, Phys. Chem. Chem. Phys.
     2020, 22, 8499-8512. DOI: 10.1039/D0CP00502A
   
   for sTDA-xTB:
   * S. Grimme and C. Bannwarth, J. Chem. Phys., 2016, 145, 054103.
     DOI: 10.1063/1.4959605
   
   in the mass-spec context:
   * V. Asgeirsson, C. Bauer and S. Grimme, Chem. Sci., 2017, 8, 4879.
     DOI: 10.1039/c7sc00601b
   * J. Koopman and S. Grimme, ACS Omega 2019, 4, 12, 15120-15133.
     DOI: 10.1021/acsomega.9b02011
   
   for metadynamics refer to:
   * S. Grimme, J. Chem. Theory Comput., 2019, 155, 2847-2862
     DOI: 10.1021/acs.jctc.9b00143
   
   for SPH calculations refer to:
   * S. Spicher and S. Grimme, J. Chem. Theory Comput., 2021, 17, 1701-1714
     DOI: 10.1021/acs.jctc.0c01306
   
   for ONIOM refer to:
   * C. Plett, A. Katbashev, S. Ehlert, S. Grimme, M. Bursch,
     Phys. Chem. Chem. Phys., 2023, 25, 17860-17868. DOI: 10.1039/D3CP02178E
   
   for DIPRO refer to:
   * J. Kohn, N. Gildemeister, S. Grimme, D. Fazzi, A. Hansen,
     J. Chem. Phys., 2023, just accepted.
   
   for PTB refer to:
   * S. Grimme, M. Mueller, A. Hansen, J. Chem. Phys., 2023, 158, 124111.
     DOI: 10.1063/5.0137838
   
   with help from (in alphabetical order)
   P. Atkinson, C. Bannwarth, F. Bohle, G. Brandenburg, E. Caldeweyher
   M. Checinski, S. Dohm, S. Ehlert, S. Ehrlich, I. Gerasimov, C. Hölzer
   A. Katbashev, J. Kohn, J. Koopman, C. Lavigne, S. Lehtola, F. März, M. Müller,
   F. Musil, H. Neugebauer, J. Pisarek, C. Plett, P. Pracht, F. Pultar,
   J. Seibert, P. Shushkov, S. Spicher, M. Stahn, M. Steiner, T. Strunk,
   J. Stückrath, T. Rose, and J. Unsleber
   
 * started run on 2026/10/03 at 19:14:10.285     
   ID    Z sym.   atoms
    1    6 C      1, 4, 7, 10, 13, 14, 16-18, 24, 26, 27, 29-32, 35-38, 40,
                  42, 43, 45, 47, 60, 63, 66, 69, 72, 73, 75-77, 83, 85, 86,
                  88-91, 94-97, 99, 101, 102, 104, 106
    2    1 H      2, 3, 5, 6, 8, 9, 11, 12, 15, 19, 20, 23, 25, 28, 33, 34,
                  39, 41, 44, 46, 48-52, 61, 62, 64, 65, 67, 68, 70, 71, 74,
                  78, 79, 82, 84, 87, 92, 93, 98, 100, 103, 105, 107-111
    3    7 N      21, 53-56, 80, 112-115
    4    8 O      22, 57-59, 81, 116-118

           -------------------------------------------------
          |                Calculation Setup                |
           -------------------------------------------------

          program call               : C:\ORCA_6.1.1\xTB_bigstack\xtb.exe d_D3a_D2a.xyz -c 0 -u 0 -P 1 --acc 1.0 --namespace d_D3a_D2a
          calculation namespace      : d_D3a_D2a
          coordinate file            : d_D3a_D2a.xyz
          omp threads                :                     1


molecular fragmentation (1/2 indicates fragments):
111111111111111111111111111111111111111111111111111111111112222222222222
2222222222222222222222222222222222222222222222
# atoms in fragment 1/2:    59    59
 fragment masses (1/2) :      459.50      459.50
CMA distance (Bohr)    :  19.315
constraining FC (au)   :  0.0500

           -------------------------------------------------
          |                 G F N 2 - x T B                 |
           -------------------------------------------------

        Reference                      10.1021/acs.jctc.8b01176
      * Hamiltonian:
        H0-scaling (s, p, d)           1.850000    2.230000    2.230000
        zeta-weighting                 0.500000
      * Dispersion:
        s8                             2.700000
        a1                             0.520000
        a2                             5.000000
        s9                             5.000000
      * Repulsion:
        kExp                           1.500000    1.000000
        rExp                           1.000000
      * Coulomb:
        alpha                          2.000000
        third order                    shell-resolved
        anisotropic                    true
        a3                             3.000000
        a5                             4.000000
        cn-shift                       1.200000
        cn-exp                         4.000000
        max-rad                        5.000000


          ...................................................
          :                      SETUP                      :
          :.................................................:
          :  # basis functions                 322          :
          :  # atomic orbitals                 322          :
          :  # shells                          186          :
          :  # electrons                       348          :
          :  max. iterations                   250          :
          :  Hamiltonian                  GFN2-xTB          :
          :  restarted?                      false          :
          :  GBSA solvation                  false          :
          :  PC potential                    false          :
          :  electronic temp.          300.0000000     K    :
          :  accuracy                    1.0000000          :
          :  -> integral cutoff          0.2500000E+02      :
          :  -> integral neglect         0.1000000E-07      :
          :  -> SCF convergence          0.1000000E-05 Eh   :
          :  -> wf. convergence          0.1000000E-03 e    :
          :  Broyden damping             0.4000000          :
          :  net charge                          0          :
          :  unpaired electrons                  0          :
          ...................................................

 iter      E             dE          RMSdq      gap      omega  full diag
   1   -197.4353823 -0.197435E+03  0.413E+00    2.88       0.0  T
   2   -197.9672507 -0.531868E+00  0.243E+00    2.66       1.0  T
   3   -198.0191250 -0.518743E-01  0.130E+00    3.10       1.0  T
   4   -198.0262241 -0.709910E-02  0.437E-01    2.94       1.0  T
   5   -198.0412096 -0.149855E-01  0.914E-02    2.99       1.0  T
   6   -198.0414121 -0.202509E-03  0.528E-02    3.01       1.0  T
   7   -198.0415760 -0.163898E-03  0.223E-02    3.03       1.0  T
   8   -198.0415832 -0.717613E-05  0.836E-03    3.02       1.1  T
   9   -198.0415862 -0.300103E-05  0.364E-03    3.02       2.5  T
  10   -198.0415864 -0.206942E-06  0.148E-03    3.02       6.2  T
  11   -198.0415865 -0.124007E-06  0.557E-04    3.02      16.5  T
  12   -198.0415865 -0.114783E-07  0.261E-04    3.02      35.3  T

   *** convergence criteria satisfied after 12 iterations ***

         #    Occupation            Energy/Eh            Energy/eV
      -------------------------------------------------------------
         1        2.0000           -0.7221600             -19.6510
       ...           ...                  ...                  ...
       168        2.0000           -0.3852905             -10.4843
       169        2.0000           -0.3826037             -10.4112
       170        2.0000           -0.3812464             -10.3742
       171        2.0000           -0.3804054             -10.3514
       172        2.0000           -0.3803890             -10.3509
       173        2.0000           -0.3782364             -10.2923
       174        2.0000           -0.3779579             -10.2848 (HOMO)
       175                         -0.2668262              -7.2607 (LUMO)
       176                         -0.2650871              -7.2134
       177                         -0.2386666              -6.4944
       178                         -0.2380639              -6.4780
       179                         -0.2323067              -6.3214
       ...                                ...                  ...
       322                          0.8712385              23.7076
      -------------------------------------------------------------
                  HL-Gap            0.1111317 Eh            3.0240 eV
             Fermi-level           -0.3223920 Eh           -8.7727 eV

 SCC (total)                   0 d,  0 h,  0 min,  0.378 sec
 SCC setup                      ...        0 min,  0.002 sec (  0.529%)
 Dispersion                     ...        0 min,  0.002 sec (  0.529%)
 classical contributions        ...        0 min,  0.001 sec (  0.265%)
 integral evaluation            ...        0 min,  0.034 sec (  8.995%)
 iterations                     ...        0 min,  0.193 sec ( 51.058%)
 molecular gradient             ...        0 min,  0.144 sec ( 38.095%)
 printout                       ...        0 min,  0.002 sec (  0.529%)

         :::::::::::::::::::::::::::::::::::::::::::::::::::::
         ::                     SUMMARY                     ::
         :::::::::::::::::::::::::::::::::::::::::::::::::::::
         :: total energy            -193.658790395632 Eh    ::
         :: gradient norm              1.318513310062 Eh/a0 ::
         :: HOMO-LUMO gap              3.024048236553 eV    ::
         ::.................................................::
         :: SCC energy              -198.041585570567 Eh    ::
         :: -> isotropic ES            0.297007106391 Eh    ::
         :: -> anisotropic ES          0.005341667437 Eh    ::
         :: -> anisotropic XC          0.036967078773 Eh    ::
         :: -> dispersion             -0.138245909004 Eh    ::
         :: repulsion energy           4.382795174935 Eh    ::
         :: add. restraining           0.000000000000 Eh    ::
         :: total charge               0.000000000000 e     ::
         :::::::::::::::::::::::::::::::::::::::::::::::::::::

           -------------------------------------------------
          |                Property Printout                |
           -------------------------------------------------

    * Orbital Energies and Occupations

         #    Occupation            Energy/Eh            Energy/eV
      -------------------------------------------------------------
         1        2.0000           -0.7221600             -19.6510
       ...           ...                  ...                  ...
       162        2.0000           -0.4048411             -11.0163
       163        2.0000           -0.3962917             -10.7836
       164        2.0000           -0.3952536             -10.7554
       165        2.0000           -0.3880710             -10.5599
       166        2.0000           -0.3877034             -10.5499
       167        2.0000           -0.3859598             -10.5025
       168        2.0000           -0.3852905             -10.4843
       169        2.0000           -0.3826037             -10.4112
       170        2.0000           -0.3812464             -10.3742
       171        2.0000           -0.3804054             -10.3514
       172        2.0000           -0.3803890             -10.3509
       173        2.0000           -0.3782364             -10.2923
       174        2.0000           -0.3779579             -10.2848 (HOMO)
       175                         -0.2668262              -7.2607 (LUMO)
       176                         -0.2650871              -7.2134
       177                         -0.2386666              -6.4944
       178                         -0.2380639              -6.4780
       179                         -0.2323067              -6.3214
       180                         -0.2317661              -6.3067
       181                         -0.2305648              -6.2740
       182                         -0.2288250              -6.2266
       183                         -0.2272476              -6.1837
       184                         -0.2271099              -6.1800
       185                         -0.2137326              -5.8160
       ...                                ...                  ...
       322                          0.8712385              23.7076
      -------------------------------------------------------------
                  HL-Gap            0.1111317 Eh            3.0240 eV
             Fermi-level           -0.3223920 Eh           -8.7727 eV

     #   Z          covCN         q      C6AA      α(0)
     1   6 C        3.762    -0.011    20.814     6.503
     2   1 H        0.930     0.057     2.228     2.334
     3   1 H        0.930     0.061     2.192     2.315
     4   6 C        3.827    -0.083    22.057     6.683
     5   1 H        0.930     0.055     2.258     2.350
     6   1 H        0.930     0.057     2.231     2.335
     7   6 C        3.825    -0.079    21.997     6.674
     8   1 H        0.930     0.052     2.295     2.369
     9   1 H        0.930     0.051     2.311     2.377
    10   6 C        3.826    -0.107    22.515     6.752
    11   1 H        0.930     0.073     2.054     2.241
    12   1 H        0.930     0.075     2.027     2.226
    13   6 C        2.766     0.268    22.480     7.765
    14   6 C        2.935    -0.056    29.390     8.891
    15   1 H        0.930     0.065     2.140     2.287
    16   6 C        2.930     0.069    26.459     8.436
    17   6 C        2.938    -0.042    29.047     8.839
    18   6 C        2.935    -0.056    29.404     8.893
    19   1 H        0.930     0.069     2.091     2.261
    20   1 H        0.930     0.070     2.086     2.258
    21   7 N        2.739    -0.113    23.457     7.193
    22   8 O        0.859    -0.468    23.078     6.441
    23   1 H        0.930     0.075     2.031     2.229
    24   6 C        2.936    -0.043    29.072     8.843
    25   1 H        0.930     0.073     2.053     2.241
    26   6 C        2.928     0.070    26.424     8.430
    27   6 C        3.764    -0.013    20.842     6.507
    28   1 H        0.930     0.059     2.206     2.323
    29   6 C        2.767     0.269    22.462     7.762
    30   6 C        3.096    -0.009    28.116     8.690
    31   6 C        3.070    -0.015    28.320     8.726
    32   6 C        3.821    -0.083    22.059     6.684
    33   1 H        0.930     0.077     2.007     2.215
    34   1 H        0.930     0.085     1.929     2.172
    35   6 C        3.172     0.026    27.038     8.494
    36   6 C        2.748     0.278    22.298     7.732
    37   6 C        2.920     0.046    26.966     8.516
    38   6 C        2.934    -0.041    29.031     8.836
    39   1 H        0.930     0.071     2.077     2.254
    40   6 C        2.932    -0.078    29.958     8.976
    41   1 H        0.930     0.069     2.096     2.264
    42   6 C        2.878     0.144    24.857     8.173
    43   6 C        2.936    -0.067    29.669     8.933
    44   1 H        0.930     0.078     1.998     2.211
    45   6 C        2.932    -0.046    29.154     8.855
    46   1 H        0.930     0.079     1.984     2.203
    47   6 C        3.664     0.013    20.628     6.514
    48   1 H        0.930     0.072     2.058     2.243
    49   1 H        0.930     0.059     2.208     2.323
    50   1 H        0.930     0.057     2.233     2.337
    51   1 H        0.862     0.206     1.078     1.626
    52   1 H        0.863     0.212     1.049     1.604
    53   7 N        2.745    -0.120    23.602     7.215
    54   7 N        3.019     0.089    19.701     6.592
    55   7 N        1.991    -0.241    27.108     7.722
    56   7 N        2.645    -0.284    27.326     7.764
    57   8 O        0.858    -0.444    22.583     6.371
    58   8 O        0.860    -0.449    22.683     6.386
    59   8 O        1.705    -0.281    18.669     5.834
    60   6 C        3.762    -0.011    20.816     6.504
    61   1 H        0.930     0.058     2.220     2.330
    62   1 H        0.930     0.060     2.196     2.317
    63   6 C        3.827    -0.083    22.055     6.682
    64   1 H        0.930     0.055     2.262     2.352
    65   1 H        0.930     0.057     2.237     2.339
    66   6 C        3.825    -0.079    21.996     6.674
    67   1 H        0.930     0.052     2.293     2.368
    68   1 H        0.930     0.051     2.311     2.377
    69   6 C        3.826    -0.107    22.515     6.752
    70   1 H        0.930     0.073     2.047     2.237
    71   1 H        0.930     0.076     2.020     2.222
    72   6 C        2.766     0.268    22.478     7.764
    73   6 C        2.935    -0.055    29.362     8.887
    74   1 H        0.930     0.067     2.116     2.275
    75   6 C        2.930     0.069    26.453     8.435
    76   6 C        2.938    -0.043    29.062     8.841
    77   6 C        2.935    -0.055    29.374     8.889
    78   1 H        0.930     0.072     2.061     2.245
    79   1 H        0.930     0.071     2.075     2.253
    80   7 N        2.739    -0.113    23.461     7.194
    81   8 O        0.859    -0.468    23.079     6.441
    82   1 H        0.930     0.074     2.042     2.234
    83   6 C        2.936    -0.044    29.095     8.846
    84   1 H        0.930     0.071     2.072     2.251
    85   6 C        2.928     0.070    26.436     8.432
    86   6 C        3.764    -0.013    20.842     6.507
    87   1 H        0.930     0.058     2.221     2.330
    88   6 C        2.767     0.269    22.466     7.763
    89   6 C        3.096    -0.009    28.115     8.690
    90   6 C        3.070    -0.015    28.320     8.726
    91   6 C        3.821    -0.083    22.062     6.684
    92   1 H        0.930     0.079     1.992     2.207
    93   1 H        0.930     0.084     1.934     2.175
    94   6 C        3.172     0.026    27.044     8.495
    95   6 C        2.748     0.278    22.303     7.733
    96   6 C        2.920     0.046    26.960     8.515
    97   6 C        2.934    -0.042    29.032     8.837
    98   1 H        0.930     0.071     2.078     2.254
    99   6 C        2.932    -0.078    29.961     8.977
   100   1 H        0.930     0.069     2.101     2.266
   101   6 C        2.878     0.144    24.861     8.174
   102   6 C        2.936    -0.067    29.676     8.934
   103   1 H        0.930     0.078     2.002     2.213
   104   6 C        2.932    -0.047    29.158     8.856
   105   1 H        0.930     0.079     1.986     2.204
   106   6 C        3.664     0.013    20.626     6.514
   107   1 H        0.930     0.072     2.058     2.243
   108   1 H        0.930     0.059     2.207     2.323
   109   1 H        0.930     0.057     2.238     2.339
   110   1 H        0.862     0.205     1.078     1.626
   111   1 H        0.863     0.211     1.050     1.605
   112   7 N        2.745    -0.119    23.580     7.212
   113   7 N        3.019     0.088    19.711     6.594
   114   7 N        1.991    -0.243    27.136     7.726
   115   7 N        2.645    -0.284    27.335     7.765
   116   8 O        0.858    -0.445    22.590     6.372
   117   8 O        0.860    -0.449    22.675     6.384
   118   8 O        1.705    -0.282    18.673     5.834

 Mol. C6AA /au·bohr⁶  :     167549.725520
 Mol. C8AA /au·bohr⁸  :    4001226.243208
 Mol. α(0) /au        :        634.439220


Wiberg/Mayer (AO) data.
largest (>0.10) Wiberg bond orders for each atom

 ---------------------------------------------------------------------------
     #   Z sym  total        # sym  WBO       # sym  WBO       # sym  WBO
 ---------------------------------------------------------------------------
     1   6 C    3.971 --     4 C    1.007     3 H    0.974     2 H    0.972
                            21 N    0.960
     2   1 H    0.997 --     1 C    0.972
     3   1 H    0.996 --     1 C    0.974
     4   6 C    3.992 --     1 C    1.007     7 C    1.006     5 H    0.979
                             6 H    0.971
     5   1 H    0.997 --     4 C    0.979
     6   1 H    0.996 --     4 C    0.971
     7   6 C    3.994 --     4 C    1.006    10 C    1.002     9 H    0.981
                             8 H    0.977
     8   1 H    0.997 --     7 C    0.977
     9   1 H    0.997 --     7 C    0.981
    10   6 C    3.991 --     7 C    1.002    13 C    0.976    12 H    0.964
                            11 H    0.955
    11   1 H    0.994 --    10 C    0.955
    12   1 H    0.994 --    10 C    0.964
    13   6 C    3.951 --    22 O    1.657    21 N    1.240    10 C    0.976
    14   6 C    3.994 --    18 C    1.442    16 C    1.406    15 H    0.974
                            24 C    0.109
    15   1 H    0.995 --    14 C    0.974
    16   6 C    3.968 --    14 C    1.406    17 C    1.405    21 N    0.990
    17   6 C    3.993 --    24 C    1.441    16 C    1.405    23 H    0.973
                            18 C    0.110
    18   6 C    3.993 --    14 C    1.442    26 C    1.401    19 H    0.974
                            17 C    0.110
    19   1 H    0.995 --    18 C    0.974
    20   1 H    0.995 --    27 C    0.974
    21   7 N    3.482 --    13 C    1.240    16 C    0.990     1 C    0.960
                            22 O    0.190
    22   8 O    1.968 --    13 C    1.657    21 N    0.190
    23   1 H    0.994 --    17 C    0.973
    24   6 C    3.992 --    17 C    1.441    26 C    1.403    25 H    0.973
                            14 C    0.109
    25   1 H    0.995 --    24 C    0.973
    26   6 C    3.966 --    24 C    1.403    18 C    1.401    53 N    0.997
    27   6 C    3.967 --    32 C    0.998    28 H    0.974    20 H    0.974
                            53 N    0.961
    28   1 H    0.996 --    27 C    0.974
    29   6 C    3.957 --    57 O    1.655    53 N    1.201    30 C    1.011
    30   6 C    3.952 --    31 C    1.430    54 N    1.220    29 C    1.011
                            55 N    0.134
    31   6 C    3.981 --    30 C    1.430    35 C    1.322    32 C    1.012
    32   6 C    3.989 --    31 C    1.012    27 C    0.998    34 H    0.962
                            33 H    0.961
    33   1 H    0.994 --    32 C    0.961
    34   1 H    0.992 --    32 C    0.962
    35   6 C    3.968 --    55 N    1.426    31 C    1.322    36 C    1.000
    36   6 C    3.952 --    58 O    1.660    56 N    1.252    35 C    1.000
    37   6 C    3.956 --    38 C    1.402    45 C    1.372    54 N    1.005
    38   6 C    3.991 --    40 C    1.435    37 C    1.402    39 H    0.973
                            43 C    0.108
    39   1 H    0.995 --    38 C    0.973
    40   6 C    3.991 --    38 C    1.435    42 C    1.380    41 H    0.971
    41   1 H    0.995 --    40 C    0.971
    42   6 C    3.933 --    40 C    1.380    43 C    1.344    59 O    1.070
    43   6 C    3.991 --    45 C    1.476    42 C    1.344    44 H    0.972
                            38 C    0.108
    44   1 H    0.993 --    43 C    0.972
    45   6 C    3.990 --    43 C    1.476    37 C    1.372    46 H    0.972
    46   1 H    0.993 --    45 C    0.972
    47   6 C    3.936 --    49 H    0.981    50 H    0.981    48 H    0.980
                            59 O    0.967
    48   1 H    0.994 --    47 C    0.980
    49   1 H    0.996 --    47 C    0.981
    50   1 H    0.997 --    47 C    0.981
    51   1 H    0.957 --    56 N    0.941
    52   1 H    0.955 --    56 N    0.942
    53   7 N    3.471 --    29 C    1.201    26 C    0.997    27 C    0.961
                            57 O    0.188
    54   7 N    3.691 --    55 N    1.220    30 C    1.220    37 C    1.005
    55   7 N    2.965 --    35 C    1.426    54 N    1.220    30 C    0.134
    56   7 N    3.369 --    36 C    1.252    52 H    0.942    51 H    0.941
                            58 O    0.193
    57   8 O    2.000 --    29 C    1.655    53 N    0.188
    58   8 O    1.972 --    36 C    1.660    56 N    0.193
    59   8 O    2.206 --    42 C    1.070    47 C    0.967
    60   6 C    3.971 --    63 C    1.007    62 H    0.974    61 H    0.972
                            80 N    0.960
    61   1 H    0.997 --    60 C    0.972
    62   1 H    0.996 --    60 C    0.974
    63   6 C    3.992 --    60 C    1.007    66 C    1.006    64 H    0.980
                            65 H    0.971
    64   1 H    0.997 --    63 C    0.980
    65   1 H    0.996 --    63 C    0.971
    66   6 C    3.994 --    63 C    1.006    69 C    1.002    68 H    0.981
                            67 H    0.977
    67   1 H    0.997 --    66 C    0.977
    68   1 H    0.997 --    66 C    0.981
    69   6 C    3.990 --    66 C    1.002    72 C    0.976    71 H    0.964
                            70 H    0.955
    70   1 H    0.994 --    69 C    0.955
    71   1 H    0.994 --    69 C    0.964
    72   6 C    3.951 --    81 O    1.658    80 N    1.239    69 C    0.976
    73   6 C    3.994 --    77 C    1.442    75 C    1.406    74 H    0.974
                            83 C    0.109
    74   1 H    0.995 --    73 C    0.974
    75   6 C    3.968 --    73 C    1.406    76 C    1.405    80 N    0.990
    76   6 C    3.993 --    83 C    1.440    75 C    1.405    82 H    0.973
                            77 C    0.110
    77   6 C    3.993 --    73 C    1.442    85 C    1.402    78 H    0.973
                            76 C    0.110
    78   1 H    0.994 --    77 C    0.973
    79   1 H    0.995 --    86 C    0.974
    80   7 N    3.481 --    72 C    1.239    75 C    0.990    60 C    0.960
                            81 O    0.190
    81   8 O    1.968 --    72 C    1.658    80 N    0.190
    82   1 H    0.994 --    76 C    0.973
    83   6 C    3.992 --    76 C    1.440    85 C    1.404    84 H    0.973
                            73 C    0.109
    84   1 H    0.995 --    83 C    0.973
    85   6 C    3.965 --    83 C    1.404    77 C    1.402   112 N    0.996
    86   6 C    3.967 --    91 C    0.998    87 H    0.974    79 H    0.974
                           112 N    0.961
    87   1 H    0.997 --    86 C    0.974
    88   6 C    3.957 --   116 O    1.654   112 N    1.203    89 C    1.010
    89   6 C    3.952 --    90 C    1.431   113 N    1.219    88 C    1.010
                           114 N    0.135
    90   6 C    3.981 --    89 C    1.431    94 C    1.322    91 C    1.012
    91   6 C    3.989 --    90 C    1.012    86 C    0.998    93 H    0.962
                            92 H    0.960
    92   1 H    0.993 --    91 C    0.960
    93   1 H    0.992 --    91 C    0.962
    94   6 C    3.968 --   114 N    1.426    90 C    1.322    95 C    1.000
    95   6 C    3.952 --   117 O    1.660   115 N    1.252    94 C    1.000
    96   6 C    3.956 --    97 C    1.402   104 C    1.372   113 N    1.005
    97   6 C    3.991 --    99 C    1.435    96 C    1.402    98 H    0.973
                           102 C    0.108
    98   1 H    0.995 --    97 C    0.973
    99   6 C    3.991 --    97 C    1.435   101 C    1.380   100 H    0.971
   100   1 H    0.995 --    99 C    0.971
   101   6 C    3.932 --    99 C    1.380   102 C    1.345   118 O    1.070
   102   6 C    3.991 --   104 C    1.476   101 C    1.345   103 H    0.972
                            97 C    0.108
   103   1 H    0.993 --   102 C    0.972
   104   6 C    3.990 --   102 C    1.476    96 C    1.372   105 H    0.972
   105   1 H    0.993 --   104 C    0.972
   106   6 C    3.936 --   108 H    0.981   109 H    0.981   107 H    0.980
                           118 O    0.967
   107   1 H    0.994 --   106 C    0.980
   108   1 H    0.996 --   106 C    0.981
   109   1 H    0.997 --   106 C    0.981
   110   1 H    0.957 --   115 N    0.942
   111   1 H    0.955 --   115 N    0.942
   112   7 N    3.473 --    88 C    1.203    85 C    0.996    86 C    0.961
                           116 O    0.189
   113   7 N    3.691 --    89 C    1.219   114 N    1.219    96 C    1.005
   114   7 N    2.965 --    94 C    1.426   113 N    1.219    89 C    0.135
   115   7 N    3.369 --    95 C    1.252   111 H    0.942   110 H    0.942
                           117 O    0.193
   116   8 O    2.000 --    88 C    1.654   112 N    0.189
   117   8 O    1.973 --    95 C    1.660   115 N    0.193
   118   8 O    2.206 --   101 C    1.070   106 C    0.967
 ---------------------------------------------------------------------------

Topologies differ in total number of bonds
Writing topology from bond orders to xtbtopo.mol

molecular dipole:
                 x           y           z       tot (Debye)
 q only:       -0.607       0.818       3.052
   full:       -0.983       0.247       3.439       9.113
molecular quadrupole (traceless):
                xx          xy          yy          xz          yz          zz
 q only:     -396.781     -57.004     -39.401     125.550     407.661     436.182
  q+dip:     -408.865    -146.187    -149.642     105.868     386.286     558.507
   full:     -405.802    -145.831    -153.573     110.867     387.608     559.375


           -------------------------------------------------
          | TOTAL ENERGY             -193.658790395632 Eh   |
          | GRADIENT NORM               1.318513310062 Eh/α |
          | HOMO-LUMO GAP               3.024048236553 eV   |
           -------------------------------------------------

------------------------------------------------------------------------
 * finished run on 2026/10/03 at 19:14:10.724     
------------------------------------------------------------------------
 total:
 * wall-time:     0 d,  0 h,  0 min,  0.437 sec
 *  cpu-time:     0 d,  0 h,  0 min,  0.422 sec
 * ratio c/w:     0.965 speedup
 SCF:
 * wall-time:     0 d,  0 h,  0 min,  0.378 sec
 *  cpu-time:     0 d,  0 h,  0 min,  0.375 sec
 * ratio c/w:     0.992 speedup

normal termination of xtb
