77

O         32.51246      -18.04287       -0.58930
C         32.10561      -19.42323       -0.58930
C         31.28221      -19.75130       -1.84044
C         30.91119      -21.24419       -1.84506
C         30.08691      -21.56772       -0.58930
C         30.91119      -21.24419        0.66646
C         32.19888      -22.08234        0.66447
C         33.02497      -21.75463       -0.58930
C         32.19888      -22.08234       -1.84307
C         33.38468      -20.25938       -0.58930
C         31.28221      -19.75130        0.66184
H         31.70848      -17.50502       -0.58930
H         31.86938      -19.49711       -2.73346
H         30.37238      -19.13263       -1.85099
H         30.32196      -21.47088       -2.74394
H         29.80556      -22.62967       -0.58930
H         29.15689      -20.98238       -0.58930
H         30.32196      -21.47088        1.56534
H         31.94886      -23.15201        0.67799
H         32.78669      -21.87145        1.56848
H         33.94911      -22.34798       -0.58930
H         31.94886      -23.15201       -1.85659
H         32.78669      -21.87145       -2.74708
H         33.98121      -20.00747       -1.47655
H         33.98121      -20.00747        0.29795
H         31.86938      -19.49711        1.55486
H         30.37238      -19.13263        0.67239
C         37.10761      -19.86459       11.39381
H         37.10761      -19.86459       12.48381
Cl        38.77401      -19.86459       10.80501
Cl        36.27471      -18.42179       10.80501
Cl        36.27471      -21.30739       10.80501
C         24.80651      -26.02994        8.83767
H         24.80651      -26.02994        9.92767
Cl        26.47291      -26.02994        8.24887
Cl        23.97361      -24.58714        8.24887
Cl        23.97361      -27.47274        8.24887
C         32.50431       -8.83859        6.28154
H         32.50431       -8.83859        7.37154
Cl        34.17071       -8.83859        5.69274
Cl        31.67141       -7.39579        5.69274
Cl        31.67141      -10.28139        5.69274
C         38.95472      -29.54016        3.72540
H         38.95472      -29.54016        4.81540
Cl        40.62112      -29.54016        3.13660
Cl        38.12182      -28.09736        3.13660
Cl        38.12182      -30.98296        3.13660
C         19.01443      -17.64959        1.16927
H         19.01443      -17.64959        2.25927
Cl        20.68083      -17.64959        0.58047
Cl        18.18153      -16.20679        0.58047
Cl        18.18153      -19.09239        0.58047
C         42.26635      -13.03923       -1.38686
H         42.26635      -13.03923       -0.29686
Cl        43.93275      -13.03923       -1.97566
Cl        41.43345      -11.59643       -1.97566
Cl        41.43345      -14.48203       -1.97566
C         28.37155      -31.63857       -3.94300
H         28.37155      -31.63857       -2.85300
Cl        30.03795      -31.63857       -4.53180
Cl        27.53865      -30.19577       -4.53180
Cl        27.53865      -33.08137       -4.53180
C         26.43515      -10.04197       -6.49913
H         26.43515      -10.04197       -5.40913
Cl        28.10155      -10.04197       -7.08793
Cl        25.60225       -8.59917       -7.08793
Cl        25.60225      -11.48477       -7.08793
C         40.11004      -22.99558       -9.05527
H         40.11004      -22.99558       -7.96527
Cl        41.77644      -22.99558       -9.64407
Cl        39.27714      -21.55278       -9.64407
Cl        39.27714      -24.43838       -9.64407
C         26.38715      -21.99023      -11.61140
H         26.38715      -21.99023      -10.52140
Cl        28.05355      -21.99023      -12.20020
Cl        25.55425      -20.54743      -12.20020
Cl        25.55425      -23.43303      -12.20020
