6
Coordinates from ORCA-job Monomer_r2SCAN3c_SMD E -132.727023282970
  N       0.000000      0.000000      1.160000
  C       0.000000      0.000000      0.000000
  C       0.000000      0.000000     -1.460000
  H       1.028000      0.000000     -1.823000
  H      -0.514000      0.890000     -1.823000
  H      -0.514000     -0.890000     -1.823000
6
Coordinates from ORCA-job Monomer_r2SCAN3c_SMD E -132.727211012819
  N       0.000008      0.000000      1.150471
  C       0.000037      0.000000     -0.005548
  C       0.000065     -0.000000     -1.455141
  H       1.030908      0.000000     -1.819520
  H      -0.515509      0.892696     -1.819631
  H      -0.515509     -0.892696     -1.819631
6
Coordinates from ORCA-job Monomer_r2SCAN3c_SMD E -132.727231899211
  N      -0.000013     -0.000000      1.147906
  C       0.000048     -0.000000     -0.007712
  C       0.000098      0.000000     -1.452327
  H       1.030694     -0.000000     -1.818900
  H      -0.515414      0.892507     -1.818984
  H      -0.515414     -0.892507     -1.818984
6
Coordinates from ORCA-job Monomer_r2SCAN3c_SMD E -132.727234952282
  N      -0.000027     -0.000000      1.148311
  C       0.000054     -0.000000     -0.007490
  C       0.000113      0.000000     -1.451206
  H       1.030131      0.000000     -1.819500
  H      -0.515135      0.891993     -1.819557
  H      -0.515135     -0.891993     -1.819557
6
Coordinates from ORCA-job Monomer_r2SCAN3c_SMD E -132.727235909504
  N      -0.000039     -0.000000      1.149081
  C       0.000061     -0.000000     -0.006842
  C       0.000123      0.000000     -1.450498
  H       1.029587      0.000000     -1.820221
  H      -0.514866      0.891498     -1.820260
  H      -0.514866     -0.891498     -1.820260
6
Coordinates from ORCA-job Monomer_r2SCAN3c_SMD E -132.727235933821
  N      -0.000041      0.000000      1.149210
  C       0.000064      0.000000     -0.006699
  C       0.000125      0.000000     -1.450460
  H       1.029531     -0.000000     -1.820325
  H      -0.514839      0.891447     -1.820363
  H      -0.514839     -0.891447     -1.820363
