6
Coordinates from ORCA-job Monomer_r2SCAN3c_SMD E -132.727235933821
  N          -0.00004124300194      0.00000000007432      1.14920978823781
  C           0.00006368502610      0.00000000008834     -0.00669884217685
  C           0.00012479019763      0.00000000003367     -1.45046036265015
  H           1.02953096723183     -0.00000000013559     -1.82032513497098
  H          -0.51483909978755      0.89144655844982     -1.82036272399303
  H          -0.51483909966607     -0.89144655851055     -1.82036272444680
