      -----------------------------------------------------------      
     |                   =====================                   |     
     |                           x T B                           |     
     |                   =====================                   |     
     |                         S. Grimme                         |     
     |          Mulliken Center for Theoretical Chemistry        |     
     |                    University of Bonn                     |     
      -----------------------------------------------------------      

   * xtb version 6.7.1pre (5071a88) compiled by 'Marcel@Raven' on 2024-07-23

   xtb is free software: you can redistribute it and/or modify it under
   the terms of the GNU Lesser General Public License as published by
   the Free Software Foundation, either version 3 of the License, or
   (at your option) any later version.
   
   xtb is distributed in the hope that it will be useful,
   but WITHOUT ANY WARRANTY; without even the implied warranty of
   MERCHANTABILITY or FITNESS FOR A PARTICULAR PURPOSE.  See the
   GNU Lesser General Public License for more details.
   
   Cite this work as:
   * C. Bannwarth, E. Caldeweyher, S. Ehlert, A. Hansen, P. Pracht,
     J. Seibert, S. Spicher, S. Grimme, WIREs Comput. Mol. Sci., 2020, 11,
     e01493. DOI: 10.1002/wcms.1493
   
   for GFN2-xTB:
   * C. Bannwarth, S. Ehlert and S. Grimme., J. Chem. Theory Comput., 2019,
     15, 1652-1671. DOI: 10.1021/acs.jctc.8b01176
   for GFN1-xTB:
   * S. Grimme, C. Bannwarth, P. Shushkov, J. Chem. Theory Comput., 2017,
     13, 1989-2009. DOI: 10.1021/acs.jctc.7b00118
   for GFN0-xTB:
   * P. Pracht, E. Caldeweyher, S. Ehlert, S. Grimme, ChemRxiv, 2019, preprint.
     DOI: 10.26434/chemrxiv.8326202.v1
   for GFN-FF:
   * S. Spicher and S. Grimme, Angew. Chem. Int. Ed., 2020, 59, 15665-15673.
     DOI: 10.1002/anie.202004239
   
   for ALPB and GBSA implicit solvation:
   * S. Ehlert, M. Stahn, S. Spicher, S. Grimme, J. Chem. Theory Comput.,
     2021, 17, 4250-4261. DOI: 10.1021/acs.jctc.1c00471
   
   for ddCOSMO and CPCM-X implicit solvation:
   * M. Stahn, S. Ehlert, S. Grimme, J. Phys. Chem. A,
     2023, XX, XXXX-XXXX. DOI: 10.1021/acs.jpca.3c04382
   
   for DFT-D4:
   * E. Caldeweyher, C. Bannwarth and S. Grimme, J. Chem. Phys., 2017,
     147, 034112. DOI: 10.1063/1.4993215
   * E. Caldeweyher, S. Ehlert, A. Hansen, H. Neugebauer, S. Spicher,
     C. Bannwarth and S. Grimme, J. Chem. Phys., 2019, 150, 154122.
     DOI: 10.1063/1.5090222
   * E. Caldeweyher, J.-M. Mewes, S. Ehlert and S. Grimme, Phys. Chem. Chem. Phys.
     2020, 22, 8499-8512. DOI: 10.1039/D0CP00502A
   
   for sTDA-xTB:
   * S. Grimme and C. Bannwarth, J. Chem. Phys., 2016, 145, 054103.
     DOI: 10.1063/1.4959605
   
   in the mass-spec context:
   * V. Asgeirsson, C. Bauer and S. Grimme, Chem. Sci., 2017, 8, 4879.
     DOI: 10.1039/c7sc00601b
   * J. Koopman and S. Grimme, ACS Omega 2019, 4, 12, 15120-15133.
     DOI: 10.1021/acsomega.9b02011
   
   for metadynamics refer to:
   * S. Grimme, J. Chem. Theory Comput., 2019, 155, 2847-2862
     DOI: 10.1021/acs.jctc.9b00143
   
   for SPH calculations refer to:
   * S. Spicher and S. Grimme, J. Chem. Theory Comput., 2021, 17, 1701-1714
     DOI: 10.1021/acs.jctc.0c01306
   
   for ONIOM refer to:
   * C. Plett, A. Katbashev, S. Ehlert, S. Grimme, M. Bursch,
     Phys. Chem. Chem. Phys., 2023, 25, 17860-17868. DOI: 10.1039/D3CP02178E
   
   for DIPRO refer to:
   * J. Kohn, N. Gildemeister, S. Grimme, D. Fazzi, A. Hansen,
     J. Chem. Phys., 2023, just accepted.
   
   for PTB refer to:
   * S. Grimme, M. Mueller, A. Hansen, J. Chem. Phys., 2023, 158, 124111.
     DOI: 10.1063/5.0137838
   
   with help from (in alphabetical order)
   P. Atkinson, C. Bannwarth, F. Bohle, G. Brandenburg, E. Caldeweyher
   M. Checinski, S. Dohm, S. Ehlert, S. Ehrlich, I. Gerasimov, C. Hölzer
   A. Katbashev, J. Kohn, J. Koopman, C. Lavigne, S. Lehtola, F. März, M. Müller,
   F. Musil, H. Neugebauer, J. Pisarek, C. Plett, P. Pracht, F. Pultar,
   J. Seibert, P. Shushkov, S. Spicher, M. Stahn, M. Steiner, T. Strunk,
   J. Stückrath, T. Rose, and J. Unsleber
   
 * started run on 2026/10/03 at 18:55:59.344     
   ID    Z sym.   atoms
    1    6 C      1, 5, 6, 8, 13, 15, 18-21, 24-27, 29, 30, 40, 43, 46, 49,
                  50, 52, 53, 55, 57
    2    1 H      2, 3, 7, 9-11, 14, 16, 17, 22, 23, 28, 31-33, 41, 42, 44,
                  45, 47, 48, 51, 54, 56, 58
    3    8 O      4, 12, 38, 39
    4    7 N      34-37, 59

           -------------------------------------------------
          |                Calculation Setup                |
           -------------------------------------------------

          program call               : C:\ORCA_6.1.1\xTB_bigstack\xtb.exe m_D1b.xyz -c 0 -u 0 -P 1 --acc 1.0 --namespace m_D1b
          calculation namespace      : m_D1b
          coordinate file            : m_D1b.xyz
          omp threads                :                     1


           -------------------------------------------------
          |                 G F N 2 - x T B                 |
           -------------------------------------------------

        Reference                      10.1021/acs.jctc.8b01176
      * Hamiltonian:
        H0-scaling (s, p, d)           1.850000    2.230000    2.230000
        zeta-weighting                 0.500000
      * Dispersion:
        s8                             2.700000
        a1                             0.520000
        a2                             5.000000
        s9                             5.000000
      * Repulsion:
        kExp                           1.500000    1.000000
        rExp                           1.000000
      * Coulomb:
        alpha                          2.000000
        third order                    shell-resolved
        anisotropic                    true
        a3                             3.000000
        a5                             4.000000
        cn-shift                       1.200000
        cn-exp                         4.000000
        max-rad                        5.000000


          ...................................................
          :                      SETUP                      :
          :.................................................:
          :  # basis functions                 161          :
          :  # atomic orbitals                 161          :
          :  # shells                           93          :
          :  # electrons                       174          :
          :  max. iterations                   250          :
          :  Hamiltonian                  GFN2-xTB          :
          :  restarted?                      false          :
          :  GBSA solvation                  false          :
          :  PC potential                    false          :
          :  electronic temp.          300.0000000     K    :
          :  accuracy                    1.0000000          :
          :  -> integral cutoff          0.2500000E+02      :
          :  -> integral neglect         0.1000000E-07      :
          :  -> SCF convergence          0.1000000E-05 Eh   :
          :  -> wf. convergence          0.1000000E-03 e    :
          :  Broyden damping             0.4000000          :
          :  net charge                          0          :
          :  unpaired electrons                  0          :
          ...................................................

 iter      E             dE          RMSdq      gap      omega  full diag
   1    -98.7181824 -0.987182E+02  0.413E+00    2.89       0.0  T
   2    -98.9836433 -0.265461E+00  0.242E+00    2.69       1.0  T
   3    -99.0091490 -0.255057E-01  0.130E+00    3.13       1.0  T
   4    -99.0125940 -0.344496E-02  0.434E-01    2.97       1.0  T
   5    -99.0200171 -0.742312E-02  0.916E-02    3.02       1.0  T
   6    -99.0201188 -0.101671E-03  0.528E-02    3.04       1.0  T
   7    -99.0202008 -0.819831E-04  0.222E-02    3.06       1.0  T
   8    -99.0202043 -0.353170E-05  0.828E-03    3.06       1.6  T
   9    -99.0202057 -0.143311E-05  0.363E-03    3.06       3.6  T
  10    -99.0202058 -0.102748E-06  0.146E-03    3.06       8.9  T
  11    -99.0202059 -0.616673E-07  0.551E-04    3.06      23.6  T
  12    -99.0202059 -0.546160E-08  0.259E-04    3.06      50.3  T

   *** convergence criteria satisfied after 12 iterations ***

         #    Occupation            Energy/Eh            Energy/eV
      -------------------------------------------------------------
         1        2.0000           -0.7213474             -19.6289
       ...           ...                  ...                  ...
        81        2.0000           -0.4073319             -11.0841
        82        2.0000           -0.3974422             -10.8150
        83        2.0000           -0.3893229             -10.5940
        84        2.0000           -0.3874178             -10.5422
        85        2.0000           -0.3828828             -10.4188
        86        2.0000           -0.3806442             -10.3579
        87        2.0000           -0.3798800             -10.3371 (HOMO)
        88                         -0.2675552              -7.2805 (LUMO)
        89                         -0.2400703              -6.5326
        90                         -0.2335571              -6.3554
        91                         -0.2312949              -6.2939
        92                         -0.2289883              -6.2311
       ...                                ...                  ...
       161                          0.8687029              23.6386
      -------------------------------------------------------------
                  HL-Gap            0.1123248 Eh            3.0565 eV
             Fermi-level           -0.3237176 Eh           -8.8088 eV

 SCC (total)                   0 d,  0 h,  0 min,  0.085 sec
 SCC setup                      ...        0 min,  0.000 sec (  0.000%)
 Dispersion                     ...        0 min,  0.001 sec (  1.177%)
 classical contributions        ...        0 min,  0.000 sec (  0.000%)
 integral evaluation            ...        0 min,  0.010 sec ( 11.765%)
 iterations                     ...        0 min,  0.039 sec ( 45.882%)
 molecular gradient             ...        0 min,  0.035 sec ( 41.176%)
 printout                       ...        0 min,  0.000 sec (  0.000%)

         :::::::::::::::::::::::::::::::::::::::::::::::::::::
         ::                     SUMMARY                     ::
         :::::::::::::::::::::::::::::::::::::::::::::::::::::
         :: total energy             -96.829206693092 Eh    ::
         :: gradient norm              0.932431449888 Eh/a0 ::
         :: HOMO-LUMO gap              3.056513928947 eV    ::
         ::.................................................::
         :: SCC energy               -99.020604288693 Eh    ::
         :: -> isotropic ES            0.148476493087 Eh    ::
         :: -> anisotropic ES          0.002811831519 Eh    ::
         :: -> anisotropic XC          0.018489547705 Eh    ::
         :: -> dispersion             -0.069194044607 Eh    ::
         :: repulsion energy           2.191397595601 Eh    ::
         :: add. restraining           0.000000000000 Eh    ::
         :: total charge              -0.000000000000 e     ::
         :::::::::::::::::::::::::::::::::::::::::::::::::::::

           -------------------------------------------------
          |                Property Printout                |
           -------------------------------------------------

    * Orbital Energies and Occupations

         #    Occupation            Energy/Eh            Energy/eV
      -------------------------------------------------------------
         1        2.0000           -0.7213474             -19.6289
       ...           ...                  ...                  ...
        75        2.0000           -0.4244806             -11.5507
        76        2.0000           -0.4210081             -11.4562
        77        2.0000           -0.4173282             -11.3561
        78        2.0000           -0.4167949             -11.3416
        79        2.0000           -0.4157165             -11.3122
        80        2.0000           -0.4096914             -11.1483
        81        2.0000           -0.4073319             -11.0841
        82        2.0000           -0.3974422             -10.8150
        83        2.0000           -0.3893229             -10.5940
        84        2.0000           -0.3874178             -10.5422
        85        2.0000           -0.3828828             -10.4188
        86        2.0000           -0.3806442             -10.3579
        87        2.0000           -0.3798800             -10.3371 (HOMO)
        88                         -0.2675552              -7.2805 (LUMO)
        89                         -0.2400703              -6.5326
        90                         -0.2335571              -6.3554
        91                         -0.2312949              -6.2939
        92                         -0.2289883              -6.2311
        93                         -0.2136464              -5.8136
        94                         -0.1952939              -5.3142
        95                         -0.1538034              -4.1852
        96                         -0.1180991              -3.2136
        97                         -0.1015939              -2.7645
        98                         -0.0905150              -2.4630
       ...                                ...                  ...
       161                          0.8687029              23.6386
      -------------------------------------------------------------
                  HL-Gap            0.1123248 Eh            3.0565 eV
             Fermi-level           -0.3237176 Eh           -8.8088 eV

     #   Z          covCN         q      C6AA      α(0)
     1   6 C        3.826    -0.107    22.516     6.752
     2   1 H        0.930     0.074     2.042     2.234
     3   1 H        0.930     0.076     2.017     2.221
     4   8 O        0.859    -0.467    23.074     6.440
     5   6 C        2.878     0.145    24.854     8.173
     6   6 C        2.936    -0.067    29.661     8.932
     7   1 H        0.930     0.078     1.995     2.209
     8   6 C        3.664     0.013    20.624     6.514
     9   1 H        0.930     0.073     2.056     2.242
    10   1 H        0.930     0.059     2.207     2.323
    11   1 H        0.930     0.057     2.239     2.340
    12   8 O        1.705    -0.281    18.663     5.833
    13   6 C        2.928     0.070    26.433     8.432
    14   1 H        0.930     0.069     2.093     2.262
    15   6 C        3.764    -0.012    20.838     6.507
    16   1 H        0.930     0.058     2.219     2.329
    17   1 H        0.930     0.070     2.086     2.258
    18   6 C        2.767     0.269    22.464     7.762
    19   6 C        3.096    -0.009    28.119     8.691
    20   6 C        3.070    -0.016    28.326     8.727
    21   6 C        3.821    -0.083    22.058     6.684
    22   1 H        0.930     0.078     2.004     2.214
    23   1 H        0.930     0.084     1.935     2.175
    24   6 C        3.172     0.026    27.042     8.494
    25   6 C        2.748     0.278    22.300     7.732
    26   6 C        2.920     0.046    26.966     8.516
    27   6 C        2.934    -0.042    29.036     8.837
    28   1 H        0.930     0.070     2.084     2.257
    29   6 C        2.932    -0.078    29.961     8.977
    30   6 C        2.932    -0.046    29.147     8.854
    31   1 H        0.930     0.080     1.982     2.201
    32   1 H        0.862     0.206     1.077     1.626
    33   1 H        0.863     0.211     1.049     1.604
    34   7 N        2.745    -0.120    23.604     7.216
    35   7 N        3.019     0.089    19.703     6.593
    36   7 N        1.991    -0.242    27.111     7.722
    37   7 N        2.645    -0.284    27.325     7.764
    38   8 O        0.858    -0.444    22.576     6.370
    39   8 O        0.860    -0.449    22.684     6.386
    40   6 C        3.762    -0.011    20.810     6.503
    41   1 H        0.930     0.057     2.231     2.336
    42   1 H        0.930     0.060     2.196     2.317
    43   6 C        3.827    -0.083    22.056     6.683
    44   1 H        0.930     0.055     2.257     2.349
    45   1 H        0.930     0.057     2.230     2.335
    46   6 C        3.825    -0.079    21.996     6.674
    47   1 H        0.930     0.053     2.287     2.365
    48   1 H        0.930     0.051     2.312     2.377
    49   6 C        2.766     0.268    22.474     7.764
    50   6 C        2.935    -0.056    29.383     8.890
    51   1 H        0.930     0.065     2.136     2.285
    52   6 C        2.930     0.069    26.446     8.434
    53   6 C        2.938    -0.042    29.047     8.839
    54   1 H        0.930     0.075     2.034     2.230
    55   6 C        2.936    -0.044    29.082     8.844
    56   1 H        0.930     0.072     2.064     2.247
    57   6 C        2.935    -0.056    29.402     8.893
    58   1 H        0.930     0.068     2.102     2.267
    59   7 N        2.739    -0.113    23.465     7.195

 Mol. C6AA /au·bohr⁶  :      41889.032813
 Mol. C8AA /au·bohr⁸  :    1000321.676034
 Mol. α(0) /au        :        317.226331


Wiberg/Mayer (AO) data.
largest (>0.10) Wiberg bond orders for each atom

 ---------------------------------------------------------------------------
     #   Z sym  total        # sym  WBO       # sym  WBO       # sym  WBO
 ---------------------------------------------------------------------------
     1   6 C    3.990 --    46 C    1.002    49 C    0.976     3 H    0.964
                             2 H    0.955
     2   1 H    0.994 --     1 C    0.955
     3   1 H    0.994 --     1 C    0.964
     4   8 O    1.968 --    49 C    1.658    59 N    0.190
     5   6 C    3.933 --    29 C    1.380     6 C    1.344    12 O    1.070
     6   6 C    3.991 --    30 C    1.476     5 C    1.344     7 H    0.972
                            27 C    0.108
     7   1 H    0.993 --     6 C    0.972
     8   6 C    3.936 --    10 H    0.981    11 H    0.981     9 H    0.979
                            12 O    0.967
     9   1 H    0.994 --     8 C    0.979
    10   1 H    0.996 --     8 C    0.981
    11   1 H    0.997 --     8 C    0.981
    12   8 O    2.206 --     5 C    1.070     8 C    0.967
    13   6 C    3.965 --    55 C    1.403    57 C    1.402    34 N    0.997
    14   1 H    0.995 --    57 C    0.974
    15   6 C    3.967 --    21 C    0.998    16 H    0.974    17 H    0.974
                            34 N    0.961
    16   1 H    0.997 --    15 C    0.974
    17   1 H    0.995 --    15 C    0.974
    18   6 C    3.957 --    38 O    1.655    34 N    1.201    19 C    1.011
    19   6 C    3.952 --    20 C    1.430    35 N    1.220    18 C    1.011
                            36 N    0.134
    20   6 C    3.981 --    19 C    1.430    24 C    1.322    21 C    1.012
    21   6 C    3.989 --    20 C    1.012    15 C    0.998    23 H    0.963
                            22 H    0.961
    22   1 H    0.994 --    21 C    0.961
    23   1 H    0.992 --    21 C    0.963
    24   6 C    3.968 --    36 N    1.426    20 C    1.322    25 C    1.000
    25   6 C    3.952 --    39 O    1.660    37 N    1.252    24 C    1.000
    26   6 C    3.956 --    27 C    1.402    30 C    1.372    35 N    1.005
    27   6 C    3.991 --    29 C    1.435    26 C    1.402    28 H    0.973
                             6 C    0.108
    28   1 H    0.995 --    27 C    0.973
    29   6 C    3.991 --    27 C    1.435     5 C    1.380    58 H    0.971
    30   6 C    3.990 --     6 C    1.476    26 C    1.372    31 H    0.972
    31   1 H    0.993 --    30 C    0.972
    32   1 H    0.957 --    37 N    0.941
    33   1 H    0.955 --    37 N    0.942
    34   7 N    3.471 --    18 C    1.201    13 C    0.997    15 C    0.961
                            38 O    0.188
    35   7 N    3.691 --    36 N    1.220    19 C    1.220    26 C    1.005
    36   7 N    2.965 --    24 C    1.426    35 N    1.220    19 C    0.134
    37   7 N    3.369 --    25 C    1.252    33 H    0.942    32 H    0.941
                            39 O    0.193
    38   8 O    2.001 --    18 C    1.655    34 N    0.188
    39   8 O    1.973 --    25 C    1.660    37 N    0.193
    40   6 C    3.971 --    43 C    1.007    42 H    0.974    41 H    0.972
                            59 N    0.960
    41   1 H    0.997 --    40 C    0.972
    42   1 H    0.996 --    40 C    0.974
    43   6 C    3.992 --    40 C    1.007    46 C    1.006    44 H    0.979
                            45 H    0.971
    44   1 H    0.997 --    43 C    0.979
    45   1 H    0.996 --    43 C    0.971
    46   6 C    3.994 --    43 C    1.006     1 C    1.002    48 H    0.981
                            47 H    0.977
    47   1 H    0.997 --    46 C    0.977
    48   1 H    0.997 --    46 C    0.981
    49   6 C    3.951 --     4 O    1.658    59 N    1.238     1 C    0.976
    50   6 C    3.994 --    57 C    1.442    52 C    1.406    51 H    0.974
                            55 C    0.109
    51   1 H    0.995 --    50 C    0.974
    52   6 C    3.968 --    50 C    1.406    53 C    1.405    59 N    0.991
    53   6 C    3.993 --    55 C    1.441    52 C    1.405    54 H    0.973
                            57 C    0.110
    54   1 H    0.994 --    53 C    0.973
    55   6 C    3.992 --    53 C    1.441    13 C    1.403    56 H    0.973
                            50 C    0.109
    56   1 H    0.995 --    55 C    0.973
    57   6 C    3.993 --    50 C    1.442    13 C    1.402    14 H    0.974
                            53 C    0.110
    58   1 H    0.995 --    29 C    0.971
    59   7 N    3.481 --    49 C    1.238    52 C    0.991    40 C    0.960
                             4 O    0.190
 ---------------------------------------------------------------------------

Topologies differ in total number of bonds
Writing topology from bond orders to xtbtopo.mol

molecular dipole:
                 x           y           z       tot (Debye)
 q only:       -0.321      -0.432       1.551
   full:       -0.505      -0.146       1.744       4.631
molecular quadrupole (traceless):
                xx          xy          yy          xz          yz          zz
 q only:     -152.719     -51.794    -187.120      53.431     176.986     339.839
  q+dip:     -209.521     -55.028    -148.246      39.559     243.383     357.767
   full:     -207.989     -55.205    -150.210      42.059     242.722     358.199


           -------------------------------------------------
          | TOTAL ENERGY              -96.829206693092 Eh   |
          | GRADIENT NORM               0.932431449888 Eh/α |
          | HOMO-LUMO GAP               3.056513928947 eV   |
           -------------------------------------------------

------------------------------------------------------------------------
 * finished run on 2026/10/03 at 18:55:59.496     
------------------------------------------------------------------------
 total:
 * wall-time:     0 d,  0 h,  0 min,  0.151 sec
 *  cpu-time:     0 d,  0 h,  0 min,  0.109 sec
 * ratio c/w:     0.724 speedup
 SCF:
 * wall-time:     0 d,  0 h,  0 min,  0.085 sec
 *  cpu-time:     0 d,  0 h,  0 min,  0.094 sec
 * ratio c/w:     1.103 speedup

normal termination of xtb
