119
Coordinates from ORCA-job Apixaban_10MeCN_XTB E -2869.315254008591
  C          36.85746962702621    -11.97247174296496     -3.35879225669535
  C          38.12484179534759    -12.73616390058519     -2.99368173428496
  C          38.05404277213365    -13.62302039063195     -1.75871434853948
  N          36.80429016091468    -14.01801799810332     -1.31793067648525
  C          35.55303163448600    -13.40627771444777     -1.81167158497582
  C          35.67048127458185    -12.91717606616919     -3.24304543671426
  C          36.67739867784174    -14.90770008087780     -0.20989078512104
  C          37.46428182403123    -16.05772753213095     -0.11471819064803
  C          37.28579134714451    -16.93852910097598      0.94284141012612
  C          36.32653690948177    -16.68698583250487      1.92196756141037
  C          35.53703932709863    -15.54538640260268      1.82634099824941
  C          35.71240535958968    -14.66320466326995      0.77068417081373
  N          36.16428764094160    -17.57843214077050      3.01830704855744
  C          37.36887442360571    -18.02260832053376      3.75828708313449
  C          37.10806249476538    -18.11714208862048      5.26080075591189
  C          35.87545686847242    -18.93321309060630      5.45136022356209
  C          34.90886942332266    -18.96753451264217      4.46451521723100
  C          34.92702279324980    -18.14692349569332      3.24278313398436
  O          39.09034467341402    -14.00462670864557     -1.23031445576998
  O          33.94326745319105    -17.94480773446470      2.53933265243295
  C          35.37913293475064    -19.77708680906163      6.45982953100222
  N          34.20075600385641    -20.31903337869659      6.09629478887254
  N          33.91563422213544    -19.80968673790503      4.89202125073415
  C          32.82962870133083    -20.33518877913895      4.12280893635862
  C          36.00323131658222    -20.07725197147129      7.76960929523757
  N          35.21425072788103    -20.77019482437477      8.63638441909531
  O          37.13997068723204    -19.70583604340972      8.03640029018655
  C          31.78343973290542    -19.51057214253633      3.71734494976505
  C          30.79985229285097    -20.01787387604627      2.89091841915335
  C          30.86088973116376    -21.34629425045143      2.45225951170093
  C          31.88733280359450    -22.18333596145341      2.89690764683158
  C          32.87292962067811    -21.66478130285581      3.73119898873642
  O          29.88368481060290    -21.71907652442277      1.58628248375994
  C          29.94792147402875    -23.03256125679345      1.03545072983929
  H          36.71629987189944    -11.12552805885506     -2.67334013690799
  H          36.93983608618709    -11.55788735215191     -4.36919231536698
  H          38.40067195559978    -13.41271196500115     -3.81559125938551
  H          38.98394750818593    -12.07555126096860     -2.84401822024691
  H          34.76449492887026    -14.16192732396637     -1.72131505250568
  H          35.26934157159917    -12.55759644464682     -1.16840767696994
  H          35.80212763024236    -13.77318550702268     -3.91890582376292
  H          34.73289591984592    -12.42227470340369     -3.52075904158571
  H          38.20759620735434    -16.26700822486353     -0.87326248983201
  H          37.88093779182356    -17.84579440000641      0.98979822082441
  H          34.78652211037447    -15.34757171138844      2.58355811538481
  H          35.09726193690724    -13.77065365331560      0.72637301252735
  H          37.69161492473710    -19.00718190778517      3.38504657479431
  H          38.16287311746490    -17.30170547995072      3.55732488406578
  H          37.96689070287466    -18.56845673742164      5.76315240528165
  H          36.98107661012195    -17.11456780758763      5.69112609829380
  H          34.29261632214482    -21.06183193122715      8.35839788744545
  H          35.58877636040562    -21.03876673742933      9.53076975448008
  H          31.76544341391931    -18.47053746904896      4.02058513556417
  H          29.98672508471216    -19.39076248486496      2.54099149858542
  H          31.96180038083243    -23.21645277660252      2.57891208352067
  H          33.69628800115177    -22.29129511034230      4.06085286759067
  H          30.91465995854976    -23.21694553556196      0.54890283351284
  H          29.77265378204665    -23.79460824750887      1.80318959533263
  H          29.15339848632464    -23.08073885242818      0.28934764833646
  N          31.79610206832767    -23.54845901836594     10.23719397230164
  C          31.54558097786094    -22.89700784480223      9.31578838791381
  C          31.26156770037366    -22.07162807582931      8.15853198404842
  H          30.66967969556860    -21.20083133919691      8.45231981153250
  H          30.72404333916461    -22.65325561631184      7.40442246346928
  H          32.20262258922440    -21.73212173284790      7.71806112735295
  N          33.47928629044747    -17.11771024536160    -10.21534799615574
  C          34.19698271999852    -17.41614997474495    -11.06990514595114
  C          35.09644133736978    -17.78271997062453    -12.14621544548250
  H          36.09364422359894    -17.96961040181865    -11.73881592122850
  H          35.15803709218316    -16.96673638016318    -12.87179043134787
  H          34.73317401122068    -18.68205957968686    -12.65053554834850
  N          31.14528698905488    -28.20201201369760      1.39468137403198
  C          32.23397959064717    -28.07472122756364      1.75908426690996
  C          33.60081605242239    -27.90547495413035      2.21081709499059
  H          34.07041858980779    -27.08194327182139      1.66551162875264
  H          34.17303236660901    -28.82029142151700      2.03192629880480
  H          33.61774994679249    -27.67802233987976      3.27906990825748
  N          32.72071108720849    -33.24740640912940      3.56196380172583
  C          31.92713911015788    -32.42720860438007      3.38063590565249
  C          30.93985001941100    -31.39035014333594      3.14893555752450
  H          29.97073787815793    -31.83674384015428      2.90918896543845
  H          31.24399185881226    -30.74833191599738      2.31693888120150
  H          30.82674501462974    -30.76895027305045      4.04208896703501
  N          40.16210566555595    -16.16064359948626      4.55672808294346
  C          40.82376527390146    -15.41068137951952      3.97913908913739
  C          41.66249332810123    -14.47775427853777      3.25400585904855
  H          41.14190154359189    -13.52391774753397      3.12978187516024
  H          41.90015429336348    -14.87907182362928      2.26515204106317
  H          42.59260013191255    -14.30656183945615      3.80305316412027
  N          36.87947432995913    -11.74599074399664     -7.94796543922585
  C          37.79799224867357    -12.04874784920525     -8.58078103118199
  C          38.93582164425507    -12.46278318840973     -9.37713707987113
  H          39.76134870278472    -11.75481996551149     -9.26775570491804
  H          38.66748941554959    -12.51868706373731    -10.43496983304980
  H          39.28221823058558    -13.45208248602822     -9.06529420515318
  N          37.66420844489813    -16.77430071807114     -9.85112466547454
  C          37.03750202209402    -16.10858984099106     -9.14393578012187
  C          36.27879866636668    -15.26348945194794     -8.24613080022230
  H          36.92811180286187    -14.89899575701652     -7.44538370362533
  H          35.44612252098998    -15.82176409156416     -7.81198789885750
  H          35.88192928992648    -14.39937004556624     -8.78491449349461
  N          42.89647879520449    -17.22393560080782    -10.97512791393117
  C          42.98525433910323    -16.51869100250294    -10.06508215013164
  C          43.08402065745509    -15.62180051097190     -8.93193964103954
  H          42.28372044229467    -14.87881942754733     -8.99450716826717
  H          44.04714129486891    -15.10364400053778     -8.94730555477885
  H          42.99526559054060    -16.18307310583626     -7.99781936759727
  N          41.02102047227193    -14.13756688557085    -11.23667333662370
  C          40.55569175779529    -15.04474203392768    -11.78147751407194
  C          39.97777437913038    -16.18385009068428    -12.46146897762319
  H          39.07951699441576    -16.50379387171833    -11.92468875914809
  H          40.70489455641829    -17.00105734771102    -12.47050288778454
  H          39.71921772466055    -15.91224465032760    -13.48878092925809
  N          31.19195593609808    -25.05363577364214      6.34957591443681
  C          32.22320472377472    -25.17817105625722      6.85568749432755
  C          33.51973042119908    -25.32344079114187      7.48931923328552
  H          33.39449451167743    -25.58424874406727      8.54330091408184
  H          34.07285288387153    -24.38112129655888      7.42544216680844
  H          34.09603884887979    -26.10612485437187      6.98691100843953
