119
Coordinates from ORCA-job Apixaban_10MeOH_XTB2_Opt_from_confined_final E -179.619017939170
  C          32.58547003235044    -15.77449534224498     -6.10273550710497
  C          31.12011467631065    -15.94200143971510     -6.48298607240671
  C          30.11069707126411    -15.63414930442018     -5.39115012308361
  N          30.55688959066527    -15.58787857274729     -4.10446927484326
  C          31.96400821336404    -15.60453725049619     -3.72579843602056
  C          32.80096255801524    -16.38548192845469     -4.72514065596059
  C          29.63314016194807    -15.39602228242753     -3.05526952634047
  C          29.87121790050217    -14.44490533653478     -2.06811879312467
  C          28.98532032838971    -14.28506714967629     -1.02175401351406
  C          27.84492427184237    -15.07648941714600     -0.94096616731454
  C          27.59580892705669    -16.01658447248177     -1.93451782978818
  C          28.48388309770602    -16.17669100912987     -2.97866286680851
  N          26.94334610135784    -14.92589625926793      0.14094855417242
  C          26.63034866695958    -13.57261132317373      0.59242911531227
  C          25.16065141160835    -13.43317296962921      0.98353599476242
  C          24.87133870970500    -14.52611096148671      1.94262868607222
  C          25.57777727472902    -15.71788297001923      1.88315122085022
  C          26.55457269209346    -16.01992463223196      0.84021929563993
  O          28.93642147974303    -15.47631964437111     -5.67175235558255
  O          26.95658330617205    -17.15397720695194      0.59051970212975
  C          23.97172987461794    -14.68733726821299      3.00685005765639
  N          24.12481278133411    -15.90276882455233      3.53957142082374
  N          25.08376238801186    -16.51861127739081      2.86167107542682
  C          25.43930713505909    -17.83557297550706      3.20134545440961
  C          23.02568554613529    -13.66694090529552      3.51260027080502
  N          22.27592078394052    -14.04051806750890      4.56565620330728
  O          22.94906373088554    -12.56789899702920      2.99127363541206
  C          26.76450813830114    -18.24288731289390      3.23536525770807
  C          27.08659532765849    -19.54732106249658      3.56328290490607
  C          26.07992494651160    -20.45825765387292      3.87938739362232
  C          24.74675146701627    -20.03081520519022      3.86777655642960
  C          24.42862626371533    -18.73733668402826      3.52736539352901
  O          26.27585891807425    -21.75318394928610      4.20101150078668
  C          27.59195655080626    -22.27154327042625      4.18021446478220
  H          33.21633351421372    -16.26094740717976     -6.85034715075072
  H          32.85335366054107    -14.71476521317829     -6.07821674956839
  H          30.85527702140753    -15.32789117082596     -7.34660377047307
  H          30.93011644656451    -16.98277631705395     -6.76714706663148
  H          32.34835304714828    -14.57729033234481     -3.67397404992600
  H          32.02718568480351    -16.04719413431758     -2.72807836043223
  H          33.84955398032223    -16.34176563775814     -4.42816796493558
  H          32.48978193281916    -17.43000582034572     -4.74046435121429
  H          30.75146712691216    -13.82445676326837     -2.11467943335411
  H          29.18490541258978    -13.54817264099443     -0.25817613590895
  H          26.70968135347221    -16.62937108101609     -1.88178180120415
  H          28.28118111670836    -16.90286303134130     -3.74853552703156
  H          27.25437114229754    -13.33842005426341      1.46424119216209
  H          26.87330124534187    -12.88915784491446     -0.22141190570658
  H          24.96346441525129    -12.46012858668733      1.43104700841078
  H          24.51364910248111    -13.53447509318805      0.10657808134188
  H          22.43491620566715    -14.90451476906650      5.06997872271234
  H          21.65499644872062    -13.35222983365169      4.95854466220587
  H          27.54244379500582    -17.53740983386272      2.99053665951445
  H          28.11866821984441    -19.85342786696038      3.57591532857768
  H          23.97739297618134    -20.74532266841526      4.11425406812013
  H          23.39920314157706    -18.41825450034887      3.48989567960149
  H          27.49558654754454    -23.31812034746275      4.45993973620762
  H          28.02293336359298    -22.20367240937134      3.17800759931968
  H          28.24191083164021    -21.75694198180227      4.89247655009285
  H          37.94074344009020    -18.00269648398424     -3.27625721865269
  C          38.11084919438388    -18.88495348736159     -2.65373591070502
  O          37.20655913312139    -19.92275723479797     -2.94952411837842
  H          38.05385510484507    -18.58768421900598     -1.60100528875326
  H          39.10977928131783    -19.27734932652397     -2.85472264719155
  H          36.30812799632987    -19.60021622975750     -2.79564103367089
  H          32.84290920453941    -20.20629211632533     -1.94657491188508
  C          33.23539479681184    -19.18777659509830     -1.87444208025996
  O          34.64383373205433    -19.19348527718205     -1.77418549441184
  H          32.78029511499510    -18.67492863105798     -1.02254899081040
  H          32.98472553596157    -18.64084710447165     -2.78021384937199
  H          34.88762429606095    -19.71097528227865     -0.98586301749839
  H          36.60495446918177    -20.28365056934408      1.94457535552439
  C          35.52468478942860    -20.25889170088038      1.76896167160551
  O          35.19279715041250    -20.75683703722062      0.49160364725420
  H          35.17730356637903    -19.22714597982664      1.79308812215575
  H          35.01985879527386    -20.82510881106860      2.55656355355375
  H          35.52666889218717    -21.65509122496593      0.39545018520405
  H          32.38224982739505    -16.03624855269236      1.38624528037501
  C          31.84254296769537    -15.54964753318007      0.56308452443882
  O          31.63768391927331    -16.44385558650876     -0.49746035930694
  H          32.45292653010619    -14.72726985836932      0.18828918466484
  H          30.89694133192354    -15.15185634619557      0.93884973087502
  H          30.90972058249876    -17.04462889982463     -0.25098252628548
  H          34.11344465140287    -15.87840577948526     -1.36835530585379
  C          35.15546293882865    -15.76094807744968     -1.67549768030992
  O          35.47517374511971    -16.61668101818611     -2.74243123899833
  H          35.80544707465213    -15.94602899265217     -0.81171766876455
  H          35.31439402673280    -14.74103601999000     -2.02379983273029
  H          35.26654250966169    -17.52314823421623     -2.45974847458968
  H          30.37129316359083    -19.61865784863491     -0.67241467962941
  C          29.39640825243459    -19.13317361387305     -0.63538294450777
  O          29.49066272288193    -18.05974419830614      0.27241400459124
  H          28.64468231380094    -19.85514286611447     -0.30706666591050
  H          29.13620768227155    -18.77648658181841     -1.63517608357867
  H          28.59137489578693    -17.67228267348004      0.34765089145881
  H          21.44626569573255    -17.60572295990246      5.01284963934972
  C          22.00113282607695    -17.57716222073610      5.95721052944555
  O          22.91824079827408    -16.51007340957009      5.98476105857254
  H          22.50530426749934    -18.53736503474562      6.10784009226672
  H          21.29991771694844    -17.41508070355645      6.77375065005713
  H          23.51740115905174    -16.58674764392057      5.21697233658383
  H          30.97910158636253    -20.06171774274382      7.39459657681729
  C          30.97678923238363    -20.83418397545030      6.62140796503840
  O          29.92767698754159    -20.64269458597879      5.70758790659246
  H          30.82629457889806    -21.80537752709664      7.08990702637694
  H          31.95192846234026    -20.83185326625386      6.12084892044603
  H          30.00058652118957    -19.74297670334511      5.34900633834998
  H          31.06127034784057    -16.87894463889404      3.22394316992301
  C          30.75076109956051    -17.91647757391285      3.38211873665544
  O          30.04314512952847    -18.04675390147136      4.60150808824532
  H          31.64003962437944    -18.54049808013186      3.47121813818415
  H          30.15829510818597    -18.24774041736814      2.52386144831459
  H          29.19488594774282    -17.59475245549417      4.52308613330891
  H          27.86022800402790    -15.52528605944088      5.30579487939656
  C          28.36638284682388    -14.75365792801676      4.71668322556693
  O          27.52786508843827    -14.24886420164255      3.70550763578834
  H          29.23074344563518    -15.18101716178094      4.21107782316297
  H          28.71018008383408    -13.96513269567122      5.39097217150994
  H          26.77083807907405    -13.81443250772897      4.11667255331990
