118
d_D3a_D7b
C     25.91324538    39.09660179    43.40885425
H     26.60741581    38.47993178    43.12551465
H     26.34412664    39.92921012    43.65726804
C     25.24561490    38.54083746    44.59239886
H     24.80614842    39.26201608    45.07160620
H     25.91560690    38.16156118    45.18173265
C     24.24908706    37.50405668    44.27256021
H     23.79152110    37.23828644    45.08576532
H     24.70268061    36.72335660    43.91685180
C     23.24636503    37.98687262    43.27827576
H     22.59275716    38.53114792    43.74379596
H     22.77910140    37.21752314    42.91784765
C     23.79585209    38.78459860    42.13453400
C     26.63255542    39.68600267    40.46895023
H     27.04445199    38.88273980    40.69486676
C     25.54542216    40.12784569    41.19153701
C     24.95768419    41.32713390    40.86052839
C     27.11189049    40.43237409    39.41189371
H     27.85495023    40.13822734    38.93599015
H     26.76903533    40.73897882    36.68626427
N     25.01577806    39.34949878    42.27502387
O     23.14108628    38.92606589    41.10548106
H     24.24247238    41.64425870    41.36349158
C     25.42008065    42.05952470    39.79293120
H     25.00584134    42.86098808    39.56685734
C     26.49181645    41.61145269    39.05964642
C     26.70312007    41.70211910    36.59013962
H     25.80622611    41.91141316    36.28666261
C     27.16532686    43.68058474    38.01297325
C     27.37709298    44.32646179    36.70781759
C     27.70702117    43.65649931    35.56439047
C     27.70212606    42.16790913    35.54818615
H     28.58681789    41.82835996    35.75648245
H     27.44648784    41.84358638    34.67095038
C     27.98966607    44.65562931    34.63209148
C     28.46068506    44.48204812    33.23993593
C     27.16049444    46.77999174    37.27591270
C     26.06154869    46.73223615    38.10359158
H     25.50717959    45.98517262    38.09745596
C     25.78234755    47.79116445    38.94055254
H     25.04192637    47.75835844    39.50078148
C     26.59873206    48.89591044    38.94558689
C     27.67807229    48.95515505    38.08156629
H     28.21235087    49.71564552    38.06284479
C     27.96542454    47.90231732    37.25310080
H     28.69699997    47.94245970    36.67997133
C     25.42716093    49.86417233    40.76188656
H     25.44464661    50.64584136    41.31944100
H     25.58469521    49.08444120    41.29898895
H     24.56773413    49.79316184    40.33931567
H     28.68662279    45.53253268    31.64561970
H     28.04756836    46.24263754    32.75003059
N     26.93156476    42.33678397    37.90127357
N     27.46659002    45.66264936    36.44068230
N     27.82756186    45.87526555    35.15786658
N     28.42064811    45.56810713    32.47377054
O     27.27845798    44.25102180    39.07868256
O     28.88367393    43.39848071    32.87510276
O     26.43449692    49.96743514    39.77090591
C     18.53816469    51.98742738    35.41210134
H     17.88455681    51.44315208    35.87762154
H     18.07090106    52.75677686    35.05167323
O     18.43288594    51.04823411    33.23930664
C     21.89053171    41.07838956    31.07941247
C     22.96987195    41.01914495    30.21539187
H     23.50415053    40.25865448    30.19667037
C     20.71896058    40.11012767    32.89571214
H     20.73644627    39.32845864    33.45326658
H     20.87649487    40.88985880    33.43281453
H     19.85953379    40.18113816    32.47314125
O     21.72629657    40.00686486    31.90473149
C     21.78361611    48.36284731    31.19347199
H     23.14674988    49.83607266    31.06981573
C     21.99491972    48.27218090    28.72396520
H     21.09802577    48.06288684    28.42048819
H     22.06083498    49.23532118    28.82008985
C     22.45712652    46.29371526    30.14679883
C     22.66889264    45.64783821    28.84164317
C     22.99882083    46.31780069    27.69821605
C     22.99392571    47.80639087    27.68201173
H     23.87861754    48.14594004    27.89030803
H     22.73828750    48.13071362    26.80477596
C     23.28146572    45.31867069    26.76591706
C     23.75248471    45.49225188    25.37376151
C     22.45229410    43.19430826    29.40973828
C     21.35334835    43.24206385    30.23741716
H     20.79897925    43.98912738    30.23128154
C     21.07414720    42.18313555    31.07437811
C     23.25722419    42.07198268    29.38692638
H     23.98879962    42.03184030    28.81379691
H     23.97842244    44.44176732    23.77944528
H     23.33936801    43.73166246    24.88385617
N     22.22336441    47.63751603    30.03509915
N     22.75838967    44.31165064    28.57450788
N     23.11936151    44.09903445    27.29169216
N     23.71244776    44.40619287    24.60759612
O     22.57025763    45.72327820    31.21250814
O     24.17547358    46.57581929    25.00892834
C     21.20504504    50.87769821    35.54267983
H     21.89921547    51.49436822    35.25934023
H     21.63592629    50.04508988    35.79109362
C     20.53741456    51.43346254    36.72622444
H     20.09794807    50.71228392    37.20543178
H     21.20740656    51.81273882    37.31555822
C     19.54088671    52.47024332    36.40638578
H     19.08332075    52.73601356    37.21959090
H     19.99448026    53.25094340    36.05067738
C     19.08765175    51.18970140    34.26835958
C     21.92435507    50.28829733    32.60277580
H     22.33625164    51.09156020    32.82869233
C     20.83722181    49.84645431    33.32536259
C     20.24948384    48.64716610    32.99435397
H     19.53427203    48.33004130    33.49731716
C     20.71188030    47.91477530    31.92675677
H     20.29764099    47.11331192    31.70068292
C     22.40369015    49.54192591    31.54571929
H     20.33372603    42.21594156    31.63460706
N     20.30757771    50.62480122    34.40884945
