
                                 *****************
                                 * O   R   C   A *
                                 *****************

                                            #,                                       
                                            ###                                      
                                            ####                                     
                                            #####                                    
                                            ######                                   
                                           ########,                                 
                                     ,,################,,,,,                         
                               ,,#################################,,                 
                          ,,##########################################,,             
                       ,#########################################, ''#####,          
                    ,#############################################,,   '####,        
                  ,##################################################,,,,####,       
                ,###########''''           ''''###############################       
              ,#####''   ,,,,##########,,,,          '''####'''          '####       
            ,##' ,,,,###########################,,,                        '##       
           ' ,,###''''                  '''############,,,                           
         ,,##''                                '''############,,,,        ,,,,,,###''
      ,#''                                            '''#######################'''  
     '                                                          ''''####''''         
             ,#######,   #######,   ,#######,      ##                                
            ,#'     '#,  ##    ##  ,#'     '#,    #''#        ,####,    ,#,          
            ##       ##  ##   ,#'  ##            #'  '#       #'       ,# #          
            ##       ##  #######   ##           ,######,      #####,      #          
            '#,     ,#'  ##    ##  '#,     ,#' ,#      #,     #,   #      #          
             '#######'   ##     ##  '#######'  #'      '#     '####' #    #          



                #########################################################
                #                        -***-                          #
                #          Department of theory and spectroscopy        #
                #                                                       #
                #                      Frank Neese                      #
                #                                                       #
                #     Directorship, Architecture, Infrastructure        #
                #                    SHARK, DRIVERS                     #
                #        Core code/Algorithms in most modules           #
                #                                                       #
                #        Max Planck Institute fuer Kohlenforschung      #
                #                Kaiser Wilhelm Platz 1                 #
                #                 D-45470 Muelheim/Ruhr                 #
                #                      Germany                          #
                #                                                       #
                #                  All rights reserved                  #
                #                        -***-                          #
                #########################################################


                         Program Version 6.1.1  -  RELEASE   -


 With contributions from (in alphabetic order):
[Max-Planck-Institut fuer Kohlenforschung]                               
  Daniel Aravena         : Magnetic Suceptibility                        
  Michael Atanasov       : Ab Initio Ligand Field Theory (pilot matlab implementation)
  Alexander A. Auer      : GIAO ZORA, VPT2 properties, NMR spectrum      
  Ute Becker             : All parallelization in ORCA, NUMFREQ, NUMCALC 
  Giovanni Bistoni       : ED, misc. LED, open-shell LED, HFLD           
  Dmytro Bykov           : pre 5.0 version of the SCF Hessian            
  Marcos Casanova-Pﾃ｡ez   : Triplet and SCS-CIS(D). UHF-(DLPNO)-IP/EA/STEOM-CCSD. UHF-CVS-IP/STEOM-CCSD   
  Vijay G. Chilkuri      : MRCI spin determinant printing, contributions to CSF-ICE 
  Pauline Colinet        : FMM embedding                                 
  Dipayan Datta          : RHF DLPNO-CCSD density                        
  Achintya Kumar Dutta   : EOM-CC, STEOM-CC                              
  Nicolas Foglia         : Exact transition moments, OPA infrastructure, MCD improvements    
  Dmitry Ganyushin       : Spin-Orbit,Spin-Spin,Magnetic field MRCI      
  Miquel Garcia-Rates    : C-PCM and meta-GGA Hessian, CCSD/C-PCM, Gaussian charge scheme 
  Tiago L. C. Gouveia    : GS-ROHF, GS-ROCIS                             
  Yang Guo               : DLPNO-NEVPT2, F12-NEVPT2, CIM, IAO-localization        
  Andreas Hansen         : Spin unrestricted coupled pair/coupled cluster methods 
  Ingolf Harden          : AUTO-CI MPn and infrastructure                
  Benjamin Helmich-Paris : MC-RPA, TRAH-(SCF,CASSCF), AVAS, COSX integrals, SCF dyn. polar., MC-PDFT, srDFT 
  Lee Huntington         : MR-EOM, pCC                                   
  Robert Izsak           : Overlap fitted RIJCOSX, COSX-SCS-MP3, EOM     
  Riya Kayal             : Wick's Theorem for AUTO-CI, AUTO-CI UHF-CCSDT 
  Emily Kempfer          : AUTO-CI RHF CISDT and CCSDT, approximate NEVPT4
  Christian Kollmar      : KDIIS, OOCD, Brueckner-CCSD(T), CCSD density, CASPT2, CASPT2-K, improved NEVPT2 
  Axel Koslowski         : Symmetry handling                             
  Simone Kossmann        : meta-GGA functionals, TD-DFT gradient, OOMP2, (MP2 Hessian; deprecated post 5.0) 
  Lucas Lang             : DCDCAS, Hyperfine gauge corrections, ICE-SOC+SSC
  Marvin Lechner         : AUTO-CI (C++ implementation), FIC-MRCC        
  Spencer Leger          : CASSCF response                               
  Dagmar Lenk            : GEPOL surface, SMD, ORCA-2-JSON               
  Dimitrios Liakos       : Extrapolation schemes; Compound Job, Property file
  Dimitrios Manganas     : Further ROCIS development; embedding schemes. LFT, Crystal Embedding 
  Dimitrios Pantazis     : SARC Basis sets                               
  Anastasios Papadopoulos: AUTO-CI, single reference methods and gradients 
  Taras Petrenko         : pre 6.0 DFT Hessian and TD-DFT gradient,  ECA, NRVS 
  Petra Pikulova         : Analytic Raman intensities                    
  Peter Pinski           : DLPNO-MP2, DLPNO-MP2 Gradient                 
  Shashank Vittal Rao    : ES-AILFT, MagRelax                            
  Christoph Reimann      : Effective Core Potentials                     
  Marius Retegan         : Local ZFS, SOC                                
  Christoph Riplinger    : Optimizer, TS searches, QM/MM, DLPNO-CCSD(T), (RO)-DLPNO pert. Triples 
  Michael Roemelt        : Original ROCIS implementation, recursive CI coupling coefficients
  Masaaki Saitow         : Open-shell DLPNO-CCSD energy and density      
  Barbara Sandhoefer     : DKH picture change effects                    
  Yorick L. A. Schmerwitz: GMF and freeze-and-release deltaSCF, NEB S-IDPP initial path                    
  Kantharuban Sivalingam : CASSCF convergence/infrastructure, NEVPT2, NEVPT3, NEVPT4(SD), FIC-MRCI and CEPA variants
  Bernardo de Souza      : ESD, SOC TD-DFT                               
  Georgi L. Stoychev     : AutoAux, RI-MP2 NMR, DLPNO-MP2 response, X2C  
  Van Anh Tran           : RI-MP2 g-tensors                              
  Willem Van den Heuvel  : Paramagnetic NMR                              
  Zikuan Wang            : NOTCH, Electric field optimization            
  Frank Wennmohs         : Technical directorship and infrastructure     
  Hang Xu                : AUTO-CI-Response properties                   
                                                                         
[FACCTs GmbH]                                                            
  Markus Bursch, Nicolas Foglia, Miquel Garcia-Rates, Ingolf Harden, Hagen Neugebauer, Anastasios Papadopoulos, 
  Christoph Riplinger, Bernardo de Souza, Georgi L. Stoychev                                                    
                                                                 
  APM, various basis sets, CI-OPT, improved COSX, DLPNO-Multilevel,           
  DOCKER, DRACO, updates on ESD, Fragmentator, GOAT, IRC, LR-CPCM, L-BFGS, MBIS, meta-GGA TD-DFT gradient, ML-optimized integration grids, 
  MM, NACMEs, nearIR, NEB, NEB-TS, NL-DFT gradient (VV10), 2- and 3-layer-ONIOM, interface openCOSMO-RS, QMMM,   
  Crystal-QMMM, RESP, rigid body optimization, SF, symmetry and pop. for TD-DFT, various functionals, SOLVATOR                                   
                                                                         
[Other institutions]                                                     
  V. Asgeirsson          : NEB                                           
  Christoph Bannwarth    : sTDA-DFT, sTD-DFT, PBEh-3c, B97-3c, D3        
  Giovanni Bistoni       : ETS/NOCV, ADLD/ADEX, COVALED                  
  Martin Brehm           : Molecular dynamics                            
  Ronald Cardenas        : ETS/NOCV                                      
  Martina Colucci        : COVALED                                       
  Sebastian Ehlert       : rSCAN, r2SCAN, r2SCAN-3c, D4, dhf basis sets  
  Marvin Friede          : D4 for Fr, Ra, Ac-Lr                          
  Lars Goerigk           : TD-DFT with DH, B97 family of functionals     
  Stefan Grimme          : VdW corrections, initial TS optimization, DFT functionals, gCP, sTDA/sTD-DF 
  Waldemar Hujo          : DFT-NL                                        
  H. Jonsson             : NEB                                           
  Holger Kruse           : gCP                                           
  Marcel Mueller         : wB97X-3c, vDZP basis set                      
  Hagen Neugebauer       : wr2SCAN, Native XTB                           
  Gianluca Regni         : ADLD/ADEX                                     
  Tobias Risthaus        : pre 6.0 range-separated hybrid DFT and stability analysis
  Lukas Wittmann         : regularized MP2, r2SCAN double-hybrids, wr2SCAN        
                                                                         
We gratefully acknowledge several colleagues who have allowed us to      
interface, adapt or use parts of their codes:                            
  Ed Valeev, F. Pavosevic, A. Kumar             : LibInt (2-el integral package), F12 methods 
  Garnet Chan, S. Sharma, J. Yang, R. Olivares  : DMRG                   
  Ulf Ekstrom                                   : XCFun DFT Library      
  Mihaly Kallay                                 : mrcc  (arbitrary order and MRCC methods)
  Frank Weinhold                                : gennbo (NPA and NBO analysis)           
  Simon Mueller                                 : openCOSMO-RS                            
  Christopher J. Cramer and Donald G. Truhlar   : smd solvation model                     
  S Lehtola, MJT Oliveira, MAL Marques          : LibXC Library                           
  Liviu Ungur et al                             : ANISO software                          


 Your calculation uses the libint2 library for the computation of 2-el integrals
 For citations please refer to: http://libint.valeyev.net

 Your ORCA version has been built with support for libXC version: 7.0.0
 For citations please refer to: https://libxc.gitlab.io

 This ORCA versions uses:
   CBLAS   interface :  Fast vector & matrix operations
   LAPACKE interface :  Fast linear algebra routines
   Shared memory     :  Shared parallel matrices


  ***********************************
  * Starting time: Sat Oct  3 08:19:08 2026
  * Host name:     DESKTOP-2KDTO5M
  * Process ID:    3988
  * Working dir.:  C:\Users\naoki\Downloads\デスクトップ\data\Molecules\Calculations\Apixaban\CrystalFragment
  ***********************************

NOTE: MaxCore=2000 MB was set to SCF,MP2,MDCI,CIPSI,MRCI,RASCI and CIS
      => If you want to overwrite this, your respective input block should be placed after the MaxCore statement
Your calculation utilizes the semiempirical GFN2-xTB method
Please cite in your paper:
Bannwarth, C.; Ehlert S.; Grimme, S. J. Chem. Theory Comput. 2019, 15, 1652.
   

================================================================================

================================================================================
                                        WARNINGS
                       Please study these warnings very carefully!
================================================================================


WARNING: Found dipole moment calculation with XTB calculation
  ===> : Switching off dipole moment calculation

Environment variable XTBEXE for xtb has been set!

================================================================================
                                       INPUT FILE
================================================================================
NAME = D6\D6_pull_+3.0A_XTB2_SP.inp
|  1> # D6 pull-apart: molecule B displaced +3.0 A along centroid vector (rigid), XTB2 single point
|  2> 
|  3> ! XTB2
|  4> 
|  5> %pal
|  6>   nprocs 4
|  7> end
|  8> 
|  9> %maxcore 2000
| 10> 
| 11> * xyz 0 1
| 12> H     22.83953108    41.40894130    37.29825264
| 13> C     21.66192281    40.99367530    38.86881303
| 14> H     22.07616212    40.19221192    39.09488688
| 15> C     20.59018700    41.44174731    39.60209780
| 16> C     20.37888339    41.35108090    42.07160460
| 17> H     21.27577734    41.14178684    42.37508161
| 18> C     19.91667659    39.37261526    40.64877097
| 19> C     19.70491047    38.72673821    41.95392663
| 20> C     19.37498228    39.39670069    43.09735375
| 21> C     19.37987740    40.88529087    43.11355807
| 22> H     18.49518556    41.22484004    42.90526177
| 23> H     19.63551561    41.20961362    43.99079384
| 24> C     19.09233738    38.39757069    44.02965274
| 25> C     18.62131839    38.57115188    45.42180829
| 26> C     19.92150901    36.27320826    41.38583152
| 27> C     21.02045476    36.32096385    40.55815264
| 28> H     21.57482386    37.06802738    40.56428826
| 29> C     21.29965591    35.26203555    39.72119169
| 30> H     22.04007708    35.29484156    39.16096274
| 31> C     20.48327140    34.15728956    39.71615733
| 32> C     19.40393116    34.09804495    40.58017793
| 33> H     18.86965258    33.33755448    40.59889943
| 34> C     19.11657892    35.15088268    41.40864342
| 35> H     18.38500348    35.11074030    41.98177289
| 36> C     21.65484253    33.18902767    37.89985766
| 37> H     21.63735684    32.40735864    37.34230322
| 38> H     21.49730824    33.96875880    37.36275527
| 39> H     22.51426932    33.26003816    38.32242855
| 40> H     18.39538066    37.52066732    47.01612452
| 41> H     19.03443510    36.81056246    45.91171363
| 42> N     20.15043870    40.71641603    40.76047065
| 43> N     19.61541343    37.39055064    42.22106192
| 44> N     19.25444159    37.17793445    43.50387764
| 45> N     18.66135535    37.48509287    46.18797368
| 46> O     19.80354548    38.80217820    39.58306166
| 47> O     18.19832953    39.65471929    45.78664146
| 48> O     20.64750653    33.08576486    38.89083831
| 49> C     21.16875807    43.95659821    35.25288997
| 50> H     20.47458764    44.57326822    35.53622957
| 51> H     20.73787682    43.12398988    35.00447618
| 52> C     21.83638855    44.51236254    34.06934536
| 53> H     22.27585503    43.79118392    33.59013802
| 54> H     21.16639655    44.89163882    33.48001158
| 55> C     22.83291639    45.54914332    34.38918402
| 56> H     23.29048235    45.81491356    33.57597890
| 57> H     22.37932284    46.32984340    34.74489242
| 58> C     23.83563842    45.06632738    35.38346846
| 59> H     24.48924629    44.52205208    34.91794826
| 60> H     24.30290205    45.83567686    35.74389657
| 61> C     23.28615136    44.26860140    36.52721022
| 62> C     20.44944804    43.36719733    38.19279400
| 63> H     20.03755147    44.17046020    37.96687747
| 64> C     21.53658130    42.92535431    37.47020721
| 65> C     22.12431926    41.72606610    37.80121583
| 66> C     19.97011296    42.62082591    39.24985051
| 67> H     19.22705322    42.91497266    39.72575407
| 68> H     20.31296812    42.31422118    41.97547995
| 69> N     22.06622540    43.70370122    36.38672035
| 70> O     23.94091717    44.12713411    37.55626316
| 71> H     22.83953108    58.25114130    37.29825264
| 72> C     21.66192281    57.83587530    38.86881303
| 73> H     22.07616212    57.03441192    39.09488688
| 74> C     20.59018700    58.28394731    39.60209780
| 75> C     20.37888339    58.19328090    42.07160460
| 76> H     21.27577734    57.98398684    42.37508161
| 77> C     19.91667659    56.21481526    40.64877097
| 78> C     19.70491047    55.56893821    41.95392663
| 79> C     19.37498228    56.23890069    43.09735375
| 80> C     19.37987740    57.72749087    43.11355807
| 81> H     18.49518556    58.06704004    42.90526177
| 82> H     19.63551561    58.05181362    43.99079384
| 83> C     19.09233738    55.23977069    44.02965274
| 84> C     18.62131839    55.41335188    45.42180829
| 85> C     19.92150901    53.11540826    41.38583152
| 86> C     21.02045476    53.16316385    40.55815264
| 87> H     21.57482386    53.91022738    40.56428826
| 88> C     21.29965591    52.10423555    39.72119169
| 89> H     22.04007708    52.13704156    39.16096274
| 90> C     20.48327140    50.99948956    39.71615733
| 91> C     19.40393116    50.94024495    40.58017793
| 92> H     18.86965258    50.17975448    40.59889943
| 93> C     19.11657892    51.99308268    41.40864342
| 94> H     18.38500348    51.95294030    41.98177289
| 95> C     21.65484253    50.03122767    37.89985766
| 96> H     21.63735684    49.24955864    37.34230322
| 97> H     21.49730824    50.81095880    37.36275527
| 98> H     22.51426932    50.10223816    38.32242855
| 99> H     18.39538066    54.36286732    47.01612452
|100> H     19.03443510    53.65276246    45.91171363
|101> N     20.15043870    57.55861603    40.76047065
|102> N     19.61541343    54.23275064    42.22106192
|103> N     19.25444159    54.02013445    43.50387764
|104> N     18.66135535    54.32729287    46.18797368
|105> O     19.80354548    55.64437820    39.58306166
|106> O     18.19832953    56.49691929    45.78664146
|107> O     20.64750653    49.92796486    38.89083831
|108> C     21.16875807    60.79879821    35.25288997
|109> H     20.47458764    61.41546822    35.53622957
|110> H     20.73787682    59.96618988    35.00447618
|111> C     21.83638855    61.35456254    34.06934536
|112> H     22.27585503    60.63338392    33.59013802
|113> H     21.16639655    61.73383882    33.48001158
|114> C     22.83291639    62.39134332    34.38918402
|115> H     23.29048235    62.65711356    33.57597890
|116> H     22.37932284    63.17204340    34.74489242
|117> C     23.83563842    61.90852738    35.38346846
|118> H     24.48924629    61.36425208    34.91794826
|119> H     24.30290205    62.67787686    35.74389657
|120> C     23.28615136    61.11080140    36.52721022
|121> C     20.44944804    60.20939733    38.19279400
|122> H     20.03755147    61.01266020    37.96687747
|123> C     21.53658130    59.76755431    37.47020721
|124> C     22.12431926    58.56826610    37.80121583
|125> C     19.97011296    59.46302591    39.24985051
|126> H     19.22705322    59.75717266    39.72575407
|127> H     20.31296812    59.15642118    41.97547995
|128> N     22.06622540    60.54590122    36.38672035
|129> O     23.94091717    60.96933411    37.55626316
|130> *
|131> 
|132>                          ****END OF INPUT****
================================================================================

                       ****************************
                       * Single Point Calculation *
                       ****************************

      -----------------------------------------------------------      
     |                   =====================                   |     
     |                           x T B                           |     
     |                   =====================                   |     
     |                         S. Grimme                         |     
     |          Mulliken Center for Theoretical Chemistry        |     
     |                    University of Bonn                     |     
      -----------------------------------------------------------      

   * xtb version 6.7.1pre (5071a88) compiled by 'Marcel@Raven' on 2024-07-23

   xtb is free software: you can redistribute it and/or modify it under
   the terms of the GNU Lesser General Public License as published by
   the Free Software Foundation, either version 3 of the License, or
   (at your option) any later version.
   
   xtb is distributed in the hope that it will be useful,
   but WITHOUT ANY WARRANTY; without even the implied warranty of
   MERCHANTABILITY or FITNESS FOR A PARTICULAR PURPOSE.  See the
   GNU Lesser General Public License for more details.
   
   Cite this work as:
   * C. Bannwarth, E. Caldeweyher, S. Ehlert, A. Hansen, P. Pracht,
     J. Seibert, S. Spicher, S. Grimme, WIREs Comput. Mol. Sci., 2020, 11,
     e01493. DOI: 10.1002/wcms.1493
   
   for GFN2-xTB:
   * C. Bannwarth, S. Ehlert and S. Grimme., J. Chem. Theory Comput., 2019,
     15, 1652-1671. DOI: 10.1021/acs.jctc.8b01176
   for GFN1-xTB:
   * S. Grimme, C. Bannwarth, P. Shushkov, J. Chem. Theory Comput., 2017,
     13, 1989-2009. DOI: 10.1021/acs.jctc.7b00118
   for GFN0-xTB:
   * P. Pracht, E. Caldeweyher, S. Ehlert, S. Grimme, ChemRxiv, 2019, preprint.
     DOI: 10.26434/chemrxiv.8326202.v1
   for GFN-FF:
   * S. Spicher and S. Grimme, Angew. Chem. Int. Ed., 2020, 59, 15665-15673.
     DOI: 10.1002/anie.202004239
   
   for ALPB and GBSA implicit solvation:
   * S. Ehlert, M. Stahn, S. Spicher, S. Grimme, J. Chem. Theory Comput.,
     2021, 17, 4250-4261. DOI: 10.1021/acs.jctc.1c00471
   
   for ddCOSMO and CPCM-X implicit solvation:
   * M. Stahn, S. Ehlert, S. Grimme, J. Phys. Chem. A,
     2023, XX, XXXX-XXXX. DOI: 10.1021/acs.jpca.3c04382
   
   for DFT-D4:
   * E. Caldeweyher, C. Bannwarth and S. Grimme, J. Chem. Phys., 2017,
     147, 034112. DOI: 10.1063/1.4993215
   * E. Caldeweyher, S. Ehlert, A. Hansen, H. Neugebauer, S. Spicher,
     C. Bannwarth and S. Grimme, J. Chem. Phys., 2019, 150, 154122.
     DOI: 10.1063/1.5090222
   * E. Caldeweyher, J.-M. Mewes, S. Ehlert and S. Grimme, Phys. Chem. Chem. Phys.
     2020, 22, 8499-8512. DOI: 10.1039/D0CP00502A
   
   for sTDA-xTB:
   * S. Grimme and C. Bannwarth, J. Chem. Phys., 2016, 145, 054103.
     DOI: 10.1063/1.4959605
   
   in the mass-spec context:
   * V. Asgeirsson, C. Bauer and S. Grimme, Chem. Sci., 2017, 8, 4879.
     DOI: 10.1039/c7sc00601b
   * J. Koopman and S. Grimme, ACS Omega 2019, 4, 12, 15120-15133.
     DOI: 10.1021/acsomega.9b02011
   
   for metadynamics refer to:
   * S. Grimme, J. Chem. Theory Comput., 2019, 155, 2847-2862
     DOI: 10.1021/acs.jctc.9b00143
   
   for SPH calculations refer to:
   * S. Spicher and S. Grimme, J. Chem. Theory Comput., 2021, 17, 1701-1714
     DOI: 10.1021/acs.jctc.0c01306
   
   for ONIOM refer to:
   * C. Plett, A. Katbashev, S. Ehlert, S. Grimme, M. Bursch,
     Phys. Chem. Chem. Phys., 2023, 25, 17860-17868. DOI: 10.1039/D3CP02178E
   
   for DIPRO refer to:
   * J. Kohn, N. Gildemeister, S. Grimme, D. Fazzi, A. Hansen,
     J. Chem. Phys., 2023, just accepted.
   
   for PTB refer to:
   * S. Grimme, M. Mueller, A. Hansen, J. Chem. Phys., 2023, 158, 124111.
     DOI: 10.1063/5.0137838
   
   with help from (in alphabetical order)
   P. Atkinson, C. Bannwarth, F. Bohle, G. Brandenburg, E. Caldeweyher
   M. Checinski, S. Dohm, S. Ehlert, S. Ehrlich, I. Gerasimov, C. Hﾃｶlzer
   A. Katbashev, J. Kohn, J. Koopman, C. Lavigne, S. Lehtola, F. Mﾃ､rz, M. Mﾃｼller,
   F. Musil, H. Neugebauer, J. Pisarek, C. Plett, P. Pracht, F. Pultar,
   J. Seibert, P. Shushkov, S. Spicher, M. Stahn, M. Steiner, T. Strunk,
   J. Stﾃｼckrath, T. Rose, and J. Unsleber
   
 * started run on 2026/10/03 at 08:19:08.661     
   ID    Z sym.   atoms
    1    1 H      1, 3, 6, 11, 12, 17, 19, 22, 24, 26-30, 39, 40, 42, 43, 45,
                  46, 48, 49, 52, 56, 57, 60, 62, 65, 70, 71, 76, 78, 81, 83,
                  85-89, 98, 99, 101, 102, 104, 105, 107, 108, 111, 115, 116
    2    6 C      2, 4, 5, 7-10, 13-16, 18, 20, 21, 23, 25, 38, 41, 44, 47,
                  50, 51, 53-55, 61, 63, 64, 66-69, 72-75, 77, 79, 80, 82,
                  84, 97, 100, 103, 106, 109, 110, 112-114
    3    7 N      31-34, 58, 90-93, 117
    4    8 O      35-37, 59, 94-96, 118

           -------------------------------------------------
          |                Calculation Setup                |
           -------------------------------------------------

          program call               : C:\ORCA_6.1.1\xtb-6.7.1pre\xtb.exe  D6\D6_pull_+3.0A_XTB2_SP_XTB.xyz --grad -c 0 -u 0 -P 4 --namespace D6\D6_pull_+3.0A_XTB2_SP --input D6\D6_pull_+3.0A_XTB2_SP_XTB.input.tmp --acc 1.000000      
          calculation namespace      : D6\D6_pull_+3.0A_XTB2_SP
          coordinate file            : D6\D6_pull_+3.0A_XTB2_SP_XTB.xyz
          omp threads                :                     4


molecular fragmentation (1/2 indicates fragments):
111111111111111111111111111111111111111111111111111111111112222222222222
2222222222222222222222222222222222222222222222
# atoms in fragment 1/2:    59    59
 fragment masses (1/2) :      459.50      459.50
CMA distance (Bohr)    :  31.827
constraining FC (au)   :  0.0500

           -------------------------------------------------
          |                 G F N 2 - x T B                 |
           -------------------------------------------------

        Reference                      10.1021/acs.jctc.8b01176
      * Hamiltonian:
        H0-scaling (s, p, d)           1.850000    2.230000    2.230000
        zeta-weighting                 0.500000
      * Dispersion:
        s8                             2.700000
        a1                             0.520000
        a2                             5.000000
        s9                             5.000000
      * Repulsion:
        kExp                           1.500000    1.000000
        rExp                           1.000000
      * Coulomb:
        alpha                          2.000000
        third order                    shell-resolved
        anisotropic                    true
        a3                             3.000000
        a5                             4.000000
        cn-shift                       1.200000
        cn-exp                         4.000000
        max-rad                        5.000000


          ...................................................
          :                      SETUP                      :
          :.................................................:
          :  # basis functions                 322          :
          :  # atomic orbitals                 322          :
          :  # shells                          186          :
          :  # electrons                       348          :
          :  max. iterations                   250          :
          :  Hamiltonian                  GFN2-xTB          :
          :  restarted?                      false          :
          :  GBSA solvation                  false          :
          :  PC potential                    false          :
          :  electronic temp.          300.0000000     K    :
          :  accuracy                    1.0000000          :
          :  -> integral cutoff          0.2500000E+02      :
          :  -> integral neglect         0.1000000E-07      :
          :  -> SCF convergence          0.1000000E-05 Eh   :
          :  -> wf. convergence          0.1000000E-03 e    :
          :  Broyden damping             0.4000000          :
          :  net charge                          0          :
          :  unpaired electrons                  0          :
          ...................................................

 iter      E             dE          RMSdq      gap      omega  full diag
   1   -197.4366221 -0.197437E+03  0.413E+00    2.89       0.0  T
   2   -197.9680666 -0.531445E+00  0.242E+00    2.65       1.0  T
   3   -198.0190858 -0.510192E-01  0.130E+00    3.14       1.0  T
   4   -198.0258914 -0.680561E-02  0.434E-01    2.97       1.0  T
   5   -198.0407020 -0.148105E-01  0.914E-02    3.03       1.0  T
   6   -198.0409044 -0.202448E-03  0.528E-02    3.05       1.0  T
   7   -198.0410678 -0.163414E-03  0.222E-02    3.06       1.0  T
   8   -198.0410749 -0.709200E-05  0.829E-03    3.06       1.1  T
   9   -198.0410778 -0.289570E-05  0.363E-03    3.06       2.5  T
  10   -198.0410780 -0.207508E-06  0.147E-03    3.06       6.3  T
  11   -198.0410781 -0.125571E-06  0.552E-04    3.06      16.7  T
  12   -198.0410781 -0.109425E-07  0.259E-04    3.06      35.5  T

   *** convergence criteria satisfied after 12 iterations ***

         #    Occupation            Energy/Eh            Energy/eV
      -------------------------------------------------------------
         1        2.0000           -0.7219244             -19.6446
       ...           ...                  ...                  ...
       168        2.0000           -0.3872536             -10.5377
       169        2.0000           -0.3835927             -10.4381
       170        2.0000           -0.3830773             -10.4241
       171        2.0000           -0.3813032             -10.3758
       172        2.0000           -0.3807693             -10.3613
       173        2.0000           -0.3803352             -10.3494
       174        2.0000           -0.3800600             -10.3420 (HOMO)
       175                         -0.2675011              -7.2791 (LUMO)
       176                         -0.2674239              -7.2770
       177                         -0.2400677              -6.5326
       178                         -0.2399466              -6.5293
       179                         -0.2337382              -6.3603
       ...                                ...                  ...
       322                          0.8686874              23.6382
      -------------------------------------------------------------
                  HL-Gap            0.1125589 Eh            3.0629 eV
             Fermi-level           -0.3237806 Eh           -8.8105 eV

 SCC (total)                   0 d,  0 h,  0 min,  0.314 sec
 SCC setup                      ...        0 min,  0.002 sec (  0.637%)
 Dispersion                     ...        0 min,  0.003 sec (  0.955%)
 classical contributions        ...        0 min,  0.000 sec (  0.000%)
 integral evaluation            ...        0 min,  0.015 sec (  4.777%)
 iterations                     ...        0 min,  0.208 sec ( 66.242%)
 molecular gradient             ...        0 min,  0.084 sec ( 26.752%)
 printout                       ...        0 min,  0.002 sec (  0.637%)

         :::::::::::::::::::::::::::::::::::::::::::::::::::::
         ::                     SUMMARY                     ::
         :::::::::::::::::::::::::::::::::::::::::::::::::::::
         :: total energy            -193.659102623335 Eh    ::
         :: gradient norm              1.318629366009 Eh/a0 ::
         :: HOMO-LUMO gap              3.062884579823 eV    ::
         ::.................................................::
         :: SCC energy              -198.041897811276 Eh    ::
         :: -> isotropic ES            0.296893826871 Eh    ::
         :: -> anisotropic ES          0.005634662752 Eh    ::
         :: -> anisotropic XC          0.036970157251 Eh    ::
         :: -> dispersion             -0.138982915959 Eh    ::
         :: repulsion energy           4.382795187942 Eh    ::
         :: add. restraining           0.000000000000 Eh    ::
         :: total charge               0.000000000000 e     ::
         :::::::::::::::::::::::::::::::::::::::::::::::::::::


Property printout bound to 'properties.out'
#
# Number of atoms
#
       118
#
# The current total energy in Eh
#
   -193.659102623335
#
# The current gradient in Eh/bohr
#
      -0.125150184595
       0.054311145899
       0.085536416559
       0.062403640759
      -0.119505601767
       0.033344119009
      -0.071934932011
       0.138810347923
      -0.038101311354
       0.007341523419
       0.004467200036
      -0.015861491902
       0.081780096633
       0.075712142632
       0.030928824494
      -0.108456380634
       0.030446483891
      -0.034854751193
      -0.000455221520
      -0.003046331848
      -0.003382293690
      -0.004540989845
       0.017125337984
       0.015277552269
       0.003069113900
      -0.006525910758
      -0.004808617407
      -0.056731396234
       0.073310940181
       0.061470216533
       0.104926744163
      -0.036403956336
       0.026129418952
      -0.032245100155
      -0.037023988928
      -0.102374945858
       0.001904121454
       0.013977875815
      -0.014066734453
       0.004654880908
      -0.031309392709
       0.018373223282
       0.004527982121
      -0.019235590742
      -0.008438470597
       0.085919151317
       0.113016363018
      -0.001465204179
      -0.095914693984
      -0.127850958113
       0.000470827084
       0.111851828358
       0.002644800887
      -0.085682682079
      -0.129567545313
      -0.009985879196
       0.096143997505
       0.003334745613
       0.013221880513
       0.008090460443
      -0.081002402549
      -0.114773972124
       0.001058933793
       0.092506803812
       0.132161972603
      -0.001294817891
      -0.113699229626
      -0.010816504665
       0.084470873037
       0.125919743901
       0.006407636687
      -0.098806993906
       0.073248089713
       0.003696008764
      -0.076922530687
       0.010100068830
       0.107649532789
       0.068599730732
       0.023953212286
      -0.107413387445
       0.074438635852
      -0.118163437583
      -0.007993095444
      -0.059238671101
       0.063013742489
      -0.014646706475
      -0.185681064527
      -0.148861116586
       0.273447594724
       0.117401803710
      -0.002746854101
       0.000683145699
       0.005238982699
       0.000493379763
       0.014678158553
      -0.009337493584
      -0.005175704590
      -0.015622568195
       0.021979979612
       0.082550949364
      -0.233691340749
       0.055509726790
      -0.001190402696
       0.001843241906
       0.005432726927
      -0.000178088548
      -0.000116928596
      -0.004049079914
       0.009576599888
       0.004510565724
      -0.007373963024
      -0.096087776954
      -0.014172670012
      -0.030417557153
       0.081140479241
      -0.076394249503
      -0.039436588635
       0.047860579739
       0.103555349118
       0.025975510542
      -0.026484053881
      -0.016421524589
      -0.068915512802
      -0.055319113714
       0.086678173726
       0.055931441958
       0.082561796084
      -0.045431669585
       0.068557971878
      -0.000060441340
       0.072255116037
      -0.044680278852
      -0.055881133323
      -0.029897503298
       0.096115813933
       0.055386504172
      -0.092577873707
      -0.045336227009
       0.099228396938
       0.024890880387
      -0.013410626727
      -0.076629686630
       0.070803857429
       0.051594016620
      -0.054865041360
      -0.089095612765
      -0.048383028639
      -0.003854544416
       0.007386500652
      -0.024128651218
      -0.062704326623
       0.122713032193
      -0.032588940259
       0.071859488006
      -0.138487734689
       0.037378661281
      -0.003939324933
      -0.007638066549
       0.010166274016
       0.107673182823
      -0.049177474636
      -0.072529963828
      -0.113900697352
       0.045026238535
       0.072519826837
       0.128202720978
      -0.052207971316
      -0.082389648564
       0.011996501262
      -0.111825742841
       0.016701639848
       0.000667724880
       0.003627347318
      -0.001138761775
       0.006128507704
      -0.000017940850
       0.010211928135
      -0.125156016518
       0.054279115831
       0.085533344413
       0.062408758336
      -0.119527240353
       0.033358871541
      -0.071938716231
       0.138805314786
      -0.038120500158
       0.007310449803
       0.004507712995
      -0.015886333001
       0.081755033330
       0.075752061532
       0.030906540005
      -0.108446372842
       0.030437185405
      -0.034851768936
      -0.000487754368
      -0.003046260862
      -0.003538441756
      -0.004557241248
       0.017081194465
       0.015322937068
       0.003054207779
      -0.006500791925
      -0.004795383451
      -0.056727555925
       0.073296751725
       0.061468138531
       0.104939002778
      -0.036403289964
       0.026123729947
      -0.032250960191
      -0.037012976237
      -0.102371624872
       0.001884754487
       0.014061243184
      -0.014020222958
       0.004643555819
      -0.031162410402
       0.018190069997
       0.004547507819
      -0.019221998759
      -0.008458398383
       0.085910723975
       0.113044870626
      -0.001409541170
      -0.095911198583
      -0.127824414750
       0.000459906716
       0.111941268846
       0.002687910967
      -0.085622068899
      -0.129591203032
      -0.009965419050
       0.096104431924
       0.003224485536
       0.013009405411
       0.007815901538
      -0.081018540717
      -0.114783820603
       0.001161074774
       0.092479912624
       0.132158888926
      -0.001360083035
      -0.113697479189
      -0.010832847520
       0.084501856296
       0.125902736251
       0.006410752686
      -0.098825265364
       0.073174051921
       0.003677699950
      -0.076992730082
       0.009971499607
       0.107726300713
       0.068408636944
       0.023943884067
      -0.107508408023
       0.074422420399
      -0.118099095992
      -0.007870039067
      -0.059160277778
       0.063001431922
      -0.014635105960
      -0.185689111277
      -0.148864962286
       0.273465417974
       0.117376317138
      -0.002708180848
       0.000665966735
       0.005265856958
       0.000502128710
       0.014742309544
      -0.009334788425
      -0.005144586716
      -0.015727675850
       0.022003894732
       0.082560515525
      -0.233796998832
       0.055628392167
      -0.001148083107
       0.001879536745
       0.005547574911
      -0.000147610720
      -0.000176577714
      -0.003998064454
       0.009754598197
       0.004718823584
      -0.007007255420
      -0.096107087087
      -0.014179297349
      -0.030413371117
       0.081140117779
      -0.076426039297
      -0.039405087885
       0.047877756508
       0.103603221060
       0.025969573673
      -0.026480340674
      -0.016439783257
      -0.068922222269
      -0.055325675926
       0.086723853017
       0.055931408123
       0.082572782440
      -0.045446007703
       0.068554576888
      -0.000038119672
       0.072278701205
      -0.044712261638
      -0.055878477130
      -0.029915977877
       0.096081534997
       0.055287241381
      -0.092569543839
      -0.045325644754
       0.099321682040
       0.025009324816
      -0.013456114445
      -0.076674475561
       0.070806866825
       0.051588334149
      -0.054797076749
      -0.089097201590
      -0.048377161260
      -0.004415700003
       0.007011151610
      -0.024044793537
      -0.062712952284
       0.122809556300
      -0.032626370655
       0.071859954969
      -0.138473401661
       0.037454733768
      -0.004015298170
      -0.007787594472
       0.010362129284
       0.107694160305
      -0.049141813757
      -0.072581198636
      -0.113889370673
       0.045025604323
       0.072517265777
       0.128230733433
      -0.052179756499
      -0.082422822926
       0.011985694290
      -0.111832916568
       0.016702603865
       0.000970565674
       0.003886041937
      -0.001226414007
       0.006336456872
       0.000172101674
       0.010240634504
#
# The atomic numbers and current coordinates in Bohr
#
   1    43.1604586   78.2515582   70.4834824
   6    40.9351014   77.4668192   73.4514114
   1    41.7179003   75.9522729   73.8786291
   6    38.9098143   78.3135525   74.8371188
   6    38.5105083   78.1422179   79.5038103
   1    40.2053923   77.7467094   80.0772988
   6    37.6370641   74.4034597   76.8150444
   6    37.2368841   73.1829289   79.2814312
   6    36.6134102   74.4489745   81.4421953
   6    36.6226606   77.2620023   81.4728170
   1    34.9508353   77.9036572   81.0791941
   1    37.1057468   77.8748834   83.1305524
   6    36.0792887   72.5608925   83.2039850
   6    35.1891918   72.8889134   85.8347778
   6    37.6461960   68.5464293   78.2078870
   6    39.7229025   68.6366743   76.6438006
   1    40.7705083   70.0484197   76.6553953
   6    40.2505162   66.6355898   75.0621736
   1    41.6497094   66.6975842   74.0034944
   6    38.7077731   64.5479224   75.0526601
   6    36.6681156   64.4359663   76.6854224
   1    35.6584754   62.9988476   76.7208009
   6    36.1250986   66.4255413   78.2509953
   1    34.7426214   66.3496832   79.3340530
   6    40.9217217   62.7181726   71.6203511
   1    40.8886785   61.2410323   70.5667259
   1    40.6240250   64.1916509   70.6053747
   1    42.5458029   62.8523630   72.4188944
   1    34.7622314   70.9037852   88.8475988
   1    35.9698693   69.5618815   86.7605647
   7    38.0788104   76.9428751   77.0261262
   7    37.0677592   70.6579004   79.7862437
   7    36.3856213   70.2561140   82.2104141
   7    35.2648507   70.8365593   87.2826205
   8    37.4232773   73.3254898   74.8011457
   8    34.3898587   74.9365590   86.5242125
   8    39.0181325   62.5230342   73.4930332
   6    40.0031552   83.0659320   66.6183071
   1    38.6913632   84.2312694   67.1537414
   1    39.1889076   81.4925303   66.1488731
   6    41.2647939   84.1161744   64.3817320
   1    42.0952652   82.7533443   63.4761613
   1    39.9986925   84.8329027   63.2680525
   6    43.1479586   86.0754061   64.9861394
   1    44.0126330   86.5776391   63.4494045
   1    42.2907910   87.5507154   65.6583309
   6    45.0428286   85.1630162   66.8650647
   1    46.2779685   84.1344849   65.9853590
   1    45.9258289   86.6168760   67.5461751
   6    44.0044486   83.6555326   69.0264234
   6    38.6438562   81.9521257   72.1739206
   1    37.8654845   83.4700726   71.7470002
   6    40.6982403   81.1171634   70.8084295
   6    41.8089041   78.8508372   71.4339451
   6    37.7380442   80.5416882   74.1714679
   1    36.3338648   81.0975450   75.0707953
   1    38.3859465   79.9622892   79.3221611
   7    41.6991226   82.5880259   68.7609360
   8    45.2417766   83.3881981   70.9710516
   1    43.1604586  110.0787035   70.4834824
   6    40.9351014  109.2939645   73.4514114
   1    41.7179003  107.7794182   73.8786291
   6    38.9098143  110.1406979   74.8371188
   6    38.5105083  109.9693632   79.5038103
   1    40.2053923  109.5738547   80.0772988
   6    37.6370641  106.2306050   76.8150444
   6    37.2368841  105.0100743   79.2814312
   6    36.6134102  106.2761199   81.4421953
   6    36.6226606  109.0891476   81.4728170
   1    34.9508353  109.7308025   81.0791941
   1    37.1057468  109.7020288   83.1305524
   6    36.0792887  104.3880378   83.2039850
   6    35.1891918  104.7160587   85.8347778
   6    37.6461960  100.3735746   78.2078870
   6    39.7229025  100.4638196   76.6438006
   1    40.7705083  101.8755651   76.6553953
   6    40.2505162   98.4627351   75.0621736
   1    41.6497094   98.5247295   74.0034944
   6    38.7077731   96.3750678   75.0526601
   6    36.6681156   96.2631117   76.6854224
   1    35.6584754   94.8259930   76.7208009
   6    36.1250986   98.2526866   78.2509953
   1    34.7426214   98.1768285   79.3340530
   6    40.9217217   94.5453180   71.6203511
   1    40.8886785   93.0681776   70.5667259
   1    40.6240250   96.0187963   70.6053747
   1    42.5458029   94.6795084   72.4188944
   1    34.7622314  102.7309306   88.8475988
   1    35.9698693  101.3890269   86.7605647
   7    38.0788104  108.7700204   77.0261262
   7    37.0677592  102.4850457   79.7862437
   7    36.3856213  102.0832593   82.2104141
   7    35.2648507  102.6637046   87.2826205
   8    37.4232773  105.1526352   74.8011457
   8    34.3898587  106.7637043   86.5242125
   8    39.0181325   94.3501795   73.4930332
   6    40.0031552  114.8930773   66.6183071
   1    38.6913632  116.0584148   67.1537414
   1    39.1889076  113.3196756   66.1488731
   6    41.2647939  115.9433197   64.3817320
   1    42.0952652  114.5804896   63.4761613
   1    39.9986925  116.6600480   63.2680525
   6    43.1479586  117.9025514   64.9861394
   1    44.0126330  118.4047844   63.4494045
   1    42.2907910  119.3778608   65.6583309
   6    45.0428286  116.9901615   66.8650647
   1    46.2779685  115.9616303   65.9853590
   1    45.9258289  118.4440213   67.5461751
   6    44.0044486  115.4826779   69.0264234
   6    38.6438562  113.7792711   72.1739206
   1    37.8654845  115.2972179   71.7470002
   6    40.6982403  112.9443088   70.8084295
   6    41.8089041  110.6779825   71.4339451
   6    37.7380442  112.3688335   74.1714679
   1    36.3338648  112.9246903   75.0707953
   1    38.3859465  111.7894345   79.3221611
   7    41.6991226  114.4151713   68.7609360
   8    45.2417766  115.2153435   70.9710516

           -------------------------------------------------
          | TOTAL ENERGY             -193.659102623335 Eh   |
          | GRADIENT NORM               1.318629366009 Eh/ﾎｱ |
          | HOMO-LUMO GAP               3.062884579823 eV   |
           -------------------------------------------------

------------------------------------------------------------------------
 * finished run on 2026/10/03 at 08:19:09.068     
------------------------------------------------------------------------
 total:
 * wall-time:     0 d,  0 h,  0 min,  0.405 sec
 *  cpu-time:     0 d,  0 h,  0 min,  1.609 sec
 * ratio c/w:     3.974 speedup
 SCF:
 * wall-time:     0 d,  0 h,  0 min,  0.315 sec
 *  cpu-time:     0 d,  0 h,  0 min,  1.250 sec
 * ratio c/w:     3.968 speedup


-------------------------   --------------------
FINAL SINGLE POINT ENERGY      -193.659102623330
-------------------------   --------------------


-------------
DIPOLE MOMENT
-------------
                                X             Y             Z
Total Dipole Moment    :      0.99200      -0.29100      -3.44800
                        -----------------------------------------
Magnitude (a.u.)       :      3.59965
Magnitude (Debye)      :      9.14957


--------------------------------
SUGGESTED CITATIONS FOR THIS RUN
--------------------------------

Below you find a list of papers that are relevant to this ORCA run
We neither can nor want to force you to cite these papers, but we appreciate if you do
You receive ORCA, which is the product of decades of hard work by many enthusiastic individuals, for free
The only thing we kindly ask in return is that you cite our papers,
We deeply appreciate it, if you show your appreciation for ORCA by not just citing the generic ORCA reference.

Please note that relegating all ORCA citations to the supporting information does *not* help us.
SI sections are not indexed - citations you put there will not count into any citation statistics
But we need these citations in order to attract the funding resources that allow us to do what we are doing

Therefore, if you are a happy ORCA user, please consider citing a few of the papers listed below in the main body of your paper

In addition to the list printed below, the program has created the file D6\D6_pull_+3.0A_XTB2_SP.bibtex that contains the list in bibtex format
You can import this file easily into all common literature databanks and citation aid programs

It goes without saying that in many instances, there are alternative algorithms to achieve similar
results as the ones you have gotten from ORCA. It is, of course, also the case that in some instances
ORCA just re-implements algorithms worked out by others. We are fully aware of that and we are also
fully appreciative of our colleagues work. Hence this citation list should not be read as indicating
that the listed papers, which are focused on our own work, are the only ones worth citing. It simply
meant to make it easier for users to cite ORCA specific papers. It is not a substitute for doing your
own literature research and citing the relevant literature in a scientifically appropriate manner.

List of essential papers. We consider these as the minimum necessary citations

  1. Bannwarth, C.; Ehlert, S.; Grimme, S.
     GFN2-xTB窶尿n Accurate and Broadly Parametrized Self-Consistent Tight-Binding Quantum Chemical Method with Multipole Electrostatics and Density-Dependent Dispersion Contributions
     J. Chem. Theory Comput. 2019 15(3), 1652-1671
     doi.org/10.1021/acs.jctc.8b01176
  2. Neese, F.
     Software update: the ORCA program system, version 6.0
     WIRES Comput. Molec. Sci. 2025 15(1), e70019
     doi.org/10.1002/wcms.70019

List of papers to cite with high priority. The work reported in these papers was absolutely
necessary for this run to complete.
Our perspective: the developers of density functionals and basis sets usually get cited in chemistry papers
Good! But without the algorithms to do something with them, the functionals or basis sets would not do anything.
Hence, in our opinion, the algorithm design and method developments papers are equally worthy of getting cited

  1. Bannwarth, C.; Caldeweyher, E.; Ehlert, S.; Hansen, A.; Pracht, P.; Seibert, J.; Spicher, S.; Grimme, S.
     Extended tight-binding quantum chemistry methods
     WIRES Comput. Molec. Sci. 2020 11(2), e1493
     doi.org/10.1002/wcms.1493

List of suggested additional citations. These are papers that are important in the 'surrounding' of 
of this run, or papers that preceded the highly important papers. If you like your results we are grateful for a citation.

  1. Neese, F.
     The ORCA program system
     WIRES Comput. Molec. Sci. 2012 2(1), 73-78
     doi.org/10.1002/wcms.81
  2. Neese, F.
     Software update: the ORCA program system, version 4.0
     WIRES Comput. Molec. Sci. 2018 8(1), 1-6
     doi.org/10.1002/wcms.1327
  3. Neese, F.; Wennmohs, F.; Becker, U.; Riplinger, C.
     The ORCA quantum chemistry program package
     J. Chem. Phys. 2020 152(22), 224108
     doi.org/10.1063/5.0004608
  4. Neese, F.
     Software update: The ORCA program system窶之ersion 5.0
     WIRES Comput. Molec. Sci. 2022 12(1), e1606
     doi.org/10.1002/wcms.1606

List of optional additional citations

  1. Neese, F.
     Approximate second-order SCF convergence for spin unrestricted wavefunctions
     Chem. Phys. Lett. 2000 325(1-3), 93-98
     doi.org/10.1016/s0009-2614(00)00662-x

Timings for individual modules:

Sum of individual times          ...        0.475 sec (=   0.008 min)
XTB module                       ...        0.475 sec (=   0.008 min) 100.0 %
                             ****ORCA TERMINATED NORMALLY****
TOTAL RUN TIME: 0 days 0 hours 0 minutes 0 seconds 981 msec
