      -----------------------------------------------------------      
     |                   =====================                   |     
     |                           x T B                           |     
     |                   =====================                   |     
     |                         S. Grimme                         |     
     |          Mulliken Center for Theoretical Chemistry        |     
     |                    University of Bonn                     |     
      -----------------------------------------------------------      

   * xtb version 6.7.1pre (5071a88) compiled by 'Marcel@Raven' on 2024-07-23

   xtb is free software: you can redistribute it and/or modify it under
   the terms of the GNU Lesser General Public License as published by
   the Free Software Foundation, either version 3 of the License, or
   (at your option) any later version.
   
   xtb is distributed in the hope that it will be useful,
   but WITHOUT ANY WARRANTY; without even the implied warranty of
   MERCHANTABILITY or FITNESS FOR A PARTICULAR PURPOSE.  See the
   GNU Lesser General Public License for more details.
   
   Cite this work as:
   * C. Bannwarth, E. Caldeweyher, S. Ehlert, A. Hansen, P. Pracht,
     J. Seibert, S. Spicher, S. Grimme, WIREs Comput. Mol. Sci., 2020, 11,
     e01493. DOI: 10.1002/wcms.1493
   
   for GFN2-xTB:
   * C. Bannwarth, S. Ehlert and S. Grimme., J. Chem. Theory Comput., 2019,
     15, 1652-1671. DOI: 10.1021/acs.jctc.8b01176
   for GFN1-xTB:
   * S. Grimme, C. Bannwarth, P. Shushkov, J. Chem. Theory Comput., 2017,
     13, 1989-2009. DOI: 10.1021/acs.jctc.7b00118
   for GFN0-xTB:
   * P. Pracht, E. Caldeweyher, S. Ehlert, S. Grimme, ChemRxiv, 2019, preprint.
     DOI: 10.26434/chemrxiv.8326202.v1
   for GFN-FF:
   * S. Spicher and S. Grimme, Angew. Chem. Int. Ed., 2020, 59, 15665-15673.
     DOI: 10.1002/anie.202004239
   
   for ALPB and GBSA implicit solvation:
   * S. Ehlert, M. Stahn, S. Spicher, S. Grimme, J. Chem. Theory Comput.,
     2021, 17, 4250-4261. DOI: 10.1021/acs.jctc.1c00471
   
   for ddCOSMO and CPCM-X implicit solvation:
   * M. Stahn, S. Ehlert, S. Grimme, J. Phys. Chem. A,
     2023, XX, XXXX-XXXX. DOI: 10.1021/acs.jpca.3c04382
   
   for DFT-D4:
   * E. Caldeweyher, C. Bannwarth and S. Grimme, J. Chem. Phys., 2017,
     147, 034112. DOI: 10.1063/1.4993215
   * E. Caldeweyher, S. Ehlert, A. Hansen, H. Neugebauer, S. Spicher,
     C. Bannwarth and S. Grimme, J. Chem. Phys., 2019, 150, 154122.
     DOI: 10.1063/1.5090222
   * E. Caldeweyher, J.-M. Mewes, S. Ehlert and S. Grimme, Phys. Chem. Chem. Phys.
     2020, 22, 8499-8512. DOI: 10.1039/D0CP00502A
   
   for sTDA-xTB:
   * S. Grimme and C. Bannwarth, J. Chem. Phys., 2016, 145, 054103.
     DOI: 10.1063/1.4959605
   
   in the mass-spec context:
   * V. Asgeirsson, C. Bauer and S. Grimme, Chem. Sci., 2017, 8, 4879.
     DOI: 10.1039/c7sc00601b
   * J. Koopman and S. Grimme, ACS Omega 2019, 4, 12, 15120-15133.
     DOI: 10.1021/acsomega.9b02011
   
   for metadynamics refer to:
   * S. Grimme, J. Chem. Theory Comput., 2019, 155, 2847-2862
     DOI: 10.1021/acs.jctc.9b00143
   
   for SPH calculations refer to:
   * S. Spicher and S. Grimme, J. Chem. Theory Comput., 2021, 17, 1701-1714
     DOI: 10.1021/acs.jctc.0c01306
   
   for ONIOM refer to:
   * C. Plett, A. Katbashev, S. Ehlert, S. Grimme, M. Bursch,
     Phys. Chem. Chem. Phys., 2023, 25, 17860-17868. DOI: 10.1039/D3CP02178E
   
   for DIPRO refer to:
   * J. Kohn, N. Gildemeister, S. Grimme, D. Fazzi, A. Hansen,
     J. Chem. Phys., 2023, just accepted.
   
   for PTB refer to:
   * S. Grimme, M. Mueller, A. Hansen, J. Chem. Phys., 2023, 158, 124111.
     DOI: 10.1063/5.0137838
   
   with help from (in alphabetical order)
   P. Atkinson, C. Bannwarth, F. Bohle, G. Brandenburg, E. Caldeweyher
   M. Checinski, S. Dohm, S. Ehlert, S. Ehrlich, I. Gerasimov, C. Hölzer
   A. Katbashev, J. Kohn, J. Koopman, C. Lavigne, S. Lehtola, F. März, M. Müller,
   F. Musil, H. Neugebauer, J. Pisarek, C. Plett, P. Pracht, F. Pultar,
   J. Seibert, P. Shushkov, S. Spicher, M. Stahn, M. Steiner, T. Strunk,
   J. Stückrath, T. Rose, and J. Unsleber
   
 * started run on 2026/10/03 at 19:14:33.359     
   ID    Z sym.   atoms
    1    1 H      1, 3, 6, 11, 12, 17, 19, 22, 24, 26-30, 39, 40, 42, 43, 45,
                  46, 48, 49, 52, 56, 57, 61, 62, 64, 65, 67, 68, 70, 71, 74,
                  78, 79, 82, 84, 87, 92, 93, 98, 100, 103, 105, 107-111,
                  120, 121, 123, 124, 126, 127, 130, 133, 135, 137, 140, 142,
                  143, 148, 149, 154, 157-159, 167-169, 173, 175, 176
    2    6 C      2, 4, 5, 7-10, 13-16, 18, 20, 21, 23, 25, 38, 41, 44, 47,
                  50, 51, 53-55, 60, 63, 66, 69, 72, 73, 75-77, 83, 85, 86,
                  88-91, 94-97, 99, 101, 102, 104, 106, 119, 122, 125, 128,
                  129, 131, 132, 134, 136, 139, 141, 144-147, 150-153, 155,
                  156, 166, 171, 172, 174
    3    7 N      31-34, 58, 80, 112-115, 138, 160-163
    4    8 O      35-37, 59, 81, 116-118, 164, 165, 170, 177

           -------------------------------------------------
          |                Calculation Setup                |
           -------------------------------------------------

          program call               : C:\ORCA_6.1.1\xTB_bigstack\xtb.exe t_A_D3a_D8a.xyz -c 0 -u 0 -P 1 --acc 1.0 --namespace t_A_D3a_D8a
          calculation namespace      : t_A_D3a_D8a
          coordinate file            : t_A_D3a_D8a.xyz
          omp threads                :                     1


molecular fragmentation (1/2 indicates fragments):
111111111111111111111111111111111111111111111111111111111112222222222222
222222222222222222222222222222222222222222222222222222222222222222222222
222222222222222222222222222222222
# atoms in fragment 1/2:    59   118
 fragment masses (1/2) :      459.50      919.00
CMA distance (Bohr)    :  14.828
constraining FC (au)   :  0.0500

           -------------------------------------------------
          |                 G F N 2 - x T B                 |
           -------------------------------------------------

        Reference                      10.1021/acs.jctc.8b01176
      * Hamiltonian:
        H0-scaling (s, p, d)           1.850000    2.230000    2.230000
        zeta-weighting                 0.500000
      * Dispersion:
        s8                             2.700000
        a1                             0.520000
        a2                             5.000000
        s9                             5.000000
      * Repulsion:
        kExp                           1.500000    1.000000
        rExp                           1.000000
      * Coulomb:
        alpha                          2.000000
        third order                    shell-resolved
        anisotropic                    true
        a3                             3.000000
        a5                             4.000000
        cn-shift                       1.200000
        cn-exp                         4.000000
        max-rad                        5.000000


          ...................................................
          :                      SETUP                      :
          :.................................................:
          :  # basis functions                 483          :
          :  # atomic orbitals                 483          :
          :  # shells                          279          :
          :  # electrons                       522          :
          :  max. iterations                   250          :
          :  Hamiltonian                  GFN2-xTB          :
          :  restarted?                      false          :
          :  GBSA solvation                  false          :
          :  PC potential                    false          :
          :  electronic temp.          300.0000000     K    :
          :  accuracy                    1.0000000          :
          :  -> integral cutoff          0.2500000E+02      :
          :  -> integral neglect         0.1000000E-07      :
          :  -> SCF convergence          0.1000000E-05 Eh   :
          :  -> wf. convergence          0.1000000E-03 e    :
          :  Broyden damping             0.4000000          :
          :  net charge                          0          :
          :  unpaired electrons                  0          :
          ...................................................

 iter      E             dE          RMSdq      gap      omega  full diag
   1   -296.1992735 -0.296199E+03  0.413E+00    2.89       0.0  T
   2   -296.9860456 -0.786772E+00  0.242E+00    2.68       1.0  T
   3   -297.0617815 -0.757359E-01  0.130E+00    3.02       1.0  T
   4   -297.0738126 -0.120311E-01  0.433E-01    2.86       1.0  T
   5   -297.0952185 -0.214059E-01  0.910E-02    2.93       1.0  T
   6   -297.0954819 -0.263323E-03  0.518E-02    2.93       1.0  T
   7   -297.0957057 -0.223862E-03  0.220E-02    2.94       1.0  T
   8   -297.0957167 -0.109839E-04  0.818E-03    2.94       1.0  T
   9   -297.0957210 -0.434060E-05  0.365E-03    2.94       2.1  T
  10   -297.0957214 -0.324656E-06  0.148E-03    2.94       5.1  T
  11   -297.0957216 -0.206714E-06  0.557E-04    2.94      13.5  T
  12   -297.0957216 -0.174259E-07  0.261E-04    2.94      28.8  T

   *** convergence criteria satisfied after 12 iterations ***

         #    Occupation            Energy/Eh            Energy/eV
      -------------------------------------------------------------
         1        2.0000           -0.7213020             -19.6276
       ...           ...                  ...                  ...
       255        2.0000           -0.3816152             -10.3843
       256        2.0000           -0.3801627             -10.3448
       257        2.0000           -0.3790669             -10.3149
       258        2.0000           -0.3787260             -10.3057
       259        2.0000           -0.3767628             -10.2522
       260        2.0000           -0.3754516             -10.2166
       261        2.0000           -0.3748532             -10.2003 (HOMO)
       262                         -0.2668241              -7.2607 (LUMO)
       263                         -0.2621237              -7.1328
       264                         -0.2612436              -7.1088
       265                         -0.2390339              -6.5044
       266                         -0.2374746              -6.4620
       ...                                ...                  ...
       483                          0.8794939              23.9322
      -------------------------------------------------------------
                  HL-Gap            0.1080291 Eh            2.9396 eV
             Fermi-level           -0.3208387 Eh           -8.7305 eV

 SCC (total)                   0 d,  0 h,  0 min,  0.948 sec
 SCC setup                      ...        0 min,  0.003 sec (  0.316%)
 Dispersion                     ...        0 min,  0.006 sec (  0.633%)
 classical contributions        ...        0 min,  0.001 sec (  0.105%)
 integral evaluation            ...        0 min,  0.061 sec (  6.435%)
 iterations                     ...        0 min,  0.555 sec ( 58.544%)
 molecular gradient             ...        0 min,  0.316 sec ( 33.333%)
 printout                       ...        0 min,  0.006 sec (  0.633%)

         :::::::::::::::::::::::::::::::::::::::::::::::::::::
         ::                     SUMMARY                     ::
         :::::::::::::::::::::::::::::::::::::::::::::::::::::
         :: total energy            -290.517655148406 Eh    ::
         :: gradient norm              1.614572783442 Eh/a0 ::
         :: HOMO-LUMO gap              2.939620318842 eV    ::
         ::.................................................::
         :: SCC energy              -297.091866770589 Eh    ::
         :: -> isotropic ES            0.445314542084 Eh    ::
         :: -> anisotropic ES          0.003259183970 Eh    ::
         :: -> anisotropic XC          0.055392778211 Eh    ::
         :: -> dispersion             -0.231112573671 Eh    ::
         :: repulsion energy           6.574211622184 Eh    ::
         :: add. restraining           0.000000000000 Eh    ::
         :: total charge              -0.000000000000 e     ::
         :::::::::::::::::::::::::::::::::::::::::::::::::::::

           -------------------------------------------------
          |                Property Printout                |
           -------------------------------------------------

    * Orbital Energies and Occupations

         #    Occupation            Energy/Eh            Energy/eV
      -------------------------------------------------------------
         1        2.0000           -0.7213020             -19.6276
       ...           ...                  ...                  ...
       249        2.0000           -0.3888088             -10.5800
       250        2.0000           -0.3882908             -10.5659
       251        2.0000           -0.3879462             -10.5566
       252        2.0000           -0.3864220             -10.5151
       253        2.0000           -0.3840781             -10.4513
       254        2.0000           -0.3828428             -10.4177
       255        2.0000           -0.3816152             -10.3843
       256        2.0000           -0.3801627             -10.3448
       257        2.0000           -0.3790669             -10.3149
       258        2.0000           -0.3787260             -10.3057
       259        2.0000           -0.3767628             -10.2522
       260        2.0000           -0.3754516             -10.2166
       261        2.0000           -0.3748532             -10.2003 (HOMO)
       262                         -0.2668241              -7.2607 (LUMO)
       263                         -0.2621237              -7.1328
       264                         -0.2612436              -7.1088
       265                         -0.2390339              -6.5044
       266                         -0.2374746              -6.4620
       267                         -0.2357491              -6.4151
       268                         -0.2319025              -6.3104
       269                         -0.2317390              -6.3059
       270                         -0.2310084              -6.2861
       271                         -0.2282815              -6.2119
       272                         -0.2277672              -6.1979
       ...                                ...                  ...
       483                          0.8794939              23.9322
      -------------------------------------------------------------
                  HL-Gap            0.1080291 Eh            2.9396 eV
             Fermi-level           -0.3208387 Eh           -8.7305 eV

     #   Z          covCN         q      C6AA      α(0)
     1   1 H        0.930     0.070     2.082     2.256
     2   6 C        2.936    -0.040    28.989     8.830
     3   1 H        0.930     0.095     1.833     2.117
     4   6 C        2.928     0.074    26.357     8.419
     5   6 C        3.764    -0.010    20.803     6.501
     6   1 H        0.930     0.060     2.204     2.321
     7   6 C        2.767     0.277    22.320     7.737
     8   6 C        3.096    -0.002    27.953     8.665
     9   6 C        3.070    -0.019    28.402     8.738
    10   6 C        3.821    -0.082    22.056     6.683
    11   1 H        0.930     0.073     2.051     2.239
    12   1 H        0.930     0.082     1.956     2.187
    13   6 C        3.172     0.023    27.110     8.505
    14   6 C        2.748     0.277    22.321     7.736
    15   6 C        2.920     0.044    27.002     8.521
    16   6 C        2.934    -0.043    29.070     8.842
    17   1 H        0.930     0.091     1.866     2.136
    18   6 C        2.932    -0.078    29.961     8.977
    19   1 H        0.930     0.069     2.097     2.264
    20   6 C        2.878     0.143    24.887     8.178
    21   6 C        2.936    -0.069    29.719     8.941
    22   1 H        0.930     0.076     2.022     2.224
    23   6 C        2.932    -0.048    29.201     8.862
    24   1 H        0.930     0.077     2.008     2.216
    25   6 C        3.664     0.013    20.618     6.513
    26   1 H        0.930     0.071     2.072     2.251
    27   1 H        0.930     0.059     2.207     2.323
    28   1 H        0.930     0.056     2.249     2.345
    29   1 H        0.862     0.205     1.083     1.630
    30   1 H        0.863     0.211     1.053     1.607
    31   7 N        2.745    -0.116    23.516     7.202
    32   7 N        3.019     0.091    19.655     6.585
    33   7 N        1.991    -0.247    27.240     7.741
    34   7 N        2.645    -0.286    27.371     7.770
    35   8 O        0.858    -0.438    22.444     6.352
    36   8 O        0.860    -0.450    22.712     6.390
    37   8 O        1.705    -0.284    18.708     5.840
    38   6 C        3.762    -0.011    20.817     6.504
    39   1 H        0.930     0.058     2.222     2.331
    40   1 H        0.930     0.062     2.174     2.306
    41   6 C        3.827    -0.083    22.066     6.684
    42   1 H        0.930     0.056     2.249     2.345
    43   1 H        0.930     0.058     2.219     2.329
    44   6 C        3.825    -0.079    21.993     6.673
    45   1 H        0.930     0.053     2.279     2.361
    46   1 H        0.930     0.051     2.309     2.376
    47   6 C        3.826    -0.103    22.453     6.743
    48   1 H        0.930     0.070     2.084     2.258
    49   1 H        0.930     0.074     2.043     2.235
    50   6 C        2.766     0.267    22.488     7.766
    51   6 C        2.935    -0.059    29.476     8.904
    52   1 H        0.930     0.062     2.179     2.308
    53   6 C        2.930     0.066    26.530     8.447
    54   6 C        2.938    -0.043    29.074     8.843
    55   6 C        2.935    -0.059    29.476     8.904
    56   1 H        0.930     0.064     2.148     2.292
    57   1 H        0.930     0.066     2.133     2.284
    58   7 N        2.739    -0.112    23.434     7.190
    59   8 O        0.859    -0.481    23.369     6.481
    60   6 C        3.762    -0.011    20.818     6.504
    61   1 H        0.930     0.058     2.217     2.328
    62   1 H        0.930     0.063     2.169     2.303
    63   6 C        3.827    -0.083    22.068     6.684
    64   1 H        0.930     0.056     2.243     2.342
    65   1 H        0.930     0.058     2.217     2.328
    66   6 C        3.825    -0.079    21.992     6.673
    67   1 H        0.930     0.053     2.280     2.361
    68   1 H        0.930     0.051     2.310     2.376
    69   6 C        3.826    -0.103    22.451     6.742
    70   1 H        0.930     0.070     2.086     2.258
    71   1 H        0.930     0.073     2.050     2.239
    72   6 C        2.766     0.267    22.487     7.766
    73   6 C        2.935    -0.058    29.453     8.901
    74   1 H        0.930     0.063     2.168     2.302
    75   6 C        2.930     0.065    26.534     8.448
    76   6 C        2.938    -0.044    29.091     8.846
    77   6 C        2.935    -0.058    29.446     8.899
    78   1 H        0.930     0.068     2.110     2.271
    79   1 H        0.930     0.066     2.131     2.283
    80   7 N        2.739    -0.111    23.420     7.188
    81   8 O        0.859    -0.483    23.415     6.488
    82   1 H        0.930     0.070     2.085     2.258
    83   6 C        2.936    -0.041    29.009     8.833
    84   1 H        0.930     0.094     1.843     2.123
    85   6 C        2.928     0.073    26.362     8.420
    86   6 C        3.764    -0.010    20.795     6.500
    87   1 H        0.930     0.058     2.222     2.331
    88   6 C        2.767     0.277    22.321     7.737
    89   6 C        3.096    -0.001    27.946     8.664
    90   6 C        3.070    -0.018    28.396     8.738
    91   6 C        3.821    -0.082    22.054     6.683
    92   1 H        0.930     0.075     2.028     2.227
    93   1 H        0.930     0.080     1.975     2.197
    94   6 C        3.172     0.023    27.118     8.506
    95   6 C        2.748     0.277    22.319     7.736
    96   6 C        2.920     0.045    27.000     8.521
    97   6 C        2.934    -0.043    29.073     8.843
    98   1 H        0.930     0.091     1.869     2.137
    99   6 C        2.932    -0.079    29.964     8.977
   100   1 H        0.930     0.069     2.097     2.264
   101   6 C        2.878     0.143    24.888     8.178
   102   6 C        2.936    -0.069    29.719     8.941
   103   1 H        0.930     0.076     2.023     2.224
   104   6 C        2.932    -0.048    29.198     8.862
   105   1 H        0.930     0.077     2.008     2.216
   106   6 C        3.664     0.013    20.620     6.513
   107   1 H        0.930     0.071     2.072     2.251
   108   1 H        0.930     0.060     2.199     2.319
   109   1 H        0.930     0.055     2.253     2.347
   110   1 H        0.862     0.204     1.085     1.632
   111   1 H        0.863     0.211     1.053     1.607
   112   7 N        2.745    -0.115    23.502     7.200
   113   7 N        3.019     0.091    19.656     6.585
   114   7 N        1.991    -0.248    27.258     7.743
   115   7 N        2.645    -0.286    27.376     7.771
   116   8 O        0.858    -0.437    22.432     6.350
   117   8 O        0.860    -0.452    22.746     6.394
   118   8 O        1.705    -0.284    18.711     5.840
   119   6 C        3.762    -0.011    20.820     6.504
   120   1 H        0.930     0.059     2.213     2.326
   121   1 H        0.930     0.060     2.200     2.320
   122   6 C        3.827    -0.082    22.051     6.682
   123   1 H        0.930     0.054     2.271     2.356
   124   1 H        0.930     0.057     2.229     2.334
   125   6 C        3.825    -0.078    21.971     6.670
   126   1 H        0.930     0.049     2.336     2.390
   127   1 H        0.930     0.052     2.290     2.366
   128   6 C        2.766     0.268    22.468     7.763
   129   6 C        2.935    -0.055    29.364     8.887
   130   1 H        0.930     0.067     2.115     2.274
   131   6 C        2.930     0.070    26.443     8.433
   132   6 C        2.938    -0.043    29.062     8.841
   133   1 H        0.930     0.074     2.042     2.234
   134   6 C        2.936    -0.044    29.092     8.846
   135   1 H        0.930     0.071     2.070     2.249
   136   6 C        2.935    -0.056    29.394     8.892
   137   1 H        0.930     0.068     2.104     2.268
   138   7 N        2.739    -0.112    23.451     7.192
   139   6 C        2.928     0.070    26.436     8.432
   140   1 H        0.930     0.070     2.087     2.259
   141   6 C        3.764    -0.013    20.842     6.507
   142   1 H        0.930     0.058     2.218     2.329
   143   1 H        0.930     0.071     2.077     2.254
   144   6 C        2.767     0.269    22.467     7.763
   145   6 C        3.096    -0.009    28.119     8.691
   146   6 C        3.070    -0.015    28.324     8.726
   147   6 C        3.821    -0.083    22.060     6.684
   148   1 H        0.930     0.078     2.001     2.212
   149   1 H        0.930     0.084     1.934     2.175
   150   6 C        3.172     0.026    27.042     8.494
   151   6 C        2.748     0.278    22.300     7.732
   152   6 C        2.920     0.046    26.963     8.515
   153   6 C        2.934    -0.042    29.037     8.837
   154   1 H        0.930     0.070     2.082     2.256
   155   6 C        2.932    -0.079    29.965     8.977
   156   6 C        2.932    -0.046    29.148     8.854
   157   1 H        0.930     0.080     1.981     2.201
   158   1 H        0.862     0.206     1.078     1.626
   159   1 H        0.863     0.211     1.049     1.604
   160   7 N        2.745    -0.119    23.598     7.215
   161   7 N        3.019     0.088    19.706     6.593
   162   7 N        1.991    -0.242    27.118     7.723
   163   7 N        2.645    -0.284    27.328     7.764
   164   8 O        0.858    -0.444    22.589     6.372
   165   8 O        0.860    -0.449    22.680     6.385
   166   6 C        3.664     0.013    20.625     6.514
   167   1 H        0.930     0.073     2.057     2.243
   168   1 H        0.930     0.059     2.208     2.324
   169   1 H        0.930     0.056     2.240     2.340
   170   8 O        1.705    -0.281    18.666     5.833
   171   6 C        2.878     0.144    24.857     8.173
   172   6 C        2.936    -0.067    29.663     8.932
   173   1 H        0.930     0.078     1.996     2.209
   174   6 C        3.826    -0.107    22.521     6.753
   175   1 H        0.930     0.072     2.067     2.248
   176   1 H        0.930     0.076     2.015     2.220
   177   8 O        0.859    -0.465    23.031     6.434

 Mol. C6AA /au·bohr⁶  :     376975.792590
 Mol. C8AA /au·bohr⁸  :    9002894.299157
 Mol. α(0) /au        :        951.640702


Wiberg/Mayer (AO) data.
largest (>0.10) Wiberg bond orders for each atom

 ---------------------------------------------------------------------------
     #   Z sym  total        # sym  WBO       # sym  WBO       # sym  WBO
 ---------------------------------------------------------------------------
     1   1 H    0.995 --    54 C    0.974
     2   6 C    3.988 --    54 C    1.440     4 C    1.402     3 H    0.968
                            51 C    0.110
     3   1 H    0.991 --     2 C    0.968
     4   6 C    3.967 --     2 C    1.402    55 C    1.402    31 N    1.000
     5   6 C    3.969 --    10 C    0.998    57 H    0.974     6 H    0.974
                            31 N    0.962
     6   1 H    0.996 --     5 C    0.974
     7   6 C    3.957 --    35 O    1.664    31 N    1.197     8 C    1.008
     8   6 C    3.955 --     9 C    1.432    32 N    1.225     7 C    1.008
                            33 N    0.133
     9   6 C    3.980 --     8 C    1.432    13 C    1.323    10 C    1.011
    10   6 C    3.990 --     9 C    1.011     5 C    0.998    12 H    0.963
                            11 H    0.962
    11   1 H    0.994 --    10 C    0.962
    12   1 H    0.992 --    10 C    0.963
    13   6 C    3.968 --    33 N    1.422     9 C    1.323    14 C    1.002
    14   6 C    3.951 --    36 O    1.659    34 N    1.250    13 C    1.002
    15   6 C    3.955 --    16 C    1.401    23 C    1.372    32 N    1.004
    16   6 C    3.987 --    18 C    1.435    15 C    1.401    17 H    0.967
                            21 C    0.108
    17   1 H    0.992 --    16 C    0.967
    18   6 C    3.991 --    16 C    1.435    20 C    1.381    19 H    0.971
                            23 C    0.100
    19   1 H    0.995 --    18 C    0.971
    20   6 C    3.932 --    18 C    1.381    21 C    1.345    37 O    1.067
    21   6 C    3.991 --    23 C    1.475    20 C    1.345    22 H    0.973
                            16 C    0.108
    22   1 H    0.994 --    21 C    0.973
    23   6 C    3.990 --    21 C    1.475    15 C    1.372    24 H    0.972
                            18 C    0.100
    24   1 H    0.994 --    23 C    0.972
    25   6 C    3.937 --    28 H    0.981    27 H    0.981    26 H    0.980
                            37 O    0.967
    26   1 H    0.995 --    25 C    0.980
    27   1 H    0.996 --    25 C    0.981
    28   1 H    0.997 --    25 C    0.981
    29   1 H    0.958 --    34 N    0.942
    30   1 H    0.956 --    34 N    0.942
    31   7 N    3.468 --     7 C    1.197     4 C    1.000     5 C    0.962
                            35 O    0.186
    32   7 N    3.694 --     8 C    1.225    33 N    1.219    15 C    1.004
    33   7 N    2.963 --    13 C    1.422    32 N    1.219     8 C    0.133
    34   7 N    3.367 --    14 C    1.250    30 H    0.942    29 H    0.942
                            36 O    0.192
    35   8 O    2.006 --     7 C    1.664    31 N    0.186
    36   8 O    1.972 --    14 C    1.659    34 N    0.192
    37   8 O    2.203 --    20 C    1.067    25 C    0.967
    38   6 C    3.970 --    41 C    1.007    40 H    0.974    39 H    0.972
                            58 N    0.960
    39   1 H    0.997 --    38 C    0.972
    40   1 H    0.996 --    38 C    0.974
    41   6 C    3.992 --    38 C    1.007    44 C    1.006    42 H    0.979
                            43 H    0.971
    42   1 H    0.997 --    41 C    0.979
    43   1 H    0.996 --    41 C    0.971
    44   6 C    3.994 --    41 C    1.006    47 C    1.002    46 H    0.981
                            45 H    0.976
    45   1 H    0.997 --    44 C    0.976
    46   1 H    0.997 --    44 C    0.981
    47   6 C    3.990 --    44 C    1.002    50 C    0.977    49 H    0.963
                            48 H    0.954
    48   1 H    0.995 --    47 C    0.954
    49   1 H    0.994 --    47 C    0.963
    50   6 C    3.951 --    59 O    1.640    58 N    1.251    47 C    0.977
    51   6 C    3.994 --    55 C    1.441    53 C    1.405    52 H    0.975
                             2 C    0.110
    52   1 H    0.996 --    51 C    0.975
    53   6 C    3.966 --    54 C    1.406    51 C    1.405    58 N    0.986
    54   6 C    3.994 --     2 C    1.440    53 C    1.406     1 H    0.974
                            55 C    0.109
    55   6 C    3.993 --    51 C    1.441     4 C    1.402    56 H    0.974
                            54 C    0.109
    56   1 H    0.995 --    55 C    0.974
    57   1 H    0.995 --     5 C    0.974
    58   7 N    3.489 --    50 C    1.251    53 C    0.986    38 C    0.960
                            59 O    0.190
    59   8 O    1.956 --    50 C    1.640    58 N    0.190
    60   6 C    3.970 --    63 C    1.007    62 H    0.973    61 H    0.972
                            80 N    0.960
    61   1 H    0.997 --    60 C    0.972
    62   1 H    0.996 --    60 C    0.973
    63   6 C    3.992 --    60 C    1.007    66 C    1.006    64 H    0.979
                            65 H    0.971
    64   1 H    0.997 --    63 C    0.979
    65   1 H    0.996 --    63 C    0.971
    66   6 C    3.994 --    63 C    1.006    69 C    1.001    68 H    0.981
                            67 H    0.976
    67   1 H    0.997 --    66 C    0.976
    68   1 H    0.997 --    66 C    0.981
    69   6 C    3.991 --    66 C    1.001    72 C    0.977    71 H    0.963
                            70 H    0.954
    70   1 H    0.995 --    69 C    0.954
    71   1 H    0.995 --    69 C    0.963
    72   6 C    3.951 --    81 O    1.638    80 N    1.253    69 C    0.977
    73   6 C    3.994 --    77 C    1.441    75 C    1.406    74 H    0.975
                            83 C    0.110
    74   1 H    0.996 --    73 C    0.975
    75   6 C    3.966 --    76 C    1.406    73 C    1.406    80 N    0.986
    76   6 C    3.994 --    83 C    1.440    75 C    1.406    82 H    0.974
                            77 C    0.109
    77   6 C    3.993 --    73 C    1.441    85 C    1.402    78 H    0.974
                            76 C    0.109
    78   1 H    0.995 --    77 C    0.974
    79   1 H    0.995 --    86 C    0.975
    80   7 N    3.491 --    72 C    1.253    75 C    0.986    60 C    0.960
                            81 O    0.191
    81   8 O    1.953 --    72 C    1.638    80 N    0.191
    82   1 H    0.995 --    76 C    0.974
    83   6 C    3.988 --    76 C    1.440    85 C    1.403    84 H    0.968
                            73 C    0.110
    84   1 H    0.991 --    83 C    0.968
    85   6 C    3.966 --    83 C    1.403    77 C    1.402   112 N    0.999
    86   6 C    3.970 --    91 C    0.998    79 H    0.975    87 H    0.974
                           112 N    0.962
    87   1 H    0.997 --    86 C    0.974
    88   6 C    3.957 --   116 O    1.664   112 N    1.198    89 C    1.008
    89   6 C    3.955 --    90 C    1.432   113 N    1.225    88 C    1.008
                           114 N    0.134
    90   6 C    3.980 --    89 C    1.432    94 C    1.322    91 C    1.011
    91   6 C    3.990 --    90 C    1.011    86 C    0.998    93 H    0.964
                            92 H    0.961
    92   1 H    0.994 --    91 C    0.961
    93   1 H    0.993 --    91 C    0.964
    94   6 C    3.967 --   114 N    1.422    90 C    1.322    95 C    1.002
    95   6 C    3.951 --   117 O    1.658   115 N    1.249    94 C    1.002
    96   6 C    3.955 --    97 C    1.401   104 C    1.372   113 N    1.004
    97   6 C    3.988 --    99 C    1.435    96 C    1.401    98 H    0.967
                           102 C    0.108
    98   1 H    0.992 --    97 C    0.967
    99   6 C    3.991 --    97 C    1.435   101 C    1.381   100 H    0.971
                           104 C    0.100
   100   1 H    0.995 --    99 C    0.971
   101   6 C    3.932 --    99 C    1.381   102 C    1.345   118 O    1.067
   102   6 C    3.991 --   104 C    1.475   101 C    1.345   103 H    0.973
                            97 C    0.108
   103   1 H    0.994 --   102 C    0.973
   104   6 C    3.990 --   102 C    1.475    96 C    1.372   105 H    0.972
                            99 C    0.100
   105   1 H    0.994 --   104 C    0.972
   106   6 C    3.937 --   109 H    0.981   108 H    0.981   107 H    0.980
                           118 O    0.967
   107   1 H    0.995 --   106 C    0.980
   108   1 H    0.996 --   106 C    0.981
   109   1 H    0.997 --   106 C    0.981
   110   1 H    0.958 --   115 N    0.942
   111   1 H    0.956 --   115 N    0.942
   112   7 N    3.470 --    88 C    1.198    85 C    0.999    86 C    0.962
                           116 O    0.187
   113   7 N    3.694 --    89 C    1.225   114 N    1.219    96 C    1.004
   114   7 N    2.962 --    94 C    1.422   113 N    1.219    89 C    0.134
   115   7 N    3.366 --    95 C    1.249   111 H    0.942   110 H    0.942
                           117 O    0.191
   116   8 O    2.006 --    88 C    1.664   112 N    0.187
   117   8 O    1.970 --    95 C    1.658   115 N    0.191
   118   8 O    2.203 --   101 C    1.067   106 C    0.967
   119   6 C    3.971 --   122 C    1.007   121 H    0.974   120 H    0.972
                           138 N    0.960
   120   1 H    0.997 --   119 C    0.972
   121   1 H    0.996 --   119 C    0.974
   122   6 C    3.992 --   119 C    1.007   125 C    1.006   123 H    0.980
                           124 H    0.971
   123   1 H    0.997 --   122 C    0.980
   124   1 H    0.996 --   122 C    0.971
   125   6 C    3.994 --   122 C    1.006   174 C    1.002   127 H    0.981
                           126 H    0.976
   126   1 H    0.998 --   125 C    0.976
   127   1 H    0.997 --   125 C    0.981
   128   6 C    3.951 --   177 O    1.660   138 N    1.238   174 C    0.975
   129   6 C    3.994 --   136 C    1.442   131 C    1.406   130 H    0.974
                           134 C    0.109
   130   1 H    0.995 --   129 C    0.974
   131   6 C    3.968 --   129 C    1.406   132 C    1.405   138 N    0.991
   132   6 C    3.993 --   134 C    1.440   131 C    1.405   133 H    0.973
                           136 C    0.110
   133   1 H    0.994 --   132 C    0.973
   134   6 C    3.992 --   132 C    1.440   139 C    1.404   135 H    0.973
                           129 C    0.109
   135   1 H    0.995 --   134 C    0.973
   136   6 C    3.993 --   129 C    1.442   139 C    1.402   140 H    0.974
                           132 C    0.110
   137   1 H    0.995 --   155 C    0.971
   138   7 N    3.481 --   128 C    1.238   131 C    0.991   119 C    0.960
                           177 O    0.190
   139   6 C    3.965 --   134 C    1.404   136 C    1.402   160 N    0.997
   140   1 H    0.995 --   136 C    0.974
   141   6 C    3.967 --   147 C    0.998   142 H    0.974   143 H    0.974
                           160 N    0.961
   142   1 H    0.997 --   141 C    0.974
   143   1 H    0.995 --   141 C    0.974
   144   6 C    3.957 --   164 O    1.654   160 N    1.202   145 C    1.011
   145   6 C    3.952 --   146 C    1.430   161 N    1.219   144 C    1.011
                           162 N    0.134
   146   6 C    3.981 --   145 C    1.430   150 C    1.322   147 C    1.012
   147   6 C    3.989 --   146 C    1.012   141 C    0.998   149 H    0.962
                           148 H    0.960
   148   1 H    0.994 --   147 C    0.960
   149   1 H    0.992 --   147 C    0.962
   150   6 C    3.968 --   162 N    1.426   146 C    1.322   151 C    1.000
   151   6 C    3.952 --   165 O    1.660   163 N    1.252   150 C    1.000
   152   6 C    3.956 --   153 C    1.402   156 C    1.372   161 N    1.005
   153   6 C    3.991 --   155 C    1.435   152 C    1.402   154 H    0.973
                           172 C    0.108
   154   1 H    0.995 --   153 C    0.973
   155   6 C    3.991 --   153 C    1.435   171 C    1.380   137 H    0.971
   156   6 C    3.990 --   172 C    1.476   152 C    1.372   157 H    0.972
   157   1 H    0.993 --   156 C    0.972
   158   1 H    0.957 --   163 N    0.941
   159   1 H    0.955 --   163 N    0.942
   160   7 N    3.472 --   144 C    1.202   139 C    0.997   141 C    0.961
                           164 O    0.189
   161   7 N    3.691 --   145 C    1.219   162 N    1.219   152 C    1.005
   162   7 N    2.965 --   150 C    1.426   161 N    1.219   145 C    0.134
   163   7 N    3.369 --   151 C    1.252   159 H    0.942   158 H    0.941
                           165 O    0.193
   164   8 O    2.000 --   144 C    1.654   160 N    0.189
   165   8 O    1.973 --   151 C    1.660   163 N    0.193
   166   6 C    3.937 --   168 H    0.981   169 H    0.981   167 H    0.980
                           170 O    0.967
   167   1 H    0.994 --   166 C    0.980
   168   1 H    0.996 --   166 C    0.981
   169   1 H    0.997 --   166 C    0.981
   170   8 O    2.206 --   171 C    1.070   166 C    0.967
   171   6 C    3.932 --   155 C    1.380   172 C    1.344   170 O    1.070
   172   6 C    3.991 --   156 C    1.476   171 C    1.344   173 H    0.972
                           153 C    0.108
   173   1 H    0.993 --   172 C    0.972
   174   6 C    3.990 --   125 C    1.002   128 C    0.975   176 H    0.964
                           175 H    0.956
   175   1 H    0.994 --   174 C    0.956
   176   1 H    0.994 --   174 C    0.964
   177   8 O    1.970 --   128 C    1.660   138 N    0.190
 ---------------------------------------------------------------------------

Topologies differ in total number of bonds
Writing topology from bond orders to xtbtopo.mol

molecular dipole:
                 x           y           z       tot (Debye)
 q only:        0.330       0.363      -1.479
   full:        0.530       0.068      -1.669       4.455
molecular quadrupole (traceless):
                xx          xy          yy          xz          yz          zz
 q only:       28.255      46.132     244.409      25.224    -173.494    -272.664
  q+dip:       83.178      50.983     193.421      44.501    -240.386    -276.599
   full:       87.787      51.142     187.492      52.006    -239.733    -275.279


           -------------------------------------------------
          | TOTAL ENERGY             -290.517655148406 Eh   |
          | GRADIENT NORM               1.614572783442 Eh/α |
          | HOMO-LUMO GAP               2.939620318842 eV   |
           -------------------------------------------------

------------------------------------------------------------------------
 * finished run on 2026/10/03 at 19:14:34.419     
------------------------------------------------------------------------
 total:
 * wall-time:     0 d,  0 h,  0 min,  1.058 sec
 *  cpu-time:     0 d,  0 h,  0 min,  1.031 sec
 * ratio c/w:     0.975 speedup
 SCF:
 * wall-time:     0 d,  0 h,  0 min,  0.949 sec
 *  cpu-time:     0 d,  0 h,  0 min,  0.953 sec
 * ratio c/w:     1.004 speedup

normal termination of xtb
