27
Coordinates from ORCA-job Adamantanol_C3v_r2SCAN3c_Opt_Freq E -465.838781910660
  O           0.70331443516611      2.55981290483019      0.00000000000000
  C           0.28890626071037      1.18737500449901      0.00000000000000
  C          -0.53491790001749      0.85658562688002     -1.25110923785948
  C          -0.90508898594228     -0.63611669553446     -1.25562319797018
  C          -1.72899756209846     -0.96046461835068      0.00000000000000
  C          -0.90508898594228     -0.63611669553446      1.25562319797018
  C           0.38270182923078     -1.47379996359396      1.25352379958030
  C           1.20830249613838     -1.14517004520290      0.00000000000000
  C           0.38270182923078     -1.47379996359396     -1.25352379958030
  C           1.56712138347163      0.34939191752912      0.00000000000000
  C          -0.53491790001749      0.85658562688002      1.25110923785948
  H          -0.09126346578282      3.10734687760252      0.00000000000000
  H           0.05068233882206      1.11590270312436     -2.14300743899912
  H          -1.44704427348301      1.47275064984562     -1.26390592583451
  H          -1.49415161687019     -0.86397692707859     -2.15431607762839
  H          -2.01107343791864     -2.02205536684586      0.00000000000000
  H          -2.66014893415814     -0.37702343742709      0.00000000000000
  H          -1.49415161687019     -0.86397692707859      2.15431607762839
  H           0.13333820843259     -2.54350018627714      1.26873820319803
  H           0.97020902974113     -1.26345654760380      2.15755063342714
  H           2.13241137306218     -1.73852705118623      0.00000000000000
  H           0.13333820843259     -2.54350018627714     -1.26873820319803
  H           0.97020902974113     -1.26345654760380     -2.15755063342714
  H           2.16330058320541      0.60621031068540     -0.88527044476286
  H           2.16330058320541      0.60621031068540      0.88527044476286
  H           0.05068233882206      1.11590270312436      2.14300743899912
  H          -1.44704427348301      1.47275064984562      1.26390592583451
