27
Adamantanol_C3v generated from supplied MOL; 3D UFF geometry; ORCA will symmetry-clean
O   2.57725489  1.10475085  0.39383254
C   1.29683711  0.55667116  0.19918828
C   1.34836139 -0.99141334  0.30212872
C  -0.06917651 -1.57551333  0.11063462
C  -0.61049450 -1.16804073 -1.27821580
C  -0.67651392  0.37253245 -1.37942616
C  -1.61086253  0.92042971 -0.27830268
C  -1.06743763  0.51614684  1.10986830
C  -1.00466083 -1.02398627  1.20897951
C   0.35031504  1.10126233  1.29696454
C   0.73942248  0.96176731 -1.19185558
H   3.17053821  0.74588674 -0.31713344
H   1.75133825 -1.29492754  1.29360408
H   2.02954942 -1.40624480 -0.47342900
H  -0.02659515 -2.68409572  0.18181258
H  -1.62281587 -1.60199372 -1.43293674
H   0.04892930 -1.57337654 -2.07690707
H  -1.06993298  0.66241265 -2.37793768
H  -2.63812725  0.51703679 -0.41639324
H  -1.67721726  2.02819750 -0.35260922
H  -1.74013218  0.91193433  1.90148848
H  -2.02358546 -1.45413337  1.09135100
H  -0.63169099 -1.32537129  2.21253890
H   0.73852742  0.83073294  2.30391463
H   0.30791280  2.21193238  1.24742785
H   0.70224334  2.07007116 -1.28027438
H   1.40801343  0.58733152 -1.99831306
