
                                 *****************
                                 * O   R   C   A *
                                 *****************

                                            #,                                       
                                            ###                                      
                                            ####                                     
                                            #####                                    
                                            ######                                   
                                           ########,                                 
                                     ,,################,,,,,                         
                               ,,#################################,,                 
                          ,,##########################################,,             
                       ,#########################################, ''#####,          
                    ,#############################################,,   '####,        
                  ,##################################################,,,,####,       
                ,###########''''           ''''###############################       
              ,#####''   ,,,,##########,,,,          '''####'''          '####       
            ,##' ,,,,###########################,,,                        '##       
           ' ,,###''''                  '''############,,,                           
         ,,##''                                '''############,,,,        ,,,,,,###''
      ,#''                                            '''#######################'''  
     '                                                          ''''####''''         
             ,#######,   #######,   ,#######,      ##                                
            ,#'     '#,  ##    ##  ,#'     '#,    #''#        ,####,    ,#,          
            ##       ##  ##   ,#'  ##            #'  '#       #'       ,# #          
            ##       ##  #######   ##           ,######,      #####,      #          
            '#,     ,#'  ##    ##  '#,     ,#' ,#      #,     #,   #      #          
             '#######'   ##     ##  '#######'  #'      '#     '####' #    #          



                #########################################################
                #                        -***-                          #
                #          Department of theory and spectroscopy        #
                #                                                       #
                #                      Frank Neese                      #
                #                                                       #
                #     Directorship, Architecture, Infrastructure        #
                #                    SHARK, DRIVERS                     #
                #        Core code/Algorithms in most modules           #
                #                                                       #
                #        Max Planck Institute fuer Kohlenforschung      #
                #                Kaiser Wilhelm Platz 1                 #
                #                 D-45470 Muelheim/Ruhr                 #
                #                      Germany                          #
                #                                                       #
                #                  All rights reserved                  #
                #                        -***-                          #
                #########################################################


                         Program Version 6.1.1  -  RELEASE   -


 With contributions from (in alphabetic order):
[Max-Planck-Institut fuer Kohlenforschung]                               
  Daniel Aravena         : Magnetic Suceptibility                        
  Michael Atanasov       : Ab Initio Ligand Field Theory (pilot matlab implementation)
  Alexander A. Auer      : GIAO ZORA, VPT2 properties, NMR spectrum      
  Ute Becker             : All parallelization in ORCA, NUMFREQ, NUMCALC 
  Giovanni Bistoni       : ED, misc. LED, open-shell LED, HFLD           
  Dmytro Bykov           : pre 5.0 version of the SCF Hessian            
  Marcos Casanova-Pﾃ｡ez   : Triplet and SCS-CIS(D). UHF-(DLPNO)-IP/EA/STEOM-CCSD. UHF-CVS-IP/STEOM-CCSD   
  Vijay G. Chilkuri      : MRCI spin determinant printing, contributions to CSF-ICE 
  Pauline Colinet        : FMM embedding                                 
  Dipayan Datta          : RHF DLPNO-CCSD density                        
  Achintya Kumar Dutta   : EOM-CC, STEOM-CC                              
  Nicolas Foglia         : Exact transition moments, OPA infrastructure, MCD improvements    
  Dmitry Ganyushin       : Spin-Orbit,Spin-Spin,Magnetic field MRCI      
  Miquel Garcia-Rates    : C-PCM and meta-GGA Hessian, CCSD/C-PCM, Gaussian charge scheme 
  Tiago L. C. Gouveia    : GS-ROHF, GS-ROCIS                             
  Yang Guo               : DLPNO-NEVPT2, F12-NEVPT2, CIM, IAO-localization        
  Andreas Hansen         : Spin unrestricted coupled pair/coupled cluster methods 
  Ingolf Harden          : AUTO-CI MPn and infrastructure                
  Benjamin Helmich-Paris : MC-RPA, TRAH-(SCF,CASSCF), AVAS, COSX integrals, SCF dyn. polar., MC-PDFT, srDFT 
  Lee Huntington         : MR-EOM, pCC                                   
  Robert Izsak           : Overlap fitted RIJCOSX, COSX-SCS-MP3, EOM     
  Riya Kayal             : Wick's Theorem for AUTO-CI, AUTO-CI UHF-CCSDT 
  Emily Kempfer          : AUTO-CI RHF CISDT and CCSDT, approximate NEVPT4
  Christian Kollmar      : KDIIS, OOCD, Brueckner-CCSD(T), CCSD density, CASPT2, CASPT2-K, improved NEVPT2 
  Axel Koslowski         : Symmetry handling                             
  Simone Kossmann        : meta-GGA functionals, TD-DFT gradient, OOMP2, (MP2 Hessian; deprecated post 5.0) 
  Lucas Lang             : DCDCAS, Hyperfine gauge corrections, ICE-SOC+SSC
  Marvin Lechner         : AUTO-CI (C++ implementation), FIC-MRCC        
  Spencer Leger          : CASSCF response                               
  Dagmar Lenk            : GEPOL surface, SMD, ORCA-2-JSON               
  Dimitrios Liakos       : Extrapolation schemes; Compound Job, Property file
  Dimitrios Manganas     : Further ROCIS development; embedding schemes. LFT, Crystal Embedding 
  Dimitrios Pantazis     : SARC Basis sets                               
  Anastasios Papadopoulos: AUTO-CI, single reference methods and gradients 
  Taras Petrenko         : pre 6.0 DFT Hessian and TD-DFT gradient,  ECA, NRVS 
  Petra Pikulova         : Analytic Raman intensities                    
  Peter Pinski           : DLPNO-MP2, DLPNO-MP2 Gradient                 
  Shashank Vittal Rao    : ES-AILFT, MagRelax                            
  Christoph Reimann      : Effective Core Potentials                     
  Marius Retegan         : Local ZFS, SOC                                
  Christoph Riplinger    : Optimizer, TS searches, QM/MM, DLPNO-CCSD(T), (RO)-DLPNO pert. Triples 
  Michael Roemelt        : Original ROCIS implementation, recursive CI coupling coefficients
  Masaaki Saitow         : Open-shell DLPNO-CCSD energy and density      
  Barbara Sandhoefer     : DKH picture change effects                    
  Yorick L. A. Schmerwitz: GMF and freeze-and-release deltaSCF, NEB S-IDPP initial path                    
  Kantharuban Sivalingam : CASSCF convergence/infrastructure, NEVPT2, NEVPT3, NEVPT4(SD), FIC-MRCI and CEPA variants
  Bernardo de Souza      : ESD, SOC TD-DFT                               
  Georgi L. Stoychev     : AutoAux, RI-MP2 NMR, DLPNO-MP2 response, X2C  
  Van Anh Tran           : RI-MP2 g-tensors                              
  Willem Van den Heuvel  : Paramagnetic NMR                              
  Zikuan Wang            : NOTCH, Electric field optimization            
  Frank Wennmohs         : Technical directorship and infrastructure     
  Hang Xu                : AUTO-CI-Response properties                   
                                                                         
[FACCTs GmbH]                                                            
  Markus Bursch, Nicolas Foglia, Miquel Garcia-Rates, Ingolf Harden, Hagen Neugebauer, Anastasios Papadopoulos, 
  Christoph Riplinger, Bernardo de Souza, Georgi L. Stoychev                                                    
                                                                 
  APM, various basis sets, CI-OPT, improved COSX, DLPNO-Multilevel,           
  DOCKER, DRACO, updates on ESD, Fragmentator, GOAT, IRC, LR-CPCM, L-BFGS, MBIS, meta-GGA TD-DFT gradient, ML-optimized integration grids, 
  MM, NACMEs, nearIR, NEB, NEB-TS, NL-DFT gradient (VV10), 2- and 3-layer-ONIOM, interface openCOSMO-RS, QMMM,   
  Crystal-QMMM, RESP, rigid body optimization, SF, symmetry and pop. for TD-DFT, various functionals, SOLVATOR                                   
                                                                         
[Other institutions]                                                     
  V. Asgeirsson          : NEB                                           
  Christoph Bannwarth    : sTDA-DFT, sTD-DFT, PBEh-3c, B97-3c, D3        
  Giovanni Bistoni       : ETS/NOCV, ADLD/ADEX, COVALED                  
  Martin Brehm           : Molecular dynamics                            
  Ronald Cardenas        : ETS/NOCV                                      
  Martina Colucci        : COVALED                                       
  Sebastian Ehlert       : rSCAN, r2SCAN, r2SCAN-3c, D4, dhf basis sets  
  Marvin Friede          : D4 for Fr, Ra, Ac-Lr                          
  Lars Goerigk           : TD-DFT with DH, B97 family of functionals     
  Stefan Grimme          : VdW corrections, initial TS optimization, DFT functionals, gCP, sTDA/sTD-DF 
  Waldemar Hujo          : DFT-NL                                        
  H. Jonsson             : NEB                                           
  Holger Kruse           : gCP                                           
  Marcel Mueller         : wB97X-3c, vDZP basis set                      
  Hagen Neugebauer       : wr2SCAN, Native XTB                           
  Gianluca Regni         : ADLD/ADEX                                     
  Tobias Risthaus        : pre 6.0 range-separated hybrid DFT and stability analysis
  Lukas Wittmann         : regularized MP2, r2SCAN double-hybrids, wr2SCAN        
                                                                         
We gratefully acknowledge several colleagues who have allowed us to      
interface, adapt or use parts of their codes:                            
  Ed Valeev, F. Pavosevic, A. Kumar             : LibInt (2-el integral package), F12 methods 
  Garnet Chan, S. Sharma, J. Yang, R. Olivares  : DMRG                   
  Ulf Ekstrom                                   : XCFun DFT Library      
  Mihaly Kallay                                 : mrcc  (arbitrary order and MRCC methods)
  Frank Weinhold                                : gennbo (NPA and NBO analysis)           
  Simon Mueller                                 : openCOSMO-RS                            
  Christopher J. Cramer and Donald G. Truhlar   : smd solvation model                     
  S Lehtola, MJT Oliveira, MAL Marques          : LibXC Library                           
  Liviu Ungur et al                             : ANISO software                          


 Your calculation uses the libint2 library for the computation of 2-el integrals
 For citations please refer to: http://libint.valeyev.net

 Your ORCA version has been built with support for libXC version: 7.0.0
 For citations please refer to: https://libxc.gitlab.io

 This ORCA versions uses:
   CBLAS   interface :  Fast vector & matrix operations
   LAPACKE interface :  Fast linear algebra routines
   Shared memory     :  Shared parallel matrices


  ***********************************
  * Starting time: Sat Oct  3 08:19:19 2026
  * Host name:     DESKTOP-2KDTO5M
  * Process ID:    19336
  * Working dir.:  C:\Users\naoki\Downloads\デスクトップ\data\Molecules\Calculations\Apixaban\CrystalFragment
  ***********************************

NOTE: MaxCore=2000 MB was set to SCF,MP2,MDCI,CIPSI,MRCI,RASCI and CIS
      => If you want to overwrite this, your respective input block should be placed after the MaxCore statement
Your calculation utilizes the semiempirical GFN2-xTB method
Please cite in your paper:
Bannwarth, C.; Ehlert S.; Grimme, S. J. Chem. Theory Comput. 2019, 15, 1652.
   

================================================================================

================================================================================
                                        WARNINGS
                       Please study these warnings very carefully!
================================================================================


WARNING: Found dipole moment calculation with XTB calculation
  ===> : Switching off dipole moment calculation

Environment variable XTBEXE for xtb has been set!

================================================================================
                                       INPUT FILE
================================================================================
NAME = D8\D8_pull_+2.0A_XTB2_SP.inp
|  1> # D8 pull-apart: molecule B displaced +2.0 A along centroid vector (rigid), XTB2 single point
|  2> 
|  3> ! XTB2
|  4> 
|  5> %pal
|  6>   nprocs 4
|  7> end
|  8> 
|  9> %maxcore 2000
| 10> 
| 11> * xyz 0 1
| 12> H     22.83953108    41.40894130    37.29825264
| 13> C     21.66192281    40.99367530    38.86881303
| 14> H     22.07616212    40.19221192    39.09488688
| 15> C     20.59018700    41.44174731    39.60209780
| 16> C     20.37888339    41.35108090    42.07160460
| 17> H     21.27577734    41.14178684    42.37508161
| 18> C     19.91667659    39.37261526    40.64877097
| 19> C     19.70491047    38.72673821    41.95392663
| 20> C     19.37498228    39.39670069    43.09735375
| 21> C     19.37987740    40.88529087    43.11355807
| 22> H     18.49518556    41.22484004    42.90526177
| 23> H     19.63551561    41.20961362    43.99079384
| 24> C     19.09233738    38.39757069    44.02965274
| 25> C     18.62131839    38.57115188    45.42180829
| 26> C     19.92150901    36.27320826    41.38583152
| 27> C     21.02045476    36.32096385    40.55815264
| 28> H     21.57482386    37.06802738    40.56428826
| 29> C     21.29965591    35.26203555    39.72119169
| 30> H     22.04007708    35.29484156    39.16096274
| 31> C     20.48327140    34.15728956    39.71615733
| 32> C     19.40393116    34.09804495    40.58017793
| 33> H     18.86965258    33.33755448    40.59889943
| 34> C     19.11657892    35.15088268    41.40864342
| 35> H     18.38500348    35.11074030    41.98177289
| 36> C     21.65484253    33.18902767    37.89985766
| 37> H     21.63735684    32.40735864    37.34230322
| 38> H     21.49730824    33.96875880    37.36275527
| 39> H     22.51426932    33.26003816    38.32242855
| 40> H     18.39538066    37.52066732    47.01612452
| 41> H     19.03443510    36.81056246    45.91171363
| 42> N     20.15043870    40.71641603    40.76047065
| 43> N     19.61541343    37.39055064    42.22106192
| 44> N     19.25444159    37.17793445    43.50387764
| 45> N     18.66135535    37.48509287    46.18797368
| 46> O     19.80354548    38.80217820    39.58306166
| 47> O     18.19832953    39.65471929    45.78664146
| 48> O     20.64750653    33.08576486    38.89083831
| 49> C     21.16875807    43.95659821    35.25288997
| 50> H     20.47458764    44.57326822    35.53622957
| 51> H     20.73787682    43.12398988    35.00447618
| 52> C     21.83638855    44.51236254    34.06934536
| 53> H     22.27585503    43.79118392    33.59013802
| 54> H     21.16639655    44.89163882    33.48001158
| 55> C     22.83291639    45.54914332    34.38918402
| 56> H     23.29048235    45.81491356    33.57597890
| 57> H     22.37932284    46.32984340    34.74489242
| 58> C     23.83563842    45.06632738    35.38346846
| 59> H     24.48924629    44.52205208    34.91794826
| 60> H     24.30290205    45.83567686    35.74389657
| 61> C     23.28615136    44.26860140    36.52721022
| 62> C     20.44944804    43.36719733    38.19279400
| 63> H     20.03755147    44.17046020    37.96687747
| 64> C     21.53658130    42.92535431    37.47020721
| 65> C     22.12431926    41.72606610    37.80121583
| 66> C     19.97011296    42.62082591    39.24985051
| 67> H     19.22705322    42.91497266    39.72575407
| 68> H     20.31296812    42.31422118    41.97547995
| 69> N     22.06622540    43.70370122    36.38672035
| 70> O     23.94091717    44.12713411    37.55626316
| 71> C     14.86282447    47.46307320    44.25110800
| 72> H     14.16865403    46.84640319    44.53444760
| 73> H     14.43194321    48.29568153    44.00269421
| 74> C     15.53045495    46.90730887    43.06756340
| 75> H     15.96992143    47.62848749    42.58835605
| 76> H     14.86046294    46.52803259    42.47822961
| 77> C     16.52698279    45.87052809    43.38740205
| 78> H     16.98454875    45.60475785    42.57419694
| 79> H     16.07338924    45.08982801    43.74311046
| 80> C     16.98021775    47.15107001    45.52542826
| 81> C     14.14351443    48.05247407    47.19101203
| 82> H     13.73161786    47.24921121    46.96509550
| 83> C     15.23064769    48.49431710    46.46842525
| 84> C     15.81838566    49.69360530    46.79943387
| 85> H     16.53359747    50.01073011    46.29647068
| 86> C     15.35598920    50.42599611    47.86703106
| 87> H     15.77022851    51.22745949    48.09310491
| 88> C     13.66417935    48.79884550    48.24806855
| 89> H     15.73414347    56.12482985    48.15918078
| 90> N     15.76029179    47.71597019    45.38493838
| 91> C     14.28425340    49.97792409    48.60031584
| 92> H     12.92111962    48.50469875    48.72397210
| 93> C     14.07294978    50.06859050    51.06982264
| 94> H     14.96984373    50.27788457    51.37329965
| 95> H     14.00703452    49.10545023    50.97369799
| 96> C     13.61074298    52.04705615    49.64698901
| 97> C     13.39897686    52.69293320    50.95214467
| 98> C     13.06904867    52.02297072    52.09557178
| 99> C     13.07394379    50.53438053    52.11177610
|100> H     12.18925196    50.19483137    51.90347980
|101> H     13.32958201    50.21005779    52.98901187
|102> C     12.78640378    53.02210072    53.02787078
|103> C     12.31538479    52.84851953    54.42002632
|104> C     13.61557540    55.14646315    50.38404955
|105> C     14.71452116    55.09870756    49.55637068
|106> H     15.26889026    54.35164403    49.56250630
|107> C     14.99372230    56.15763586    48.71940972
|108> C     12.81064531    56.26878873    50.40686146
|109> H     12.07906988    56.30893111    50.97999093
|110> H     12.08944706    53.89900409    56.01434256
|111> H     12.72850149    54.60910895    54.90993167
|112> N     13.84450509    50.70325537    49.75868869
|113> N     13.30947983    54.02912077    51.21927995
|114> N     12.94850799    54.24173696    52.50209568
|115> N     12.35542174    53.93457854    55.18619171
|116> O     13.49761187    52.61749321    48.58127970
|117> O     11.89239592    51.76495211    54.78485949
|118> C     15.34890892    58.23064373    46.89807569
|119> H     15.33142323    59.01231277    46.34052125
|120> H     15.19137463    57.45091261    46.36097331
|121> H     16.20833572    58.15963325    47.32064658
|122> O     14.34157293    58.33390654    47.88905635
|123> C     14.17733779    57.26238184    48.71437537
|124> C     13.09799756    57.32162646    49.57839597
|125> H     12.56371898    58.08211693    49.59711746
|126> C     17.52970482    46.35334402    44.38168650
|127> H     18.18331269    46.89761933    43.91616629
|128> H     17.99696844    45.58399455    44.74211461
|129> O     17.63498356    47.29253729    46.55448120
|130> *
|131> 
|132>                          ****END OF INPUT****
================================================================================

                       ****************************
                       * Single Point Calculation *
                       ****************************

      -----------------------------------------------------------      
     |                   =====================                   |     
     |                           x T B                           |     
     |                   =====================                   |     
     |                         S. Grimme                         |     
     |          Mulliken Center for Theoretical Chemistry        |     
     |                    University of Bonn                     |     
      -----------------------------------------------------------      

   * xtb version 6.7.1pre (5071a88) compiled by 'Marcel@Raven' on 2024-07-23

   xtb is free software: you can redistribute it and/or modify it under
   the terms of the GNU Lesser General Public License as published by
   the Free Software Foundation, either version 3 of the License, or
   (at your option) any later version.
   
   xtb is distributed in the hope that it will be useful,
   but WITHOUT ANY WARRANTY; without even the implied warranty of
   MERCHANTABILITY or FITNESS FOR A PARTICULAR PURPOSE.  See the
   GNU Lesser General Public License for more details.
   
   Cite this work as:
   * C. Bannwarth, E. Caldeweyher, S. Ehlert, A. Hansen, P. Pracht,
     J. Seibert, S. Spicher, S. Grimme, WIREs Comput. Mol. Sci., 2020, 11,
     e01493. DOI: 10.1002/wcms.1493
   
   for GFN2-xTB:
   * C. Bannwarth, S. Ehlert and S. Grimme., J. Chem. Theory Comput., 2019,
     15, 1652-1671. DOI: 10.1021/acs.jctc.8b01176
   for GFN1-xTB:
   * S. Grimme, C. Bannwarth, P. Shushkov, J. Chem. Theory Comput., 2017,
     13, 1989-2009. DOI: 10.1021/acs.jctc.7b00118
   for GFN0-xTB:
   * P. Pracht, E. Caldeweyher, S. Ehlert, S. Grimme, ChemRxiv, 2019, preprint.
     DOI: 10.26434/chemrxiv.8326202.v1
   for GFN-FF:
   * S. Spicher and S. Grimme, Angew. Chem. Int. Ed., 2020, 59, 15665-15673.
     DOI: 10.1002/anie.202004239
   
   for ALPB and GBSA implicit solvation:
   * S. Ehlert, M. Stahn, S. Spicher, S. Grimme, J. Chem. Theory Comput.,
     2021, 17, 4250-4261. DOI: 10.1021/acs.jctc.1c00471
   
   for ddCOSMO and CPCM-X implicit solvation:
   * M. Stahn, S. Ehlert, S. Grimme, J. Phys. Chem. A,
     2023, XX, XXXX-XXXX. DOI: 10.1021/acs.jpca.3c04382
   
   for DFT-D4:
   * E. Caldeweyher, C. Bannwarth and S. Grimme, J. Chem. Phys., 2017,
     147, 034112. DOI: 10.1063/1.4993215
   * E. Caldeweyher, S. Ehlert, A. Hansen, H. Neugebauer, S. Spicher,
     C. Bannwarth and S. Grimme, J. Chem. Phys., 2019, 150, 154122.
     DOI: 10.1063/1.5090222
   * E. Caldeweyher, J.-M. Mewes, S. Ehlert and S. Grimme, Phys. Chem. Chem. Phys.
     2020, 22, 8499-8512. DOI: 10.1039/D0CP00502A
   
   for sTDA-xTB:
   * S. Grimme and C. Bannwarth, J. Chem. Phys., 2016, 145, 054103.
     DOI: 10.1063/1.4959605
   
   in the mass-spec context:
   * V. Asgeirsson, C. Bauer and S. Grimme, Chem. Sci., 2017, 8, 4879.
     DOI: 10.1039/c7sc00601b
   * J. Koopman and S. Grimme, ACS Omega 2019, 4, 12, 15120-15133.
     DOI: 10.1021/acsomega.9b02011
   
   for metadynamics refer to:
   * S. Grimme, J. Chem. Theory Comput., 2019, 155, 2847-2862
     DOI: 10.1021/acs.jctc.9b00143
   
   for SPH calculations refer to:
   * S. Spicher and S. Grimme, J. Chem. Theory Comput., 2021, 17, 1701-1714
     DOI: 10.1021/acs.jctc.0c01306
   
   for ONIOM refer to:
   * C. Plett, A. Katbashev, S. Ehlert, S. Grimme, M. Bursch,
     Phys. Chem. Chem. Phys., 2023, 25, 17860-17868. DOI: 10.1039/D3CP02178E
   
   for DIPRO refer to:
   * J. Kohn, N. Gildemeister, S. Grimme, D. Fazzi, A. Hansen,
     J. Chem. Phys., 2023, just accepted.
   
   for PTB refer to:
   * S. Grimme, M. Mueller, A. Hansen, J. Chem. Phys., 2023, 158, 124111.
     DOI: 10.1063/5.0137838
   
   with help from (in alphabetical order)
   P. Atkinson, C. Bannwarth, F. Bohle, G. Brandenburg, E. Caldeweyher
   M. Checinski, S. Dohm, S. Ehlert, S. Ehrlich, I. Gerasimov, C. Hﾃｶlzer
   A. Katbashev, J. Kohn, J. Koopman, C. Lavigne, S. Lehtola, F. Mﾃ､rz, M. Mﾃｼller,
   F. Musil, H. Neugebauer, J. Pisarek, C. Plett, P. Pracht, F. Pultar,
   J. Seibert, P. Shushkov, S. Spicher, M. Stahn, M. Steiner, T. Strunk,
   J. Stﾃｼckrath, T. Rose, and J. Unsleber
   
 * started run on 2026/10/03 at 08:19:19.573     
   ID    Z sym.   atoms
    1    1 H      1, 3, 6, 11, 12, 17, 19, 22, 24, 26-30, 39, 40, 42, 43, 45,
                  46, 48, 49, 52, 56, 57, 61, 62, 64, 65, 67, 68, 71, 74, 76,
                  78, 81, 83, 84, 89, 90, 95, 98-100, 108-110, 114, 116, 117
    2    6 C      2, 4, 5, 7-10, 13-16, 18, 20, 21, 23, 25, 38, 41, 44, 47,
                  50, 51, 53-55, 60, 63, 66, 69, 70, 72, 73, 75, 77, 80, 82,
                  85-88, 91-94, 96, 97, 107, 112, 113, 115
    3    7 N      31-34, 58, 79, 101-104
    4    8 O      35-37, 59, 105, 106, 111, 118

           -------------------------------------------------
          |                Calculation Setup                |
           -------------------------------------------------

          program call               : C:\ORCA_6.1.1\xtb-6.7.1pre\xtb.exe  D8\D8_pull_+2.0A_XTB2_SP_XTB.xyz --grad -c 0 -u 0 -P 4 --namespace D8\D8_pull_+2.0A_XTB2_SP --input D8\D8_pull_+2.0A_XTB2_SP_XTB.input.tmp --acc 1.000000      
          calculation namespace      : D8\D8_pull_+2.0A_XTB2_SP
          coordinate file            : D8\D8_pull_+2.0A_XTB2_SP_XTB.xyz
          omp threads                :                     4


molecular fragmentation (1/2 indicates fragments):
111111111111111111111111111111111111111111111111111111111112222222222222
2222222222222222222222222222222222222222222222
# atoms in fragment 1/2:    59    59
 fragment masses (1/2) :      459.50      459.50
CMA distance (Bohr)    :  30.784
constraining FC (au)   :  0.0500

           -------------------------------------------------
          |                 G F N 2 - x T B                 |
           -------------------------------------------------

        Reference                      10.1021/acs.jctc.8b01176
      * Hamiltonian:
        H0-scaling (s, p, d)           1.850000    2.230000    2.230000
        zeta-weighting                 0.500000
      * Dispersion:
        s8                             2.700000
        a1                             0.520000
        a2                             5.000000
        s9                             5.000000
      * Repulsion:
        kExp                           1.500000    1.000000
        rExp                           1.000000
      * Coulomb:
        alpha                          2.000000
        third order                    shell-resolved
        anisotropic                    true
        a3                             3.000000
        a5                             4.000000
        cn-shift                       1.200000
        cn-exp                         4.000000
        max-rad                        5.000000


          ...................................................
          :                      SETUP                      :
          :.................................................:
          :  # basis functions                 322          :
          :  # atomic orbitals                 322          :
          :  # shells                          186          :
          :  # electrons                       348          :
          :  max. iterations                   250          :
          :  Hamiltonian                  GFN2-xTB          :
          :  restarted?                      false          :
          :  GBSA solvation                  false          :
          :  PC potential                    false          :
          :  electronic temp.          300.0000000     K    :
          :  accuracy                    1.0000000          :
          :  -> integral cutoff          0.2500000E+02      :
          :  -> integral neglect         0.1000000E-07      :
          :  -> SCF convergence          0.1000000E-05 Eh   :
          :  -> wf. convergence          0.1000000E-03 e    :
          :  Broyden damping             0.4000000          :
          :  net charge                          0          :
          :  unpaired electrons                  0          :
          ...................................................

 iter      E             dE          RMSdq      gap      omega  full diag
   1   -197.4365836 -0.197437E+03  0.413E+00    2.88       0.0  T
   2   -197.9674056 -0.530822E+00  0.242E+00    2.65       1.0  T
   3   -198.0186972 -0.512916E-01  0.130E+00    3.08       1.0  T
   4   -198.0256283 -0.693112E-02  0.434E-01    2.85       1.0  T
   5   -198.0404918 -0.148635E-01  0.916E-02    2.90       1.0  T
   6   -198.0406943 -0.202449E-03  0.528E-02    2.92       1.0  T
   7   -198.0408584 -0.164102E-03  0.222E-02    2.94       1.0  T
   8   -198.0408655 -0.712522E-05  0.829E-03    2.94       1.1  T
   9   -198.0408684 -0.287296E-05  0.364E-03    2.94       2.5  T
  10   -198.0408686 -0.207768E-06  0.147E-03    2.94       6.3  T
  11   -198.0408687 -0.124021E-06  0.552E-04    2.94      16.7  T
  12   -198.0408687 -0.110350E-07  0.259E-04    2.94      35.5  T

   *** convergence criteria satisfied after 12 iterations ***

         #    Occupation            Energy/Eh            Energy/eV
      -------------------------------------------------------------
         1        2.0000           -0.7223368             -19.6558
       ...           ...                  ...                  ...
       168        2.0000           -0.3856241             -10.4934
       169        2.0000           -0.3850052             -10.4765
       170        2.0000           -0.3821821             -10.3997
       171        2.0000           -0.3815338             -10.3821
       172        2.0000           -0.3803882             -10.3509
       173        2.0000           -0.3792559             -10.3201
       174        2.0000           -0.3770938             -10.2612 (HOMO)
       175                         -0.2690635              -7.3216 (LUMO)
       176                         -0.2661036              -7.2410
       177                         -0.2418088              -6.5800
       178                         -0.2383102              -6.4847
       179                         -0.2361581              -6.4262
       ...                                ...                  ...
       322                          0.8698608              23.6701
      -------------------------------------------------------------
                  HL-Gap            0.1080303 Eh            2.9397 eV
             Fermi-level           -0.3230787 Eh           -8.7914 eV

 SCC (total)                   0 d,  0 h,  0 min,  0.259 sec
 SCC setup                      ...        0 min,  0.001 sec (  0.386%)
 Dispersion                     ...        0 min,  0.004 sec (  1.544%)
 classical contributions        ...        0 min,  0.000 sec (  0.000%)
 integral evaluation            ...        0 min,  0.017 sec (  6.564%)
 iterations                     ...        0 min,  0.173 sec ( 66.795%)
 molecular gradient             ...        0 min,  0.063 sec ( 24.324%)
 printout                       ...        0 min,  0.001 sec (  0.386%)

         :::::::::::::::::::::::::::::::::::::::::::::::::::::
         ::                     SUMMARY                     ::
         :::::::::::::::::::::::::::::::::::::::::::::::::::::
         :: total energy            -193.659017487168 Eh    ::
         :: gradient norm              1.318676579615 Eh/a0 ::
         :: HOMO-LUMO gap              2.939653096090 eV    ::
         ::.................................................::
         :: SCC energy              -198.041812679338 Eh    ::
         :: -> isotropic ES            0.296886917834 Eh    ::
         :: -> anisotropic ES          0.005664713435 Eh    ::
         :: -> anisotropic XC          0.036986244558 Eh    ::
         :: -> dispersion             -0.139276645094 Eh    ::
         :: repulsion energy           4.382795192170 Eh    ::
         :: add. restraining           0.000000000000 Eh    ::
         :: total charge               0.000000000000 e     ::
         :::::::::::::::::::::::::::::::::::::::::::::::::::::


Property printout bound to 'properties.out'
#
# Number of atoms
#
       118
#
# The current total energy in Eh
#
   -193.659017487168
#
# The current gradient in Eh/bohr
#
      -0.125122757637
       0.054263334146
       0.085521722934
       0.062436203983
      -0.119567834834
       0.033373402400
      -0.071920711849
       0.138783329169
      -0.038116409592
       0.007243143244
       0.004595606144
      -0.015939932631
       0.081689490921
       0.075758624701
       0.030846448173
      -0.108357803941
       0.030388163711
      -0.034873323106
      -0.000539293323
      -0.002636408140
      -0.003444355801
      -0.004552221048
       0.017116706381
       0.015346858386
       0.003079664782
      -0.006428372300
      -0.004862656069
      -0.056693327856
       0.073172441255
       0.061428371813
       0.104980655151
      -0.036374337500
       0.026148250878
      -0.032290403942
      -0.036990151243
      -0.102401463804
       0.001876041946
       0.014046641086
      -0.013983742052
       0.004605410213
      -0.031228783535
       0.017899244646
       0.004499447694
      -0.019218892297
      -0.008415434572
       0.085917987546
       0.113026913968
      -0.001439121290
      -0.095930736550
      -0.127843424178
       0.000460003192
       0.111847168739
       0.002596653400
      -0.085683762133
      -0.129570097261
      -0.009979922437
       0.096131973274
       0.003308138987
       0.013332535366
       0.008149695040
      -0.080971985790
      -0.114794199770
       0.001041446893
       0.092498102375
       0.132163818270
      -0.001301650884
      -0.113688522952
      -0.010807790993
       0.084481934227
       0.125917046709
       0.006418521958
      -0.098817569717
       0.073229571595
       0.003704746251
      -0.076920070850
       0.010094734488
       0.107647129446
       0.068593988197
       0.023952371483
      -0.107412745440
       0.074441531834
      -0.118158941064
      -0.007986415971
      -0.059233530934
       0.062950811946
      -0.014691285494
      -0.185719389501
      -0.148903228802
       0.273438368761
       0.117341636659
      -0.002554448568
       0.000380928459
       0.005314827272
       0.000498917393
       0.014680350895
      -0.009363975129
      -0.005162094395
      -0.015830386730
       0.022072073500
       0.082643486311
      -0.233792482852
       0.055762370697
      -0.001123666190
       0.001682488644
       0.005408253825
       0.000005085317
      -0.000097735551
      -0.003712920724
       0.009612302752
       0.004406355676
      -0.007433126753
      -0.096109005324
      -0.014150192898
      -0.030374382691
       0.081150852329
      -0.076445706955
      -0.039411029292
       0.047865296305
       0.103605563567
       0.025990769602
      -0.026486770646
      -0.016414314685
      -0.068917391820
      -0.055304126645
       0.086700737436
       0.055916198562
       0.082569698673
      -0.045432697947
       0.068566668345
      -0.000049692271
       0.072279108699
      -0.044693844319
      -0.055864929345
      -0.029900336565
       0.096058737273
       0.055285589811
      -0.092590305910
      -0.045323114741
       0.099348435048
       0.025037184197
      -0.013482614929
      -0.076657554152
       0.070791477941
       0.051570589115
      -0.054816384764
      -0.089089107669
      -0.048373106836
      -0.004709538634
       0.006978618742
      -0.024032902735
      -0.062729578174
       0.122804466712
      -0.032627816590
       0.071836089780
      -0.138497725596
       0.037508720875
      -0.004048967524
      -0.007838380707
       0.010459457563
       0.107696986002
      -0.049116406291
      -0.072614988657
      -0.113939065806
       0.045017999900
       0.072498525786
       0.128231398006
      -0.052139011154
      -0.082441362596
       0.011906517141
      -0.111840690757
       0.016705314459
       0.001169722866
       0.003925835686
      -0.001338107528
       0.006483875977
       0.000153354485
       0.010276373246
      -0.096095829366
       0.014260619344
      -0.030453278383
       0.081092022236
       0.076449536737
      -0.039364832770
       0.047890071519
      -0.103626517633
       0.025975876057
      -0.026489228664
       0.016501964774
      -0.068939411960
      -0.055348819755
      -0.086827521143
       0.055928380369
       0.082644045199
       0.045469687706
       0.068521424737
       0.000009768295
      -0.072079891460
      -0.044800643055
      -0.055909325148
       0.029885707472
       0.096170679839
       0.055215760151
       0.092521662629
      -0.045394355687
      -0.004750534272
      -0.006696667587
      -0.024493800277
      -0.062646877219
      -0.122833990966
      -0.032629093285
       0.071806497036
       0.138482057915
       0.037435174064
      -0.004039251585
       0.007945036395
       0.010444439727
       0.107706697262
       0.049148934549
      -0.072594383328
      -0.125169465001
      -0.054278792461
       0.085528430659
       0.062413278784
       0.119535236828
       0.033343485173
      -0.071945542377
      -0.138812153204
      -0.038127815608
      -0.113893511706
      -0.045031817177
       0.072554273735
      -0.129566324833
       0.009993022830
       0.096141292287
       0.001101468681
      -0.004122871122
      -0.001168498063
       0.007265280708
      -0.004420801899
      -0.015747578682
       0.128219882707
       0.052191076666
      -0.082422316830
       0.081763832387
      -0.075756494031
       0.030930529285
      -0.108452081883
      -0.030417203791
      -0.034848009248
       0.011975107815
       0.111821799003
       0.016707520530
      -0.000531118084
       0.003343016477
      -0.003412834748
      -0.004524536880
      -0.017126186482
       0.015227376108
       0.003066200414
       0.006521898275
      -0.004772271685
      -0.056736498945
      -0.073307850441
       0.061466265956
       0.104932130149
       0.036402964062
       0.026129803701
      -0.032249792922
       0.037025760243
      -0.102370170526
       0.001909003382
      -0.013972690008
      -0.014091221941
       0.004616361066
       0.031371657789
       0.018462217550
       0.004530812774
       0.019252131277
      -0.008452277364
       0.085915582639
      -0.113010344253
      -0.001468878157
      -0.095910407999
       0.127849826259
       0.000474501436
       0.111862249454
      -0.002665462316
      -0.085678919518
      -0.113702532499
       0.010835006538
       0.084466611613
       0.125919002844
      -0.006406028096
      -0.098810043836
       0.062999684660
       0.014655087391
      -0.185680804790
      -0.148875640155
      -0.273432977846
       0.117409326776
      -0.002674104394
      -0.000881781004
       0.005139231436
       0.000475613688
      -0.014661357991
      -0.009298215341
      -0.005144268637
       0.015552447005
       0.021913317768
       0.082581780871
       0.233629217505
       0.055461794456
      -0.001134661240
      -0.001963626893
       0.005509238196
      -0.000143264699
       0.000085903203
      -0.004073960788
       0.073246634925
      -0.003689455696
      -0.076924304766
       0.010100536083
      -0.107654875301
       0.068600289517
       0.023947867186
       0.107417881352
       0.074432259588
      -0.118161839911
       0.008000133963
      -0.059237096138
       0.009576274989
      -0.004597442647
      -0.007317213314
       0.003340780002
      -0.013130280262
       0.008024479814
      -0.081018973582
       0.114758908767
       0.001084211551
       0.092509647923
      -0.132166176745
      -0.001295931810
       0.099196506370
      -0.024934644129
      -0.013360621372
      -0.076731560304
      -0.070903110460
       0.051584351276
      -0.054626772697
       0.089156674518
      -0.048541115517
       0.006467991493
      -0.000417803082
       0.010680825195
#
# The atomic numbers and current coordinates in Bohr
#
   1    43.1604586   78.2515582   70.4834824
   6    40.9351014   77.4668192   73.4514114
   1    41.7179003   75.9522729   73.8786291
   6    38.9098143   78.3135525   74.8371188
   6    38.5105083   78.1422179   79.5038103
   1    40.2053923   77.7467094   80.0772988
   6    37.6370641   74.4034597   76.8150444
   6    37.2368841   73.1829289   79.2814312
   6    36.6134102   74.4489745   81.4421953
   6    36.6226606   77.2620023   81.4728170
   1    34.9508353   77.9036572   81.0791941
   1    37.1057468   77.8748834   83.1305524
   6    36.0792887   72.5608925   83.2039850
   6    35.1891918   72.8889134   85.8347778
   6    37.6461960   68.5464293   78.2078870
   6    39.7229025   68.6366743   76.6438006
   1    40.7705083   70.0484197   76.6553953
   6    40.2505162   66.6355898   75.0621736
   1    41.6497094   66.6975842   74.0034944
   6    38.7077731   64.5479224   75.0526601
   6    36.6681156   64.4359663   76.6854224
   1    35.6584754   62.9988476   76.7208009
   6    36.1250986   66.4255413   78.2509953
   1    34.7426214   66.3496832   79.3340530
   6    40.9217217   62.7181726   71.6203511
   1    40.8886785   61.2410323   70.5667259
   1    40.6240250   64.1916509   70.6053747
   1    42.5458029   62.8523630   72.4188944
   1    34.7622314   70.9037852   88.8475988
   1    35.9698693   69.5618815   86.7605647
   7    38.0788104   76.9428751   77.0261262
   7    37.0677592   70.6579004   79.7862437
   7    36.3856213   70.2561140   82.2104141
   7    35.2648507   70.8365593   87.2826205
   8    37.4232773   73.3254898   74.8011457
   8    34.3898587   74.9365590   86.5242125
   8    39.0181325   62.5230342   73.4930332
   6    40.0031552   83.0659320   66.6183071
   1    38.6913632   84.2312694   67.1537414
   1    39.1889076   81.4925303   66.1488731
   6    41.2647939   84.1161744   64.3817320
   1    42.0952652   82.7533443   63.4761613
   1    39.9986925   84.8329027   63.2680525
   6    43.1479586   86.0754061   64.9861394
   1    44.0126330   86.5776391   63.4494045
   1    42.2907910   87.5507154   65.6583309
   6    45.0428286   85.1630162   66.8650647
   1    46.2779685   84.1344849   65.9853590
   1    45.9258289   86.6168760   67.5461751
   6    44.0044486   83.6555326   69.0264234
   6    38.6438562   81.9521257   72.1739206
   1    37.8654845   83.4700726   71.7470002
   6    40.6982403   81.1171634   70.8084295
   6    41.8089041   78.8508372   71.4339451
   6    37.7380442   80.5416882   74.1714679
   1    36.3338648   81.0975450   75.0707953
   1    38.3859465   79.9622892   79.3221611
   7    41.6991226   82.5880259   68.7609360
   8    45.2417766   83.3881981   70.9710516
   6    28.0866677   89.6922094   83.6224748
   1    26.7748757   88.5268720   84.1579091
   1    27.2724201   91.2656111   83.1530408
   6    29.3483064   88.6419670   81.3858997
   1    30.1787777   90.0047971   80.4803290
   1    28.0822050   87.9252387   80.2722202
   6    31.2314711   86.6827353   81.9903071
   1    32.0961455   86.1805023   80.4535722
   1    30.3743036   85.2074259   82.6624986
   6    32.0879611   89.1026088   86.0305911
   6    26.7273687   90.8060156   89.1780883
   1    25.9489970   89.2880688   88.7511679
   6    28.7817528   91.6409779   87.8125972
   6    29.8924166   93.9073042   88.4381128
   1    31.2439711   94.5065832   87.4876501
   6    29.0186140   95.2913222   90.4555791
   1    29.8014128   96.8058685   90.8827968
   6    25.8215567   92.2164532   91.1756356
   1    29.7332220  106.0605572   91.0076621
   7    29.7826351   90.1701154   85.7651037
   6    26.9933268   94.4445888   91.8412865
   1    24.4173773   91.6605964   92.0749630
   6    26.5940208   94.6159235   96.5079780
   1    28.2889048   95.0114320   97.0814665
   1    26.4694591   92.7958522   96.3263288
   6    25.7205766   98.3546817   93.8192121
   6    25.3203966   99.5752125   96.2855989
   6    24.6969227   98.3091668   98.4463630
   6    24.7061731   95.4961391   98.4769847
   1    23.0343479   94.8544842   98.0833617
   1    25.1892594   94.8832579  100.1347200
   6    24.1628013  100.1972489  100.2081527
   6    23.2727044   99.8692280  102.8389454
   6    25.7297085  104.2117121   95.2120547
   6    27.8064150  104.1214671   93.6479683
   1    28.8540208  102.7097216   93.6595630
   6    28.3340287  106.1225516   92.0663413
   6    24.2086111  106.3326001   95.2551630
   1    22.8261339  106.4084582   96.3382207
   1    22.8457439  101.8543561  105.8517665
   1    24.0533818  103.1962598  103.7647324
   7    26.1623230   95.8152663   94.0302939
   7    25.1512717  102.1002410   96.7904114
   7    24.4691338  102.5020274   99.2145818
   7    23.3483632  101.9215821  104.2867882
   8    25.5067898   99.4326515   91.8053134
   8    22.4733713   97.8215823  103.5283802
   6    29.0052342  110.0399687   88.6245188
   1    28.9721910  111.5171091   87.5708936
   1    28.7075375  108.5664904   87.6095424
   1    30.6293154  109.9057784   89.4230621
   8    27.1016450  110.2351071   90.4972009
   6    26.7912856  108.2102189   92.0568278
   6    24.7516282  108.3221750   93.6895901
   1    23.7419880  109.7592937   93.7249686
   6    33.1263412   87.5951252   83.8692324
   1    34.3614810   88.6236564   82.9895267
   1    34.0093414   86.1412654   84.5503428
   8    33.3252891   89.3699432   87.9752193

           -------------------------------------------------
          | TOTAL ENERGY             -193.659017487168 Eh   |
          | GRADIENT NORM               1.318676579615 Eh/ﾎｱ |
          | HOMO-LUMO GAP               2.939653096090 eV   |
           -------------------------------------------------

------------------------------------------------------------------------
 * finished run on 2026/10/03 at 08:19:19.919     
------------------------------------------------------------------------
 total:
 * wall-time:     0 d,  0 h,  0 min,  0.344 sec
 *  cpu-time:     0 d,  0 h,  0 min,  1.312 sec
 * ratio c/w:     3.815 speedup
 SCF:
 * wall-time:     0 d,  0 h,  0 min,  0.262 sec
 *  cpu-time:     0 d,  0 h,  0 min,  1.062 sec
 * ratio c/w:     4.055 speedup


-------------------------   --------------------
FINAL SINGLE POINT ENERGY      -193.659017487170
-------------------------   --------------------


-------------
DIPOLE MOMENT
-------------
                                X             Y             Z
Total Dipole Moment    :      1.03600      -0.06400      -3.46900
                        -----------------------------------------
Magnitude (a.u.)       :      3.62096
Magnitude (Debye)      :      9.20375


--------------------------------
SUGGESTED CITATIONS FOR THIS RUN
--------------------------------

Below you find a list of papers that are relevant to this ORCA run
We neither can nor want to force you to cite these papers, but we appreciate if you do
You receive ORCA, which is the product of decades of hard work by many enthusiastic individuals, for free
The only thing we kindly ask in return is that you cite our papers,
We deeply appreciate it, if you show your appreciation for ORCA by not just citing the generic ORCA reference.

Please note that relegating all ORCA citations to the supporting information does *not* help us.
SI sections are not indexed - citations you put there will not count into any citation statistics
But we need these citations in order to attract the funding resources that allow us to do what we are doing

Therefore, if you are a happy ORCA user, please consider citing a few of the papers listed below in the main body of your paper

In addition to the list printed below, the program has created the file D8\D8_pull_+2.0A_XTB2_SP.bibtex that contains the list in bibtex format
You can import this file easily into all common literature databanks and citation aid programs

It goes without saying that in many instances, there are alternative algorithms to achieve similar
results as the ones you have gotten from ORCA. It is, of course, also the case that in some instances
ORCA just re-implements algorithms worked out by others. We are fully aware of that and we are also
fully appreciative of our colleagues work. Hence this citation list should not be read as indicating
that the listed papers, which are focused on our own work, are the only ones worth citing. It simply
meant to make it easier for users to cite ORCA specific papers. It is not a substitute for doing your
own literature research and citing the relevant literature in a scientifically appropriate manner.

List of essential papers. We consider these as the minimum necessary citations

  1. Bannwarth, C.; Ehlert, S.; Grimme, S.
     GFN2-xTB窶尿n Accurate and Broadly Parametrized Self-Consistent Tight-Binding Quantum Chemical Method with Multipole Electrostatics and Density-Dependent Dispersion Contributions
     J. Chem. Theory Comput. 2019 15(3), 1652-1671
     doi.org/10.1021/acs.jctc.8b01176
  2. Neese, F.
     Software update: the ORCA program system, version 6.0
     WIRES Comput. Molec. Sci. 2025 15(1), e70019
     doi.org/10.1002/wcms.70019

List of papers to cite with high priority. The work reported in these papers was absolutely
necessary for this run to complete.
Our perspective: the developers of density functionals and basis sets usually get cited in chemistry papers
Good! But without the algorithms to do something with them, the functionals or basis sets would not do anything.
Hence, in our opinion, the algorithm design and method developments papers are equally worthy of getting cited

  1. Bannwarth, C.; Caldeweyher, E.; Ehlert, S.; Hansen, A.; Pracht, P.; Seibert, J.; Spicher, S.; Grimme, S.
     Extended tight-binding quantum chemistry methods
     WIRES Comput. Molec. Sci. 2020 11(2), e1493
     doi.org/10.1002/wcms.1493

List of suggested additional citations. These are papers that are important in the 'surrounding' of 
of this run, or papers that preceded the highly important papers. If you like your results we are grateful for a citation.

  1. Neese, F.
     The ORCA program system
     WIRES Comput. Molec. Sci. 2012 2(1), 73-78
     doi.org/10.1002/wcms.81
  2. Neese, F.
     Software update: the ORCA program system, version 4.0
     WIRES Comput. Molec. Sci. 2018 8(1), 1-6
     doi.org/10.1002/wcms.1327
  3. Neese, F.; Wennmohs, F.; Becker, U.; Riplinger, C.
     The ORCA quantum chemistry program package
     J. Chem. Phys. 2020 152(22), 224108
     doi.org/10.1063/5.0004608
  4. Neese, F.
     Software update: The ORCA program system窶之ersion 5.0
     WIRES Comput. Molec. Sci. 2022 12(1), e1606
     doi.org/10.1002/wcms.1606

List of optional additional citations

  1. Neese, F.
     Approximate second-order SCF convergence for spin unrestricted wavefunctions
     Chem. Phys. Lett. 2000 325(1-3), 93-98
     doi.org/10.1016/s0009-2614(00)00662-x

Timings for individual modules:

Sum of individual times          ...        0.407 sec (=   0.007 min)
XTB module                       ...        0.407 sec (=   0.007 min) 100.0 %
                             ****ORCA TERMINATED NORMALLY****
TOTAL RUN TIME: 0 days 0 hours 0 minutes 0 seconds 816 msec
