50

C         33.60589      -23.16170        4.17829
H         33.20873      -22.42131        4.87430
Cl        32.42533      -24.47154        4.00836
Cl        35.13325      -23.79674        4.80388
Cl        33.86925      -22.38176        2.61657
C         31.93580      -23.12062       -0.26989
H         31.62230      -22.27736        0.34830
Cl        31.73401      -24.61492        0.65003
Cl        33.63131      -22.89522       -0.69863
Cl        30.93211      -23.16837       -1.71519
C         34.99777      -25.56822        1.49730
H         34.07303      -25.07647        1.80615
Cl        34.70551      -26.36361       -0.05291
Cl        35.44774      -26.75822        2.72436
Cl        36.26883      -24.35348        1.32910
C         30.30630      -20.31557       -5.63406
H         30.19000      -19.38470       -5.07433
Cl        31.98089      -20.42678       -6.19003
Cl        29.20275      -20.28751       -7.01779
Cl        29.92172      -21.67588       -4.57224
C         36.32714      -23.12253       -3.12316
H         35.37144      -22.65654       -2.87125
Cl        36.65649      -24.40812       -1.96479
Cl        37.59620      -21.89120       -3.05980
Cl        36.22000      -23.79014       -4.75574
C         31.34011      -18.86484        0.74042
H         30.54819      -19.39136        0.18798
Cl        31.78486      -17.38658       -0.12684
Cl        32.75815      -19.91953        0.86283
Cl        30.75262      -18.45748        2.35621
C         27.68975      -22.90777        0.01247
H         28.25693      -21.97521       -0.12235
Cl        28.50287      -23.91728        1.21149
Cl        27.61496      -23.76318       -1.53814
Cl        26.05644      -22.51531        0.57013
C         29.19617      -21.60739        3.62430
H         28.76103      -22.59051        3.81316
Cl        30.71442      -21.83006        2.75888
Cl        29.50598      -20.80093        5.16982
Cl        28.08063      -20.65629        2.64603
C         32.79452      -24.63993       -4.34254
H         33.36600      -25.02437       -5.18908
Cl        31.07561      -24.96357       -4.60210
Cl        33.06535      -22.90185       -4.24450
Cl        33.35826      -25.42918       -2.86249
C         33.66639      -19.55882       -3.04500
H         33.88786      -19.98895       -4.02401
Cl        34.93206      -20.02853       -1.89959
Cl        32.11299      -20.18452       -2.50934
Cl        33.58115      -17.79941       -3.19252
